739

C        -10.76340       -5.92505       -5.83460
C         -8.22489       -5.93797       -5.78046
C         -9.48029       -5.18988       -6.29076
H         -8.24790       -5.95901       -4.66543
H         -8.17253       -2.97647       -7.33552
C         -8.19969       -2.99808       -6.22055
C         -9.48485       -3.73312       -5.76890
H         -9.45554       -5.17042       -7.40580
C        -10.73719       -2.98466       -6.28521
C        -12.02432       -3.71671       -5.83284
C        -12.01941       -5.17984       -6.34886
H        -11.99206       -5.16405       -7.46391
H        -10.78847       -5.94267       -4.71963
H         -9.51234       -3.75262       -4.65397
H        -10.70859       -2.96668       -7.40012
H        -12.05147       -3.73259       -4.71781
C        -10.73926       -1.52755       -5.76395
C         -8.20302       -1.54231       -5.69515
C         -9.45191       -0.79287       -6.21250
C        -11.98602       -0.77710       -6.28522
H        -10.77102       -1.54574       -4.64911
H         -8.23271       -1.56378       -4.58028
H        -11.95201       -0.76043       -7.40032
H         -9.42058       -0.77330       -7.32756
C        -13.28154       -1.50438       -5.83918
C        -13.28035       -2.96708       -6.34914
C        -13.30696       -5.91611       -5.89479
C        -14.50950       -0.73312       -6.36105
C        -14.54949       -3.71341       -5.89659
C        -14.54442       -5.15674       -6.40926
H        -14.52300       -0.73202       -7.47321
H        -13.32321       -1.51667       -4.72567
H        -13.26029       -2.95466       -7.46326
H        -14.62531       -3.71485       -4.78701
H        -14.56549       -5.15487       -7.52121
H        -13.34173       -5.92820       -4.78109
C        -14.50180        0.71203       -5.85049
C        -13.21998        1.43232       -6.28203
C        -11.98186        0.68386       -5.76645
C        -10.69787        1.40854       -6.20554
C         -9.45440        0.66558       -5.69034
C         -8.17070        1.39436       -6.12754
H        -14.58326        0.71955       -4.74229
H        -12.01594        0.67959       -4.65350
H         -9.48783        0.65871       -4.57747
H        -13.19639        1.50307       -7.39194
H        -10.66368        1.47733       -7.31636
H         -8.13749        1.46703       -7.23808
C         -8.21987        5.86396       -6.30503
C         -9.49888        5.12799       -5.84539
C        -10.75572        5.87559       -6.35513
H         -8.19929        5.88483       -7.42016
C         -9.49207        3.66903       -6.36619
H         -9.51996        5.10935       -4.73015
C        -10.76631        2.93966       -5.91059
C        -12.01977        3.67717       -6.41224
C        -12.03403        5.13856       -5.89489
H         -9.47310        3.67495       -7.47944
H        -10.73372        5.89331       -7.47024
H        -12.05464        5.12248       -4.77945
H        -11.99932        3.68077       -7.52556
H        -10.78642        2.87195       -4.79938
C         -8.23763        2.92772       -5.86909
H         -8.25531        2.85689       -4.75813
C        -13.29844        5.87899       -6.40415
C        -13.28945        2.94211       -5.95799
C        -14.55860        5.12091       -5.94332
C        -14.54081        3.67537       -6.45253
H        -13.28522        5.89099       -7.51840
H        -14.62693        5.12077       -4.83321
H        -14.56756        3.66781       -7.56341
H        -13.32128        2.87210       -4.84823
C         -3.16440       -5.92505       -5.83460
C         -0.62589       -5.93797       -5.78046
C         -1.88129       -5.18988       -6.29076
H         -0.64890       -5.95901       -4.66543
H         -0.57353       -2.97647       -7.33552
C         -0.60069       -2.99808       -6.22055
C         -1.88585       -3.73312       -5.76890
H         -1.85654       -5.17042       -7.40580
C         -3.13819       -2.98466       -6.28521
C         -4.42532       -3.71671       -5.83284
C         -4.42041       -5.17984       -6.34886
H         -4.39306       -5.16405       -7.46391
H         -3.18947       -5.94267       -4.71963
H         -1.91334       -3.75262       -4.65397
H         -3.10959       -2.96668       -7.40012
H         -4.45247       -3.73259       -4.71781
C         -3.14026       -1.52755       -5.76395
C         -0.60402       -1.54231       -5.69515
C         -1.85291       -0.79287       -6.21250
C         -4.38702       -0.77710       -6.28522
H         -3.17202       -1.54574       -4.64911
H         -0.63371       -1.56378       -4.58028
H         -4.35301       -0.76043       -7.40032
H         -1.82158       -0.77330       -7.32756
C         -5.68254       -1.50438       -5.83918
C         -5.68135       -2.96708       -6.34914
C         -5.70796       -5.91611       -5.89479
C         -6.91050       -0.73312       -6.36105
C         -6.95049       -3.71341       -5.89659
C         -6.94542       -5.15674       -6.40926
H         -6.92400       -0.73202       -7.47321
H         -5.72421       -1.51667       -4.72567
H         -5.66129       -2.95466       -7.46326
H         -7.02631       -3.71485       -4.78701
H         -6.96649       -5.15487       -7.52121
H         -5.74273       -5.92820       -4.78109
C         -6.90280        0.71203       -5.85049
C         -5.62098        1.43232       -6.28203
C         -4.38286        0.68386       -5.76645
C         -3.09887        1.40854       -6.20554
C         -1.85540        0.66558       -5.69034
C         -0.57170        1.39436       -6.12754
H         -6.98426        0.71955       -4.74229
H         -4.41694        0.67959       -4.65350
H         -1.88883        0.65871       -4.57747
H         -5.59739        1.50307       -7.39194
H         -3.06468        1.47733       -7.31636
H         -0.53849        1.46703       -7.23808
C         -0.62087        5.86396       -6.30503
C         -1.89988        5.12799       -5.84539
C         -3.15672        5.87559       -6.35513
H         -0.60029        5.88483       -7.42016
C         -1.89307        3.66903       -6.36619
H         -1.92096        5.10935       -4.73015
C         -3.16731        2.93966       -5.91059
C         -4.42077        3.67717       -6.41224
C         -4.43503        5.13856       -5.89489
H         -1.87410        3.67495       -7.47944
H         -3.13472        5.89331       -7.47024
H         -4.45564        5.12248       -4.77945
H         -4.40032        3.68077       -7.52556
H         -3.18742        2.87195       -4.79938
C         -0.63863        2.92772       -5.86909
H         -0.65631        2.85689       -4.75813
C         -5.69944        5.87899       -6.40415
C         -5.69045        2.94211       -5.95799
C         -6.95960        5.12091       -5.94332
C         -6.94181        3.67537       -6.45253
H         -5.68622        5.89099       -7.51840
H         -7.02793        5.12077       -4.83321
H         -6.96856        3.66781       -7.56341
H         -5.72228        2.87210       -4.84823
C          4.43460       -5.92505       -5.83460
C          6.97311       -5.93797       -5.78046
C          5.71771       -5.18988       -6.29076
H          6.95010       -5.95901       -4.66543
H          7.02547       -2.97647       -7.33552
C          6.99831       -2.99808       -6.22055
C          5.71315       -3.73312       -5.76890
H          5.74246       -5.17042       -7.40580
C          4.46081       -2.98466       -6.28521
C          3.17368       -3.71671       -5.83284
C          3.17859       -5.17984       -6.34886
H          3.20594       -5.16405       -7.46391
H          4.40953       -5.94267       -4.71963
H          5.68566       -3.75262       -4.65397
H          4.48941       -2.96668       -7.40012
H          3.14653       -3.73259       -4.71781
C          4.45874       -1.52755       -5.76395
C          6.99498       -1.54231       -5.69515
C          5.74609       -0.79287       -6.21250
C          3.21198       -0.77710       -6.28522
H          4.42698       -1.54574       -4.64911
H          6.96529       -1.56378       -4.58028
H          3.24599       -0.76043       -7.40032
H          5.77742       -0.77330       -7.32756
C          1.91646       -1.50438       -5.83918
C          1.91765       -2.96708       -6.34914
C          1.89104       -5.91611       -5.89479
C          0.68850       -0.73312       -6.36105
C          0.64851       -3.71341       -5.89659
C          0.65358       -5.15674       -6.40926
H          0.67500       -0.73202       -7.47321
H          1.87479       -1.51667       -4.72567
H          1.93771       -2.95466       -7.46326
H          0.57269       -3.71485       -4.78701
H          0.63251       -5.15487       -7.52121
H          1.85627       -5.92820       -4.78109
C          0.69620        0.71203       -5.85049
C          1.97802        1.43232       -6.28203
C          3.21614        0.68386       -5.76645
C          4.50013        1.40854       -6.20554
C          5.74360        0.66558       -5.69034
C          7.02730        1.39436       -6.12754
H          0.61474        0.71955       -4.74229
H          3.18206        0.67959       -4.65350
H          5.71017        0.65871       -4.57747
H          2.00161        1.50307       -7.39194
H          4.53432        1.47733       -7.31636
H          7.06051        1.46703       -7.23808
C          6.97813        5.86396       -6.30503
C          5.69912        5.12799       -5.84539
C          4.44228        5.87559       -6.35513
H          6.99871        5.88483       -7.42016
C          5.70593        3.66903       -6.36619
H          5.67804        5.10935       -4.73015
C          4.43169        2.93966       -5.91059
C          3.17823        3.67717       -6.41224
C          3.16397        5.13856       -5.89489
H          5.72490        3.67495       -7.47944
H          4.46428        5.89331       -7.47024
H          3.14336        5.12248       -4.77945
H          3.19868        3.68077       -7.52556
H          4.41158        2.87195       -4.79938
C          6.96037        2.92772       -5.86909
H          6.94269        2.85689       -4.75813
C          1.89956        5.87899       -6.40415
C          1.90855        2.94211       -5.95799
C          0.63940        5.12091       -5.94332
C          0.65719        3.67537       -6.45253
H          1.91278        5.89099       -7.51840
H          0.57107        5.12077       -4.83321
H          0.63044        3.66781       -7.56341
H          1.87672        2.87210       -4.84823
C         12.03360       -5.92505       -5.83460
C         14.57211       -5.93797       -5.78046
C         13.31671       -5.18988       -6.29076
H         14.54910       -5.95901       -4.66543
H         14.62447       -2.97647       -7.33552
C         14.59731       -2.99808       -6.22055
C         13.31215       -3.73312       -5.76890
H         13.34146       -5.17042       -7.40580
C         12.05981       -2.98466       -6.28521
C         10.77268       -3.71671       -5.83284
C         10.77759       -5.17984       -6.34886
H         10.80494       -5.16405       -7.46391
H         12.00853       -5.94267       -4.71963
H         13.28466       -3.75262       -4.65397
H         12.08841       -2.96668       -7.40012
H         10.74553       -3.73259       -4.71781
C         12.05774       -1.52755       -5.76395
C         14.59398       -1.54231       -5.69515
C         13.34509       -0.79287       -6.21250
C         10.81098       -0.77710       -6.28522
H         12.02598       -1.54574       -4.64911
H         14.56429       -1.56378       -4.58028
H         10.84499       -0.76043       -7.40032
H         13.37642       -0.77330       -7.32756
C          9.51546       -1.50438       -5.83918
C          9.51665       -2.96708       -6.34914
C          9.49004       -5.91611       -5.89479
C          8.28750       -0.73312       -6.36105
C          8.24751       -3.71341       -5.89659
C          8.25258       -5.15674       -6.40926
H          8.27400       -0.73202       -7.47321
H          9.47379       -1.51667       -4.72567
H          9.53671       -2.95466       -7.46326
H          8.17169       -3.71485       -4.78701
H          8.23151       -5.15487       -7.52121
H          9.45527       -5.92820       -4.78109
C          8.29520        0.71203       -5.85049
C          9.57702        1.43232       -6.28203
C         10.81514        0.68386       -5.76645
C         12.09913        1.40854       -6.20554
C         13.34260        0.66558       -5.69034
C         14.62630        1.39436       -6.12754
H          8.21374        0.71955       -4.74229
H         10.78106        0.67959       -4.65350
H         13.30917        0.65871       -4.57747
H          9.60061        1.50307       -7.39194
H         12.13332        1.47733       -7.31636
H         14.65951        1.46703       -7.23808
C         14.57713        5.86396       -6.30503
C         13.29812        5.12799       -5.84539
C         12.04128        5.87559       -6.35513
H         14.59771        5.88483       -7.42016
C         13.30493        3.66903       -6.36619
H         13.27704        5.10935       -4.73015
C         12.03069        2.93966       -5.91059
C         10.77723        3.67717       -6.41224
C         10.76297        5.13856       -5.89489
H         13.32390        3.67495       -7.47944
H         12.06328        5.89331       -7.47024
H         10.74236        5.12248       -4.77945
H         10.79768        3.68077       -7.52556
H         12.01058        2.87195       -4.79938
C         14.55937        2.92772       -5.86909
H         14.54169        2.85689       -4.75813
C          9.49856        5.87899       -6.40415
C          9.50755        2.94211       -5.95799
C          8.23840        5.12091       -5.94332
C          8.25619        3.67537       -6.45253
H          9.51178        5.89099       -7.51840
H          8.17007        5.12077       -4.83321
H          8.22944        3.66781       -7.56341
H          9.47572        2.87210       -4.84823
C        -10.76340       -5.92505        6.16540
C         -8.22489       -5.93797        6.21954
C         -9.48029       -5.18988        5.70924
H         -8.24790       -5.95901        7.33457
H         -8.17253       -2.97647        4.66448
C         -8.19969       -2.99808        5.77945
C         -9.48485       -3.73312        6.23110
H         -9.45554       -5.17042        4.59420
C        -10.73719       -2.98466        5.71479
C        -12.02432       -3.71671        6.16716
C        -12.01941       -5.17984        5.65114
H        -11.99206       -5.16405        4.53609
H        -10.78847       -5.94267        7.28037
H         -9.51234       -3.75262        7.34603
H        -10.70859       -2.96668        4.59988
H        -12.05147       -3.73259        7.28219
C        -10.73926       -1.52755        6.23605
C         -8.20302       -1.54231        6.30485
C         -9.45191       -0.79287        5.78750
C        -11.98602       -0.77710        5.71478
H        -10.77102       -1.54574        7.35089
H         -8.23271       -1.56378        7.41972
H        -11.95201       -0.76043        4.59968
H         -9.42058       -0.77330        4.67244
C        -13.28154       -1.50438        6.16082
C        -13.28035       -2.96708        5.65086
C        -13.30696       -5.91611        6.10521
C        -14.50950       -0.73312        5.63895
C        -14.54949       -3.71341        6.10341
C        -14.54442       -5.15674        5.59074
H        -14.52300       -0.73202        4.52679
H        -13.32321       -1.51667        7.27433
H        -13.26029       -2.95466        4.53674
H        -14.62531       -3.71485        7.21299
H        -14.56549       -5.15487        4.47879
H        -13.34173       -5.92820        7.21891
C        -14.50180        0.71203        6.14951
C        -13.21998        1.43232        5.71797
C        -11.98186        0.68386        6.23355
C        -10.69787        1.40854        5.79446
C         -9.45440        0.66558        6.30966
C         -8.17070        1.39436        5.87246
H        -14.58326        0.71955        7.25771
H        -12.01594        0.67959        7.34650
H         -9.48783        0.65871        7.42253
H        -13.19639        1.50307        4.60806
H        -10.66368        1.47733        4.68364
H         -8.13749        1.46703        4.76192
C         -8.21987        5.86396        5.69497
C         -9.49888        5.12799        6.15461
C        -10.75572        5.87559        5.64487
H         -8.19929        5.88483        4.57984
C         -9.49207        3.66903        5.63381
H         -9.51996        5.10935        7.26985
C        -10.76631        2.93966        6.08941
C        -12.01977        3.67717        5.58776
C        -12.03403        5.13856        6.10511
H         -9.47310        3.67495        4.52056
H        -10.73372        5.89331        4.52976
H        -12.05464        5.12248        7.22055
H        -11.99932        3.68077        4.47444
H        -10.78642        2.87195        7.20062
C         -8.23763        2.92772        6.13091
H         -8.25531        2.85689        7.24187
C        -13.29844        5.87899        5.59585
C        -13.28945        2.94211        6.04201
C        -14.55860        5.12091        6.05668
C        -14.54081        3.67537        5.54747
H        -13.28522        5.89099        4.48160
H        -14.62693        5.12077        7.16679
H        -14.56756        3.66781        4.43659
H        -13.32128        2.87210        7.15177
C         -3.16440       -5.92505        6.16540
C         -0.62589       -5.93797        6.21954
C         -1.88129       -5.18988        5.70924
H         -0.64890       -5.95901        7.33457
H         -0.57353       -2.97647        4.66448
C         -0.60069       -2.99808        5.77945
C         -1.88585       -3.73312        6.23110
H         -1.85654       -5.17042        4.59420
C         -3.13819       -2.98466        5.71479
C         -4.42532       -3.71671        6.16716
C         -4.42041       -5.17984        5.65114
H         -4.39306       -5.16405        4.53609
H         -3.18947       -5.94267        7.28037
H         -1.91334       -3.75262        7.34603
H         -3.10959       -2.96668        4.59988
H         -4.45247       -3.73259        7.28219
C         -3.14026       -1.52755        6.23605
C         -0.60402       -1.54231        6.30485
C         -1.85291       -0.79287        5.78750
C         -4.38702       -0.77710        5.71478
H         -3.17202       -1.54574        7.35089
H         -0.63371       -1.56378        7.41972
H         -1.82158       -0.77330        4.67244
C         -5.68254       -1.50438        6.16082
C         -5.68135       -2.96708        5.65086
C         -5.70796       -5.91611        6.10521
C         -6.91050       -0.73312        5.63895
C         -6.95049       -3.71341        6.10341
C         -6.94542       -5.15674        5.59074
H         -6.92400       -0.73202        4.52679
H         -5.72421       -1.51667        7.27433
H         -5.66129       -2.95466        4.53674
H         -7.02631       -3.71485        7.21299
H         -6.96649       -5.15487        4.47879
H         -5.74273       -5.92820        7.21891
C         -6.90280        0.71203        6.14951
C         -5.62098        1.43232        5.71797
C         -4.38286        0.68386        6.23355
C         -3.09887        1.40854        5.79446
C         -1.85540        0.66558        6.30966
C         -0.57170        1.39436        5.87246
H         -6.98426        0.71955        7.25771
H         -4.41694        0.67959        7.34650
H         -1.88883        0.65871        7.42253
H         -5.59739        1.50307        4.60806
H         -3.06468        1.47733        4.68364
H         -0.53849        1.46703        4.76192
C         -0.62087        5.86396        5.69497
C         -1.89988        5.12799        6.15461
C         -3.15672        5.87559        5.64487
H         -0.60029        5.88483        4.57984
C         -1.89307        3.66903        5.63381
H         -1.92096        5.10935        7.26985
C         -3.16731        2.93966        6.08941
C         -4.42077        3.67717        5.58776
C         -4.43503        5.13856        6.10511
H         -1.87410        3.67495        4.52056
H         -3.13472        5.89331        4.52976
H         -4.45564        5.12248        7.22055
H         -4.40032        3.68077        4.47444
H         -3.18742        2.87195        7.20062
C         -0.63863        2.92772        6.13091
H         -0.65631        2.85689        7.24187
C         -5.69944        5.87899        5.59585
C         -5.69045        2.94211        6.04201
C         -6.95960        5.12091        6.05668
C         -6.94181        3.67537        5.54747
H         -5.68622        5.89099        4.48160
H         -7.02793        5.12077        7.16679
H         -6.96856        3.66781        4.43659
H         -5.72228        2.87210        7.15177
C          4.43460       -5.92505        6.16540
C          6.97311       -5.93797        6.21954
C          5.71771       -5.18988        5.70924
H          6.95010       -5.95901        7.33457
H          7.02547       -2.97647        4.66448
C          6.99831       -2.99808        5.77945
C          5.71315       -3.73312        6.23110
H          5.74246       -5.17042        4.59420
C          4.46081       -2.98466        5.71479
C          3.17368       -3.71671        6.16716
C          3.17859       -5.17984        5.65114
H          3.20594       -5.16405        4.53609
H          4.40953       -5.94267        7.28037
H          5.68566       -3.75262        7.34603
H          4.48941       -2.96668        4.59988
H          3.14653       -3.73259        7.28219
C          4.45874       -1.52755        6.23605
C          6.99498       -1.54231        6.30485
C          5.74609       -0.79287        5.78750
C          3.21198       -0.77710        5.71478
H          4.42698       -1.54574        7.35089
H          6.96529       -1.56378        7.41972
H          3.24599       -0.76043        4.59968
C          1.91646       -1.50438        6.16082
C          1.91765       -2.96708        5.65086
C          1.89104       -5.91611        6.10521
C          0.68850       -0.73312        5.63895
C          0.64851       -3.71341        6.10341
C          0.65358       -5.15674        5.59074
H          0.67500       -0.73202        4.52679
H          1.87479       -1.51667        7.27433
H          1.93771       -2.95466        4.53674
H          0.57269       -3.71485        7.21299
H          0.63251       -5.15487        4.47879
H          1.85627       -5.92820        7.21891
C          0.69620        0.71203        6.14951
C          1.97802        1.43232        5.71797
C          3.21614        0.68386        6.23355
C          4.50013        1.40854        5.79446
C          5.74360        0.66558        6.30966
C          7.02730        1.39436        5.87246
H          0.61474        0.71955        7.25771
H          3.18206        0.67959        7.34650
H          5.71017        0.65871        7.42253
H          2.00161        1.50307        4.60806
H          4.53432        1.47733        4.68364
H          7.06051        1.46703        4.76192
C          6.97813        5.86396        5.69497
C          5.69912        5.12799        6.15461
C          4.44228        5.87559        5.64487
H          6.99871        5.88483        4.57984
C          5.70593        3.66903        5.63381
H          5.67804        5.10935        7.26985
C          4.43169        2.93966        6.08941
C          3.17823        3.67717        5.58776
C          3.16397        5.13856        6.10511
H          5.72490        3.67495        4.52056
H          4.46428        5.89331        4.52976
H          3.14336        5.12248        7.22055
H          3.19868        3.68077        4.47444
H          4.41158        2.87195        7.20062
C          6.96037        2.92772        6.13091
H          6.94269        2.85689        7.24187
C          1.89956        5.87899        5.59585
C          1.90855        2.94211        6.04201
C          0.63940        5.12091        6.05668
C          0.65719        3.67537        5.54747
H          1.91278        5.89099        4.48160
H          0.57107        5.12077        7.16679
H          0.63044        3.66781        4.43659
H          1.87672        2.87210        7.15177
C         12.03360       -5.92505        6.16540
C         14.57211       -5.93797        6.21954
C         13.31671       -5.18988        5.70924
H         14.54910       -5.95901        7.33457
H         14.62447       -2.97647        4.66448
C         14.59731       -2.99808        5.77945
C         13.31215       -3.73312        6.23110
H         13.34146       -5.17042        4.59420
C         12.05981       -2.98466        5.71479
C         10.77268       -3.71671        6.16716
C         10.77759       -5.17984        5.65114
H         10.80494       -5.16405        4.53609
H         12.00853       -5.94267        7.28037
H         13.28466       -3.75262        7.34603
H         12.08841       -2.96668        4.59988
H         10.74553       -3.73259        7.28219
C         12.05774       -1.52755        6.23605
C         14.59398       -1.54231        6.30485
C         13.34509       -0.79287        5.78750
C         10.81098       -0.77710        5.71478
H         12.02598       -1.54574        7.35089
H         14.56429       -1.56378        7.41972
H         10.84499       -0.76043        4.59968
H         13.37642       -0.77330        4.67244
C          9.51546       -1.50438        6.16082
C          9.51665       -2.96708        5.65086
C          9.49004       -5.91611        6.10521
C          8.28750       -0.73312        5.63895
C          8.24751       -3.71341        6.10341
C          8.25258       -5.15674        5.59074
H          8.27400       -0.73202        4.52679
H          9.47379       -1.51667        7.27433
H          9.53671       -2.95466        4.53674
H          8.17169       -3.71485        7.21299
H          8.23151       -5.15487        4.47879
H          9.45527       -5.92820        7.21891
C          8.29520        0.71203        6.14951
C          9.57702        1.43232        5.71797
C         10.81514        0.68386        6.23355
C         12.09913        1.40854        5.79446
C         13.34260        0.66558        6.30966
C         14.62630        1.39436        5.87246
H          8.21374        0.71955        7.25771
H         10.78106        0.67959        7.34650
H         13.30917        0.65871        7.42253
H          9.60061        1.50307        4.60806
H         12.13332        1.47733        4.68364
H         14.65951        1.46703        4.76192
C         14.57713        5.86396        5.69497
C         13.29812        5.12799        6.15461
C         12.04128        5.87559        5.64487
H         14.59771        5.88483        4.57984
C         13.30493        3.66903        5.63381
H         13.27704        5.10935        7.26985
C         12.03069        2.93966        6.08941
C         10.77723        3.67717        5.58776
C         10.76297        5.13856        6.10511
H         13.32390        3.67495        4.52056
H         12.06328        5.89331        4.52976
H         10.74236        5.12248        7.22055
H         10.79768        3.68077        4.47444
H         12.01058        2.87195        7.20062
C         14.55937        2.92772        6.13091
H         14.54169        2.85689        7.24187
C          9.49856        5.87899        5.59585
C          9.50755        2.94211        6.04201
C          8.23840        5.12091        6.05668
C          8.25619        3.67537        5.54747
H          9.51178        5.89099        4.48160
H          8.17007        5.12077        7.16679
H          8.22944        3.66781        4.43659
H          9.47572        2.87210        7.15177
N         -5.59437       -1.57717        1.96619
C         -5.64998       -1.39739        3.45070
H         -6.52025       -0.74166        3.56838
H         -5.81140       -2.42407        3.79868
C         -4.38702       -0.77710        4.09478
H         -3.50356       -1.42188        3.90950
H         -4.19703        0.23345        3.67877
C         -6.87455       -2.18899        1.53283
H         -7.03111       -3.17878        2.01825
H         -7.73953       -1.53890        1.79544
H         -6.89512       -2.34784        0.43085
C         -4.48973       -2.48341        1.57028
H         -4.56234       -3.45788        2.10280
H         -4.51418       -2.68747        0.47605
H         -3.49576       -2.03756        1.78436
C         -5.44198       -0.27764        1.26883
H         -5.49479       -0.40926        0.16451
H         -6.24472        0.43274        1.56799
H         -4.45883        0.19119        1.48313
N          4.53874       -1.59294        2.03891
C          4.48313       -1.41316        3.52342
H          3.61286       -0.75743        3.64110
H          4.32171       -2.43984        3.87140
C          5.74609       -0.79287        4.16750
H          6.62955       -1.43765        3.98222
H          5.93608        0.21768        3.75149
C          3.25856       -2.20476        1.60555
H          3.10200       -3.19455        2.09097
H          2.39358       -1.55467        1.86816
H          3.23799       -2.36361        0.50357
C          5.64338       -2.49918        1.64300
H          5.57077       -3.47365        2.17552
H          5.61893       -2.70324        0.54877
H          6.63735       -2.05333        1.85708
C          4.69113       -0.29341        1.34155
H          4.63832       -0.42503        0.23723
H          3.88839        0.41697        1.64071
H          5.67428        0.17542        1.55585
O         -5.84862        0.10571       -0.92712
H         -5.85860        1.03100       -0.67912
H         -5.83717        0.10587       -1.88505
O          7.52729        1.91294       -1.86788
H          7.99666        2.72844       -2.04793
H          7.61951        1.39222       -2.66670
O         -6.02848        3.32886       -2.13611
H         -5.09974        3.56337       -2.12189
H         -6.49144        4.15736       -2.26655
O          6.39548        4.70084        1.19310
H          6.38550        5.62613        1.44110
H          6.40693        4.70100        0.23517
O          5.86513        4.44352       -1.79896
H          5.85515        5.36881       -1.55096
H          5.87658        4.44368       -2.75689
O          4.17686        3.07289        0.32532
H          4.16688        3.99818        0.57332
H          4.18831        3.07305       -0.63261
O          2.66160        2.03992       -1.93330
H          2.65162        2.96521       -1.68530
H          2.67305        2.04008       -2.89123
O          0.74506        0.54693       -0.85158
H          0.73508        1.47222       -0.60358
H          0.75651        0.54709       -1.80951
O         -1.25839       -1.11977        2.51843
H         -1.26837       -0.19448        2.76643
H         -1.24694       -1.11961        1.56050
O         -1.37605       -1.07510       -0.29492
H         -1.38603       -0.14981       -0.04692
H         -1.36460       -1.07494       -1.25285
O        -10.89187       -4.06178        1.33925
H        -10.90185       -3.13649        1.58725
H        -10.88042       -4.06162        0.38132
O         -6.89887       -3.47588       -0.82797
H         -7.74991       -3.91535       -0.84679
H         -6.25604       -4.17479       -0.95467
O         -9.72269       -2.98928       -1.62028
H        -10.63604       -2.73966       -1.76601
H         -9.24614       -2.16059       -1.55761
O         -3.73287       -4.66753       -0.78436
H         -3.74285       -3.74224       -0.53636
H         -3.72142       -4.66737       -1.74229
O         -5.56339        3.01709       -0.34472
H         -6.23525        3.43442       -0.88529
H         -5.05599        3.74155        0.02335
O          9.65725       -1.29684        1.05385
H          9.64727       -0.37155        1.30185
H          9.66870       -1.29668        0.09592
O         13.13763       -2.03837       -0.32624
H         13.12765       -1.11308       -0.07824
H         13.14908       -2.03821       -1.28417
O         11.19786       -1.54828       -1.75223
H         11.18788       -0.62299       -1.50423
H         11.20931       -1.54812       -2.71016
O         -2.82410        1.64178       -1.98118
H         -2.83408        2.56707       -1.73318
H         -2.81265        1.64194       -2.93911
O          1.23393        0.58379        1.93708
H          1.22395        1.50908        2.18508
H          1.24538        0.58395        0.97915
O         -9.69994        3.07166        1.74818
H         -9.70992        3.99695        1.99618
H         -9.68849        3.07182        0.79025
O        -11.55040        3.29824       -1.99375
H        -12.20735        3.98499       -2.11442
H        -10.70702        3.74189       -2.09196
O          4.45648       -2.19802       -1.97651
H          4.44037       -1.40082       -1.44550
H          5.38558       -2.40432       -2.08591
O         -4.75611        4.65433        2.59952
H         -4.76609        5.57962        2.84752
H         -4.74466        4.65449        1.64159
O          1.08905       -4.29757       -1.05855
H          1.07907       -3.37228       -0.81055
H          1.10050       -4.29741       -2.01648
O          2.42113       -1.11483       -2.03111
H          2.41115       -0.18954       -1.78311
H          2.43258       -1.11467       -2.98904
O         -6.49756        4.82398        0.75045
H         -6.69718        5.56174        0.17285
H         -7.31651        4.33114        0.81523
O         -6.75599       -2.55819       -2.51604
H         -6.11256       -1.85337       -2.43233
H         -6.30151       -3.25340       -2.99341
O          8.40685        1.56521        0.46576
H          8.03953        2.40687        0.19290
H          9.24828        1.50311        0.01199
O         -2.47929        4.34874        0.84213
H         -2.48927        5.27403        1.09013
H         -2.46784        4.34890       -0.11580
O        -12.55735        0.15853        2.54025
H        -11.93031       -0.55699        2.65257
H        -13.41706       -0.24144        2.67694
O         -1.44405        4.26396       -2.22541
H         -1.45403        5.18925       -1.97741
H         -1.43260        4.26412       -3.18334
O        -11.60589        1.18584        0.47230
H        -12.42630        1.31406       -0.00545
H        -11.25871        2.06802        0.61007
O          5.72291        1.14978        0.03102
H          5.71293        2.07507        0.27902
H          5.73436        1.14994       -0.92691
O         -1.35831        1.94598        0.60906
H         -2.29138        1.84762        0.41549
H         -1.22802        2.88737        0.72980
O          8.60304       -4.92498        0.33299
H          8.59306       -3.99969        0.58099
H          8.61449       -4.92482       -0.62494
O          6.44770       -3.31175       -0.83690
H          6.43772       -2.38646       -0.58890
H          6.45915       -3.31159       -1.79483
O         12.90003        1.80627        1.76506
H         13.67576        2.36699        1.72507
H         13.24221        0.91456        1.83937
O         -0.27716        2.70184        2.98704
H         -1.23080        2.70472        2.89569
H          0.05239        3.05087        2.15799
O          3.39052        0.65123       -0.72329
H          3.38054        1.57652       -0.47529
H          3.40197        0.65139       -1.68122
O          4.79398        2.15760        2.57000
H          4.78400        3.08289        2.81800
H          4.80543        2.15776        1.61207
O         -9.44631       -0.34486       -2.12359
H         -9.45630        0.58043       -1.87559
O         11.09775       -4.78815        2.39811
H         11.08777       -3.86286        2.64611
