303

C       -3.290109     -5.919302     -7.095950
C       -0.751599     -5.932222     -7.041810
C       -2.014041     -5.304996     -7.591269
H       -0.774609     -5.953262     -5.926780
H       -0.699239     -2.970722     -8.596870
C       -0.726399     -2.992332     -7.481900
C       -2.009886     -3.759860     -7.034670
H       -1.982249     -5.164672     -8.667150
C       -3.263899     -2.978912     -7.546560
C       -4.549265     -3.711620     -7.090966
C       -4.546119     -5.174092     -7.610210
H       -4.518769     -5.158302     -8.725260
H       -3.315179     -5.936922     -5.980980
H       -2.039049     -3.746872     -5.915320
H       -3.235299     -2.960932     -8.661470
H       -4.578179     -3.726842     -5.979160
C       -3.262477     -1.522873     -7.025384
C       -0.713728     -1.515124     -6.994582
C       -1.978619     -0.787122     -7.473850
C       -4.512729     -0.771352     -7.546570
H       -3.297729     -1.539992     -5.910460
H       -0.759419     -1.558032     -5.841630
H       -4.475720     -0.751426     -8.646645
H       -1.947289     -0.767552     -8.588910
C       -5.808249     -1.498632     -7.100530
C       -5.807059     -2.961332     -7.610490
C       -5.833669     -5.910362     -7.156140
C       -7.036209     -0.727372     -7.622400
C       -7.076199     -3.707662     -7.157940
C       -7.071129     -5.150992     -7.670610
H       -7.049709     -0.726272     -8.734560
H       -5.849919     -1.510922     -5.987020
H       -5.786999     -2.948912     -8.724610
H       -7.152019     -3.709102     -6.048360
H       -7.092199     -5.149122     -8.782560
H       -5.868439     -5.922452     -6.042440
C       -7.028509      0.717778     -7.111840
C       -5.746689      1.438068     -7.543380
C       -4.507061      0.697492     -7.026647
C       -3.224579      1.414288     -7.466890
C       -1.977121      0.677716     -6.950761
C       -0.697409      1.400108     -7.388890
H       -7.109969      0.725298     -6.003640
H       -4.542649      0.685338     -5.914850
H       -2.014539      0.664458     -5.838820
H       -5.723099      1.508818     -8.653290
H       -3.190389      1.483078     -8.577710
H       -0.664199      1.472778     -8.499430
C       -0.746579      5.869708     -7.566380
C       -2.025589      5.133738     -7.106740
C       -3.282429      5.881338     -7.616480
H       -0.725999      5.890578     -8.681510
C       -2.018779      3.674778     -7.627540
H       -2.046669      5.115098     -5.991500
C       -3.293019      2.945408     -7.171940
C       -4.546479      3.682918     -7.673590
C       -4.559712      5.216969     -7.130247
H       -1.999809      3.680698     -8.740790
H       -3.260429      5.899058     -8.731590
H       -4.581349      5.128228     -6.040800
H       -4.526029      3.686518     -8.786910
H       -3.313129      2.877698     -6.060730
C       -0.737892      2.921768     -7.112330
H       -0.782019      2.862638     -6.019480
C       -5.825149      5.884738     -7.665500
C       -5.849307      2.907240     -7.176220
C       -7.085309      5.126658     -7.204670
C       -7.067519      3.681118     -7.713880
H       -5.811929      5.896738     -8.779750
H       -7.153639      5.126518     -6.094560
H       -7.094269      3.673558     -8.824760
H       -5.847989      2.877848     -6.109580
C        4.308891     -5.919302     -7.095950
C        6.847401     -5.932222     -7.041810
C        5.592001     -5.184132     -7.552110
H        6.824391     -5.953262     -5.926780
H        6.899761     -2.970722     -8.596870
C        6.872601     -2.992332     -7.481900
C        5.587441     -3.727372     -7.030250
H        5.616751     -5.164672     -8.667150
C        4.335101     -2.978912     -7.546560
C        3.048977     -3.712928     -7.092167
C        3.052881     -5.174092     -7.610210
H        3.080231     -5.158302     -8.725260
H        4.283821     -5.936922     -5.980980
H        5.559951     -3.746872     -5.915320
H        4.363701     -2.960932     -8.661470
H        3.020821     -3.726842     -5.979160
C        4.331567     -1.520166     -7.025955
C        6.869271     -1.536562     -6.956500
C        5.620381     -0.787122     -7.473850
C        3.086271     -0.771352     -7.546570
H        4.301271     -1.539992     -5.910460
H        6.839581     -1.558032     -5.841630
H        3.120281     -0.754682     -8.661670
H        5.651711     -0.767552     -8.588910
C        1.800354     -1.495396     -7.104502
C        1.791941     -2.961332     -7.610490
C        1.765331     -5.910362     -7.156140
C        0.562791     -0.727372     -7.622400
C        0.534319     -3.715350     -7.123098
C        0.527871     -5.150992     -7.670610
H        0.549291     -0.726272     -8.734560
H        1.749081     -1.510922     -5.987020
H        1.812001     -2.948912     -8.724610
H        0.446981     -3.709102     -6.048360
H        0.506801     -5.149122     -8.782560
H        1.730561     -5.922452     -6.042440
C        0.580051      0.703478     -7.074236
C        1.852311      1.438068     -7.543380
C        3.091474      0.695481     -7.029036
C        4.374421      1.414288     -7.466890
C        5.617891      0.671328     -6.951690
C        6.901591      1.400108     -7.388890
H        0.489031      0.725298     -6.003640
H        3.056351      0.685338     -5.914850
H        5.584461      0.664458     -5.838820
H        1.875901      1.508818     -8.653290
H        4.408611      1.483078     -8.577710
H        6.934801      1.472778     -8.499430
C        6.852421      5.869708     -7.566380
C        5.573411      5.133738     -7.106740
C        4.316571      5.881338     -7.616480
H        6.873001      5.890578     -8.681510
C        5.580221      3.674778     -7.627540
H        5.552331      5.115098     -5.991500
C        4.320803      2.925387     -7.139104
C        3.052521      3.682918     -7.673590
C        3.050909      5.222067     -7.127355
H        5.599191      3.680698     -8.740790
H        4.338571      5.899058     -8.731590
H        3.017651      5.128228     -6.040800
H        3.072971      3.686518     -8.786910
H        4.285871      2.877698     -6.060730
C        6.834661      2.933468     -7.130440
H        6.816981      2.862638     -6.019480
C        1.773851      5.884738     -7.665500
C        1.796967      2.934302     -7.189699
C        0.513114      5.203576     -7.153547
C        0.531481      3.681118     -7.713880
H        1.787071      5.896738     -8.779750
H        0.445361      5.126518     -6.094560
H        0.504731      3.673558     -8.824760
H        1.751011      2.877848     -6.109580
C       -3.290109     -5.919302      7.904050
C       -0.751599     -5.932222      7.958190
C       -2.006999     -5.184132      7.447890
H       -0.774609     -5.953262      9.073220
H       -0.699239     -2.970722      6.403130
C       -0.726399     -2.992332      7.518100
C       -2.011559     -3.727372      7.969750
H       -1.982249     -5.164672      6.332850
C       -3.263899     -2.978912      7.453440
C       -4.551029     -3.710962      7.905810
C       -4.546119     -5.174092      7.389790
H       -4.518769     -5.158302      6.274740
H       -3.315179     -5.936922      9.019020
H       -2.039049     -3.746872      9.084680
H       -3.235299     -2.960932      6.338530
H       -4.578179     -3.726842      9.020840
C       -3.265969     -1.521802      7.974700
C       -0.729729     -1.536562      8.043500
C       -1.978619     -0.787122      7.526150
C       -4.512729     -0.771352      7.453430
H       -3.297729     -1.539992      9.089540
H       -0.759419     -1.558032      9.158370
H       -4.478719     -0.754682      6.338330
H       -1.947289     -0.767552      6.411090
C       -5.814793     -1.507591      7.905072
C       -5.804757     -2.966589      7.407014
C       -5.833669     -5.910362      7.843860
C       -7.036209     -0.727372      7.377600
C       -7.076199     -3.707662      7.842060
C       -7.071129     -5.150992      7.329390
H       -7.049709     -0.726272      6.265440
H       -5.849919     -1.510922      9.012980
H       -5.785259     -2.947073      6.306391
H       -7.152019     -3.709102      8.951640
H       -7.092199     -5.149122      6.217440
H       -5.868439     -5.922452      8.957560
C       -7.028509      0.717778      7.888160
C       -5.775901      1.449000      7.402306
C       -4.508569      0.689608      7.972200
C       -3.224579      1.414288      7.533110
C       -1.975961      0.676536      8.049817
C       -0.697409      1.400108      7.611110
H       -7.109969      0.725298      8.996360
H       -4.542649      0.685338      9.085150
H       -2.014539      0.664458      9.161180
H       -5.753627      1.396894      6.303710
H       -3.190389      1.483078      6.422290
H       -0.664199      1.472778      6.500570
C       -0.746579      5.869708      7.433620
C       -2.025589      5.133738      7.893260
C       -3.282429      5.881338      7.383520
H       -0.725999      5.890578      6.318490
C       -2.020565      3.665838      7.371572
H       -2.046669      5.115098      9.008500
C       -3.293019      2.945408      7.828060
C       -4.546479      3.682918      7.326410
C       -4.560739      5.144308      7.843760
H       -1.999809      3.680698      6.259210
H       -3.260429      5.899058      6.268410
H       -4.581349      5.128228      8.959200
H       -4.526029      3.686518      6.213090
H       -3.313129      2.877698      8.939270
C       -0.764339      2.933468      7.869560
H       -0.782019      2.862638      8.980520
C       -5.825149      5.884738      7.334500
C       -5.815123      2.933434      7.795600
C       -7.085309      5.126658      7.795330
C       -7.067519      3.681118      7.286120
H       -5.811929      5.896738      6.220250
H       -7.153639      5.126518      8.905440
H       -7.094269      3.673558      6.175240
H       -5.847989      2.877848      8.890420
C        4.308891     -5.919302      7.904050
C        6.847401     -5.932222      7.958190
C        5.592001     -5.184132      7.447890
H        6.824391     -5.953262      9.073220
H        6.899761     -2.970722      6.403130
C        6.872601     -2.992332      7.518100
C        5.587441     -3.727372      7.969750
H        5.616751     -5.164672      6.332850
C        4.335101     -2.978912      7.453440
C        3.047971     -3.710962      7.905810
C        3.052881     -5.174092      7.389790
H        3.080231     -5.158302      6.274740
H        4.283821     -5.936922      9.019020
H        5.589650     -3.755463      9.068502
H        4.363701     -2.960932      6.338530
H        3.022212     -3.726253      9.005611
C        4.333031     -1.521802      7.974700
C        6.869271     -1.536562      8.043500
C        5.620381     -0.787122      7.526150
C        3.086271     -0.771352      7.453430
H        4.301271     -1.539992      9.089540
H        6.839581     -1.558032      9.158370
H        3.120281     -0.754682      6.338330
H        5.651711     -0.767552      6.411090
C        1.790751     -1.498632      7.899470
C        1.791941     -2.961332      7.389510
C        1.765331     -5.910362      7.843860
C        0.562791     -0.727372      7.377600
C        0.522801     -3.707662      7.842060
C        0.527871     -5.150992      7.329390
H        1.749081     -1.510922      9.012980
H        1.812001     -2.948912      6.275390
H        0.573961     -3.762822      8.941880
H        0.506801     -5.149122      6.217440
H        1.730561     -5.922452      8.957560
C        0.570491      0.717778      7.888160
C        1.852311      1.438068      7.456620
C        3.090431      0.689608      7.972200
C        4.374421      1.414288      7.533110
C        5.617891      0.671328      8.048310
C        6.901591      1.400108      7.611110
H        0.489031      0.725298      8.996360
H        3.056351      0.685338      9.085150
H        5.584461      0.664458      9.161180
H        1.875901      1.508818      6.346710
H        4.408611      1.483078      6.422290
H        6.934801      1.472778      6.500570
C        6.852421      5.869708      7.433620
C        5.573411      5.133738      7.893260
C        4.316571      5.881338      7.383520
H        6.873001      5.890578      6.318490
C        5.580221      3.674778      7.372460
H        5.552331      5.115098      9.008500
C        4.305981      2.945408      7.828060
C        3.052521      3.682918      7.326410
C        3.038261      5.144308      7.843760
H        5.634027      3.694443      6.275505
H        4.338571      5.899058      6.268410
H        3.017651      5.128228      8.959200
H        3.072971      3.686518      6.213090
H        4.285871      2.877698      8.939270
C        6.834661      2.933468      7.869560
H        6.816981      2.862638      8.980520
C        1.773851      5.884738      7.334500
C        1.782841      2.947858      7.780660
C        0.513691      5.126658      7.795330
C        0.531481      3.681118      7.286120
H        1.787071      5.896738      6.220250
H        0.445361      5.126518      8.905440
H        0.504731      3.673558      6.175240
H        1.751011      2.877848      8.890420
N       -0.289441     -0.614050      4.485143
C        0.676024     -0.756782      5.719606
H        1.152994     -1.672997      5.425614
H        1.428786     -0.018537      5.464772
C        0.661990     -0.560191      3.299490
H        1.282856     -1.462431      3.283795
H        1.287772      0.336036      3.372032
H        0.074643     -0.513786      2.375691
C       -1.150046     -1.863619      4.294715
H       -0.512442     -2.750083      4.347266
H       -1.581020     -1.810778      3.287951
H       -1.979686     -1.899514      4.984807
C       -1.108366      0.656406      4.418081
H       -1.544030      0.716557      3.413312
H       -0.447439      1.516660      4.549695
H       -1.938179      0.618683      5.105456