449

C            5.00456191622437       -1.55039139871786       -8.07988054797328
C            4.86198722832085       -0.65785738599378      -10.55350739145845
C            4.21857790867897       -1.26306803407444       -9.32516630241159
H            5.94943372822616       -0.75414680441911      -10.78253235092051
H            1.53413668495745       -0.74687950907402      -10.66440325852445
C            2.04584441622740        0.14568664811584      -10.23330753643874
C            2.84979004880781       -0.40974705161822       -9.01609046255115
H            4.04204158698870       -2.29647007805782       -9.60647852912560
C            1.92491734201659       -1.15218772901548       -7.99734029831942
C            2.85855624932822       -1.47588146167733       -6.80564684169694
C            4.15768179464804       -2.29721281436844       -7.02044005071245
H            3.77714609283146       -3.30911827566396       -7.29534682300065
H            6.09718422713952       -1.73939151884686       -7.95924698393131
H            3.32974724690447        0.44848623787490       -8.48032910490252
H            1.40092289074062       -2.05666074281325       -8.38660094009536
H            3.06119298101557       -0.47832927744946       -6.35730738030984
C            0.90461788935448       -0.13742294319689       -7.43084465818200
C            0.93253411877067        1.07792728472276       -9.67540947429685
C            0.06178635979223        0.38177338364719       -8.61862100422135
C            0.12364111855649       -0.75336235449950       -6.24330835624746
H            1.37581009160019        0.77850336933576       -7.00230281067763
H            1.39801384799893        1.95783495190022       -9.09032989167684
H           -0.40319166270234       -1.61011212220112       -6.69092282449985
H           -0.42730370635825       -0.44098683654488       -9.19183981174742
C            1.03998816159575       -1.20723050664689       -5.07687293088784
C            2.20400596318022       -2.11378775475824       -5.54885631909770
C            4.72066400775663       -2.28249055394938       -5.57513997095711
C            0.04499262328146       -1.79034151468164       -4.05460026024556
C            3.49254713339466       -2.14220594504137       -4.70542266919434
C            4.29802641539369       -3.44405887408749       -4.65602848646020
H           -0.47661783630634       -2.69017556621153       -4.44868720040744
H            1.49596437121515       -0.26714975681851       -4.68941223531350
H            1.97859078205380       -3.17199936182530       -5.81568245146710
H            3.50564763202935       -1.38933851169441       -3.88692556214050
H            3.74466183575262       -4.30256100335784       -5.09607618270647
H            5.68304685563222       -1.73386730489688       -5.45466348267099
C           -0.67831983404626       -0.49864110766554       -3.65771431854780
C           -1.83072441545522       -0.31467981092913       -4.65080486888131
C           -1.05630725712099        0.19441929398070       -5.87278662514133
C           -1.85174838875455        0.71533548782624       -7.07623584752038
C           -0.98341173525241        1.42444724667803       -8.12896122427024
C           -1.82063460894317        1.86152827154636       -9.33705389193811
H           -0.00663345408062        0.33990998467101       -3.37404377394857
H           -0.50191227568299        1.11234115282758       -5.57686026934488
H           -0.43450066741592        2.31539228993442       -7.75093720907955
H           -2.34362302976705       -1.29312820403171       -4.78132676059701
H           -2.32236651217406       -0.07707663091773       -7.70107473688655
H           -2.43375135230740        1.00806636364758       -9.70498523937079
C           -5.91514742184771        3.35566700556305       -8.47309280939718
C           -5.07173321735535        2.93981986038704       -7.24650774452806
C           -5.76122991382884        2.11037847117575       -6.13519831858879
H           -6.80988728358880        2.72067262261477       -8.67457902211890
C           -3.86951627394164        2.10808507244911       -7.75908443713752
H           -4.75666305926399        3.91441174278528       -6.80440651259889
C           -2.96349588878446        1.69577605518079       -6.58760342691335
C           -3.71534592143026        1.00029998785266       -5.43966171713893
C           -4.94879991534463        1.89568067791267       -4.86905343201965
H           -4.32961623932247        1.16073740421942       -8.12041647279178
H           -6.75605257112843        1.64589985384683       -6.33231701223284
H           -4.55841040752002        2.86603394984794       -4.55085784322575
H           -4.19560134828823        0.06179972267694       -5.79810910771517
H           -2.48678779375965        2.57996102877902       -6.10724627502546
C           -2.93957483214408        2.79820916216185       -8.82307430812631
H           -2.64104528984702        3.79015581998653       -8.46714375958839
C           -5.31809331824950        0.98903624822626       -3.69629589214195
C           -2.82077220245737        0.72023924352892       -4.14826020837960
C           -4.65858534909152        1.50537503906869       -2.40265904596942
C           -3.97679256127198        0.38025202190007       -3.18907749173867
H           -6.27218411424063        0.41557187927181       -3.74846096362639
H           -4.48906495060075        2.60402346652610       -2.43798158523561
H           -3.96028506163744       -0.65862305625667       -2.79500497132508
H           -2.30663864728565        1.61842755367363       -3.88843154420410
C            5.08151356143067        2.00391962633973      -14.82565537054857
C            5.95523963652079        3.12523373927424      -14.50826751304050
C            4.77781437595123        3.37191434261283      -15.48237855750965
H            5.89681758344151        3.68627691736093      -13.54593625154623
H            2.22079937695310        4.20281542748421      -16.64108127467877
C            2.73780841624056        4.95196851762641      -15.99622931542135
C            3.55094997663136        4.15084913600280      -14.95080296909371
H            4.96131307041292        3.65781045180090      -16.54487423609458
C            2.42040853657615        3.37095738577542      -14.23752275020220
C            3.06494954783658        2.44241886510504      -13.17839556604789
C            3.96464053101077        1.42353641649988      -13.92392798308155
H            3.37768756143666        0.78946339387291      -14.62945716116903
H            5.67377500562450        1.21142960046859      -15.34071165604987
H            3.84437179871040        4.95126063568146      -14.23146306964256
H            1.97659710255936        2.71114868641364      -15.01973077022557
H            3.80437218668550        3.08842023767555      -12.65331722522774
C            1.33942515830062        4.25509274435104      -13.56762617412617
C            1.79167918375163        5.85597601602168      -15.16983205109907
C            0.59404635899955        4.99650826671348      -14.70504357234349
C            0.34879441568809        3.32732330900172      -12.83249423367510
H            1.72428509727263        5.06892746394834      -12.90793243776250
H            2.16664482598693        6.59581566404749      -14.42396636469992
H           -0.13290011793215        2.63830846231838      -13.56605501871537
H            0.42373541859569        4.20459042547476      -15.47223562014758
C            1.04447187713696        2.58731283985958      -11.67419221769585
C            2.08958007058912        1.62142207096595      -12.29052549165137
C            4.51672663978972        0.28633767342548      -13.02501869241249
C            0.04771993815108        1.70703988894979      -10.88600041219987
C            2.90475294580590        0.93452409804108      -11.17187837147100
C            3.83994527863289       -0.15726454168509      -11.71436489793262
H           -0.43953386806788        0.91900184526064      -11.50135641251226
H            1.46655941466896        3.36985721628192      -10.99514706267379
H            1.68621507748403        0.82955140029645      -12.96287768765128
H            3.40857934664932        1.74446308652946      -10.66900021258624
H            3.28784827913229       -1.04787753179977      -12.08702773615986
H            4.94362989456056       -0.63453265984510      -13.48483844804934
C           -1.02696213328139        2.64378742439770      -10.32415013418011
C           -1.80407108891887        3.25048280372914      -11.51006171260592
C           -0.89709757416218        4.13685213814160      -12.37218607030363
C           -1.61656435849394        4.88015340742003      -13.50542180282131
C           -0.63419734040705        5.81336195415922      -14.23186173694206
C           -1.50605072263754        6.21708722049840      -15.43478623929200
H           -0.51367758855467        3.45051323519327       -9.83356995197406
H           -0.51775086373012        4.98297842588532      -11.75338621897237
H           -0.32398305621210        6.64526567056373      -13.56003760805433
H           -2.17269423548337        2.47960433919790      -12.22232960411647
H           -1.82802356617083        4.06467012447551      -14.23349738791430
H           -1.84820385098507        5.55160982639855      -16.25925818072254
C           -6.23777970763557        5.40384578261789      -13.99784825017080
C           -5.17916608805145        6.52245716021736      -14.12759083461485
C           -5.82381094901392        6.09868502551981      -12.78474403138298
H           -7.24597056824305        5.40366030252119      -14.47526333523321
C           -3.75799381893094        5.97641401084720      -14.41385904424342
H           -5.51183919985042        7.50188778353445      -14.54543805388633
C           -2.96983546317901        5.54447435576443      -13.15746550317474
C           -3.75610648114715        4.59832472988953      -12.18040543827709
C           -5.06827341372092        5.42402965585833      -11.66680623932609
H           -3.77552108462643        5.16341642732320      -15.17441683837730
H           -6.60162222874680        6.78345826841540      -12.37199288989281
H           -4.62106057646902        6.17795111385588      -11.01710114867088
H           -4.14042107211095        3.68279124909028      -12.68440273503387
H           -2.61041481961462        6.43938096067727      -12.67131337745724
C           -2.71544554386091        7.01499742480732      -14.86630372565841
H           -2.39960857575752        7.79019331895054      -14.13221931885741
C           -5.80086433337804        4.44783033861781      -10.73409224150953
C           -2.97450639405457        4.08251955310203      -10.95809677765959
C           -5.07088589477940        4.08888636910711       -9.44808058542315
C           -3.87501606952982        3.17905853354945      -10.05987905613021
H           -6.65265279584286        3.79661640847621      -11.03781684236858
H           -4.81030374481506        4.97217853843819       -8.91528256916357
H           -4.24387516639953        2.38365532982156      -10.74259697040159
H           -2.57727584571815        4.92777917057012      -10.41064808184906
C            6.35637053999407       -0.88950729214859       -1.13595567683044
C            6.35893534046107        1.40240870022052        0.19674914972703
C            5.55932396898558        0.24164663714516       -0.44303747138773
H            7.37130594314727        1.61142279970110       -0.22239626581714
H            2.92025011872896        1.12872436141644        0.44315130310760
C            3.64048413481445        0.75276973504567        1.20753588289457
C            4.50415443716075       -0.33799532625906        0.52914600875240
H            4.92470748326637        0.69079646070600       -1.24293232927017
C            3.66491722068200       -1.42857151103963       -0.17898410356337
C            4.61088074458985       -2.49292321439179       -0.78688858650888
C            5.53230161442982       -1.94762309008762       -1.90968931198020
H            4.78938117591489       -1.40801571674928       -2.54311408288615
H            7.35348046656669       -0.71369151098181       -1.60388478909781
H            5.12195280171577       -0.82356438685501        1.32082314315705
H            3.08677291002562       -0.90270592422818       -0.97483588048041
H            5.27292297503325       -3.02565584679093       -0.06427028789369
C            2.85205746772055       -2.14853111774822        0.92365043678846
C            2.71624511268144        0.06643367720488        2.24196686263754
C            1.93660838709770       -1.12318989528325        1.63698771475962
C            2.08730385284282       -3.36049686295869        0.34434139050546
H            3.61244618609242       -2.59908472176040        1.60410484846139
H            3.37628524060399       -0.19476411895961        3.10243200264845
H            1.42012322712307       -2.93169191728569       -0.44043811903971
H            1.23141596136755       -0.58470920996655        0.96062575310292
C            3.07795659160489       -4.33381504402153       -0.37165989268929
C            3.83303623614751       -3.61228326500920       -1.50571643658354
C            6.03255820159061       -3.29480592509299       -2.49355557258083
C            2.25173123429116       -5.56915234883401       -0.78411452186395
C            5.03160243732697       -4.31954155484624       -2.15243409486964
C            5.25456232554070       -3.98422624627814       -3.63023998642553
H            1.40391079338630       -5.40266240250488       -1.48451791690840
H            3.84349755211187       -4.72634148223493        0.32732156937908
H            3.23066784679830       -3.26678786281939       -2.36006839574149
H            5.19803071569867       -5.39802054979436       -1.93771752799876
H            5.86093527421572       -4.78820140101699       -4.10227392578863
H            7.12056199471209       -3.49040879207303       -2.35330555358598
C            1.84980150324828       -6.26638457556023        0.52030451644922
C            0.67888517003905       -5.50355504603932        1.14224707718435
C            1.36694209011039       -4.11986133880412        1.48801450384291
C            0.45928147538296       -3.09674298457719        2.19226758553508
C            1.08788305311786       -1.80523224210380        2.74649767695098
C            0.10191911866444       -0.84381617673331        3.42049294868310
H            2.70844786333139       -6.33781690577933        1.22203335742811
H            2.17284717715289       -4.40447171415767        2.20170300636000
H            1.80306580982749       -2.15112563144340        3.52472206622627
H           -0.05359913479063       -5.37992374490178        0.33088626762480
H           -0.21391625693110       -2.79972765966856        1.35655904272300
H           -0.70266380725477       -0.54516757970062        2.71117059504394
C           -3.36434157139329       -2.30001472221222        5.42699940497211
C           -2.39815935445298       -3.42458049488874        4.99038621892498
C           -3.00109719690375       -4.62643970574563        4.22201925719287
H           -4.13485448881698       -2.06206295984001        4.65624470804939
C           -1.40802019626629       -2.80369931559385        3.96031584083371
H           -1.70899452076069       -3.81382920365174        5.77657279742422
C           -0.40291596508416       -3.76031730408152        3.31132638958986
C           -1.07494684168017       -5.02694863987518        2.75387217066359
C           -1.99554939852576       -5.71867915344261        3.79190632643169
H           -1.95678698444780       -2.42447985488010        3.06978316774727
H           -3.69920759111648       -4.38554407485243        3.38602913992939
H           -1.37297941935410       -6.01746598824735        4.66827541166678
H           -1.71455788263978       -4.71512683739843        1.89738081035089
H            0.24719096535267       -4.06479091429173        4.16246297916795
C           -0.66312733069418       -1.59486784231272        4.54880768541354
H            0.09412807280020       -1.90842196014981        5.30233912442698
C           -2.27568964770198       -7.00434848790136        2.97038896569651
C           -0.02167433128448       -6.09400179737075        2.37527255057089
C           -1.37891116865664       -8.22066196656111        3.27275080280057
C           -0.99812082639146       -7.26697859514562        2.13490901490610
H           -3.33292285385890       -7.06611317727764        2.62352458344590
H           -0.76407108616033       -8.34871284513835        4.19067665144387
H           -1.14866048410642       -7.57502430388151        1.07789778628833
H            0.67922045796619       -6.20482657223124        3.21149331067380
C            6.21823739728980        5.63070964238305        3.15678746614631
C            6.72143168257387        6.97327645917100        3.19235821425085
C            5.25887340268108        6.74299785957730        3.64398741299931
H            7.50759332508861        7.24945152790466        3.93393844844082
H            2.82798314416769        7.53216989447830        4.67747223722339
C            3.38899889697442        6.91649364362284        5.41947414616543
C            4.48951799037471        6.03309787072208        4.78356741669983
H            4.59068698901678        7.17254963021165        2.86084142257360
C            3.61959767820482        4.90759371261122        4.17397504596052
C            4.41617886881972        3.94783313444357        3.25661065684969
C            5.30487693015497        4.74976906322711        2.26961288630665
H            4.70435044390360        5.43428263914997        1.62529702507483
H            6.67206971889254        4.98021817094218        3.94100308332045
H            5.11852745762743        5.61971543467805        5.58451184681055
H            2.91974568023985        5.43301494564508        3.48237889502098
H            5.10629996211402        3.47140826912305        3.96879867446038
C            2.73069632467480        4.13334996707921        5.17661494506653
C            2.85495973538949        6.07510684256661        6.60361643442054
C            1.83218442374630        5.07921321332932        6.01102543598251
C            1.78016842774154        3.15861291797729        4.44470481713148
H            3.40612007024214        3.61818993533369        5.89954002901495
H            3.63861003370280        5.67468421414440        7.28905899015402
H            1.11867981816693        3.82657087642154        3.84374930876434
H            1.12891480612129        5.64670880142597        5.35674419211206
C            2.54500276428935        2.16551352060368        3.53089857009128
C            3.53070337681618        2.87539321801786        2.56964060112825
C            6.10198711355456        3.77717707028005        1.36146190907118
C            1.60761765990444        1.10591210233874        2.91964585428225
C            4.41017842681152        1.83370153586596        1.85275270084272
C            5.37837227707140        2.50720228861917        0.87548353590981
H            3.20468206669038        1.70715817895577        4.30324920463667
H            2.97529264945494        3.44981937492160        1.79286940193760
H            5.03903405532362        1.34698126911148        2.61623677791756
H            4.85537297565883        2.88454026632490       -0.03058930585652
H            7.21164267494650        3.67614522206302        1.37328918156751
C            0.75181150243115        0.35956568868341        3.94908841377793
C           -0.04692810973195        1.26675916107535        4.89095987935277
C            0.91832520340905        2.33143473446021        5.43290831642548
C            0.08917339874626        3.31721070082016        6.27394602205892
C            1.02273643514384        4.26177047025023        7.04848143747568
C            0.21423797277787        5.11073042726647        8.04635268561471
H            1.59629074570736        0.07871966248350        4.61450542215342
H            1.52188756210680        1.66732363449862        6.09207921728743
H            1.71086864643897        3.66675676394752        7.69041378324398
H           -0.82971035842874        1.77175192230638        4.28293317152212
H           -0.50799186216444        3.96600984891600        5.59403765327474
H           -0.40173941383851        6.00015723651353        7.78334179419468
C           -1.89754565908997        4.17935687382948        9.76604646611413
C           -2.31141066672166        2.76775445392268        9.29182952093044
C           -3.39064407558278        1.87972957651079        8.62470549027844
H           -2.67118628321295        4.98284115775917        9.74970022064735
C           -1.55267535053550        3.52101671374311        8.17077645386118
H           -1.56902812816489        2.04579947068473        9.70680089363814
C           -0.72430962724297        2.52415833070943        7.34414285388728
C           -1.70089694969872        1.47650023885989        6.78251541221905
C           -2.60309233658430        0.80084583342496        7.84696347397149
H           -2.19233074167261        4.17992753062302        7.56805796221080
H           -4.25759111454118        2.48905879323249        8.27629618878214
H           -2.01427343953750        0.19230920281665        8.57350679472991
H           -2.35644486953650        2.06384862619913        6.10046602635388
H           -0.00759198148846        2.02038200243282        8.03138512177903
C           -0.50527833596446        4.19305401937946        9.07719467302765
H            0.23784090127278        3.47793738831569        9.49665098101140
C           -3.39991240446345       -0.24259311654167        7.02075048836195
C           -0.85242721707747        0.49483798494631        5.96082091569423
C           -2.58946723670787       -1.29954284603380        6.24545139980860
C           -1.68709453452584       -0.57123338962312        5.24321090872416
H           -4.31231391661275        0.16356873426395        6.52635403438317
H           -2.00000434677402       -1.82429309683749        7.02915024711848
H           -2.38077511425281       -0.17607824822811        4.47023824887043
H           -0.21555362399860       -0.00578891229796        6.72321616180144
N           -0.67432960571964        1.81116532266394        1.15232122504163
C            0.74885466529547        1.98537531413383        1.80085133775070
H            1.29118746039735        2.08686867452911        0.87946335839412
H            0.73192412610192        2.96066779395232        2.27531375476863
C           -0.78081009449636        3.02980706215153        0.24818131995159
H           -0.11579035962671        2.91167920276228       -0.61411358143342
H           -0.44639193086782        3.86859102194067        0.86841856927738
H           -1.79909524072495        3.12945515735390       -0.14386475895400
C           -0.83122476398681        0.52115518142761        0.34635336862480
H           -0.75770015830444       -0.33320225553778        1.02442887149660
H            0.00720394529513        0.44265661327194       -0.35577181921616
H           -1.81324548551641        0.48866941744625       -0.10130489387759
C           -1.74713823767086        1.98793586540408        2.20447506339375
H           -1.57944030068181        2.93410029660187        2.73327774149477
H           -1.70528568986358        1.11938047067740        2.86632366669315
H           -2.73778489235955        2.07766832536363        1.78846506963370
O         -125.21927578175942     -191.29770964347119     -111.48389376696706
H         -126.18283082536252     -191.34242460821983     -111.39160372159611
H         -124.80357674220745     -191.51024621607147     -110.63478286553963
O            5.68828663435173        3.55424418951980       -7.49482706038659
H            5.89138283929029        2.64471338265501       -7.22938337087138
H            6.35306099678791        3.72513645241962       -8.17880581153939
O            6.33391007062124        1.19913584777885       -3.59426780069106
H            5.51293196334295        1.17398420293066       -3.08013525568813
H            6.11765213507632        1.08383749623627       -4.53175948617175
O            6.70286204550346        3.86175802906657       -3.04165170080677
H            7.58423567282028        3.58260240860749       -2.75148005033673
H            6.26301460788496        2.99834611940164       -3.04323105801695
O          135.50666260381527       43.63373992553601      -11.05757186203347
H          135.67780388536386       44.44746324387256      -10.56005421305481
H          136.36899438308708       43.21554536585291      -11.20062115287168
O            3.82536904468711        4.09387996091919       -1.59959951902639
H            2.88527604514403        4.31178885338786       -1.51183043908839
H            4.38993382868036        4.82384479349088       -1.30401997172441
O           -1.66252477378317        5.30524447397189       -2.94270375464654
H           -1.00284526755365        4.81433159849173       -3.45531714595482
H           -1.84508576747709        6.19689394494149       -3.27525444958059
O           -4.28808979913136        4.55396949494218        3.49344706742387
H           -3.54091748883216        5.07320119300708        3.16015036499975
H           -5.07070494599579        5.12523513370653        3.48225991561743
O            1.65710554513323        7.57939776419327       -1.57946671866660
H            2.18194526172976        8.39316284954746       -1.54358047002806
H            1.77943954132663        7.12714565958603       -0.73125445322023
O            4.44713959066153        4.18126097520370       -4.77476774597334
H            5.41217747418665        4.09668359690827       -4.79715402172500
H            4.15820095647507        4.41440302944014       -3.87971436638032
O            8.93451134286849        2.31246167013846       -2.73637114265161
H            8.14401810859270        1.77218120535658       -2.88528454211347
H            9.47591277170571        1.66864897046162       -2.25537706796063
O            3.08356616225577        1.63057291995689       -4.69266420449755
H            3.48610125078394        1.25698159696048       -3.89432233832403
H            3.51098271059618        2.49394365334964       -4.79688570624088
O            3.99601483988858        9.44006145453099        1.70061708742468
H            4.60833418638215        9.45885396939887        2.45140070498344
H            4.63620484823943        9.09234373064093        1.06170808873986
O            6.81937580260047        5.75104072041278       -5.92587145709386
H            7.55379304625346        5.27710166336808       -5.50757029891625
H            6.41851704315507        5.09306261584196       -6.51351950472210
O           53.11938699549025       53.07935990358330        6.85168849938225
H           53.15533560192728       52.59113153564733        7.68792738142363
H           52.45881113229203       53.77876136646213        6.96759006616577
O           21.16205761594230     -101.24696384230039      -12.66825482632324
H           21.72456931559624     -102.03595684660100      -12.66322130696465
H           20.27088267834878     -101.57033627799608      -12.46777153789894
O            0.90489074043984        3.33510496039834       -4.00998133865610
H            0.33599688685641        3.51635754952598       -4.77316228082481
H            1.53737557260384        2.63215285639976       -4.22158893059559
O           -1.15536275287774        7.81579743454238       -3.86727177859711
H           -0.92868142357000        8.61495399491911       -3.36834804118816
H           -0.32754538617562        7.36761116163893       -4.09706665814686
O            4.75935874802883        6.47445280074153       -1.45770562992249
H            4.54566345391536        6.84107784297178       -2.32884877618688
H            5.71033268865374        6.47331056742896       -1.27173213757641
O           -2.15904878458521        6.41789444519543       -5.89036981157443
H           -2.79104001305878        5.99945780531337       -5.28666795888827
H           -2.14937219321685        7.38684157228955       -5.88699267143160
O            1.16587288664235        6.33788752418031       -3.98635241781770
H            1.30413584033350        5.37886242134615       -3.97680940621082
H            1.39132604893263        6.67776122717031       -3.10735930923880
O           -2.50306762311919        7.96413827235331       -0.38382712654989
H           -1.64062332644684        7.53098020126574       -0.29718345229130
H           -2.37304683554099        8.48728773378054       -1.18903486130281
O            7.23815845986465        5.73408389735064       -0.57093154120052
H            7.04558733869930        4.99029423472687       -1.16139577421310
H            7.03870752925910        5.27309864473868        0.25772277373114
O            1.01418712611366        9.36990845025359        1.80185058198443
H            1.91785231530082        9.42216216238237        2.14770639633500
H            1.02104293029734        9.90216901447087        0.99214969608390
O         -170.87131894021280     -104.44263895347352      244.90457549299995
H         -170.49546027479298     -105.33541671171321      244.87941903416009
H         -171.82844869657751     -104.52819484435844      244.77992049103000
O           -0.25398574882513       10.18026701442226       -2.25986051133641
H            0.28590872294838        9.80037358262108       -1.55052925393779
H            0.07079493923881       11.08843320398206       -2.35324928047466
O            3.10393753816075        6.89877316155788        0.71471524997954
H            3.86101717592088        6.74951231955956        0.12862104497923
H            3.24912770413356        7.72034523711308        1.20755663427342
O            6.17576045427227        9.40411478995209       -3.30765718737728
H            5.67467544112035        8.71975337912388       -3.77617836594210
H            6.93175379286015        9.73626075133364       -3.81472359934782
O           -0.39000212848040        7.58169941935527        3.16354099295642
H            0.34278365013162        8.09059880102051        2.78538608897564
H           -1.14946543152688        7.72408787873517        2.57882134349940
O            2.15973413258333       10.26532149968112       -0.52837152522240
H            2.64397251934465       10.62215058798622       -1.28807198588182
H            2.90345989704545        9.99807120901318        0.03233948021011
O           56.14398822884408       52.08633699940476        5.67809978784611
H           55.37957194634104       52.56347348782533        6.03440197484741
H           55.96390291367899       51.85125967785169        4.75545557215226
O           21.02185135506389     -101.15191042637731      -15.42845736996312
H           21.21670220249916     -100.89765323473426      -14.51393617012599
H           21.75780200382854     -100.84091892410520      -15.97675702872412
O            2.51504380765654        8.15689258994045       -5.55028641585818
H            1.74552958435617        7.94222297297000       -5.00191931747591
H            2.38824280169797        7.70789741201763       -6.39956235840568
O         -100.49453520168939      109.13326811440344      -47.19508428285161
H          -99.84137493880095      108.51998492491077      -46.82600419686860
H         -101.37042420486512      108.96450223397088      -46.81654421599259
O           21.52548824277056     -153.98663483867219      116.13421811112946
H           21.36348786818096     -153.37077491034532      115.40384343152040
H           21.72224646128146     -154.85735081832388      115.75725147278114
O          159.48887106495837      -39.00960289029264      153.15855893614756
H          160.41141448653090      -38.78615378725986      153.35330661538180
H          159.47900963701460      -39.96927759717477      153.29231498277576
O            4.72033218664704        7.20201163115320       -4.32755386855179
H            4.13663694677023        7.51821656258563       -5.03343261287192
H            5.22389795336253        6.48332934725819       -4.73849580545735
O           -0.41597198125817        4.03834865680926       -6.18044923970613
H           -0.89319757578276        4.86498152682043       -6.01344444771574
H            0.38726585707690        4.26719380455194       -6.67176782028440
O            5.32337576371466        0.95427921288403       -6.40539631305934
H            4.61802568522814        1.10042238406231       -5.75725650954699
H            5.19387830426658        0.18151811381714       -6.97550209724805
O           -2.73669605462600        5.84224672900838        1.77376813585605
H           -1.77237711311428        5.79538037176607        1.69109740040168
H           -3.11628270625365        6.52570165736682        1.20126927174480
O            2.34531896668393        4.82936519790942       -7.09289466708154
H            2.80872195745080        4.53783675004856       -6.29337771464329
H            2.68540504533409        4.30562245262020       -7.83383176425327
O            3.48949641670231       10.33854163337890       -2.94677071318948
H            4.41987737062703       10.16889922219394       -3.15791375428124
H            3.02034912083151       10.25172865909173       -3.79016134058140
O            6.31189528128275        8.07566058860205        0.62710357505505
H            6.88387937750489        7.65241885343903       -0.03065957896404
H            6.53820197591778        7.84213763480950        1.53990296879683
O          -54.05530662709891      -84.66182194571574       49.13466279467377
H          -53.09597705903892      -84.75207799171692       49.23709504304342
H          -54.40809013849083      -84.74618046444012       50.03320486803963
O            0.23701258921002        5.28102365866993        1.97499810659113
H            0.11107874820680        6.06811446979087        2.52597788928661
H            0.50592218360646        5.73996598024425        1.16505798311933
O         -166.24909574699453      206.75406049672074       25.18232838018887
H         -165.71790958985224      206.08572593214583       24.72391936287479
H         -166.79777539526120      207.15852036215125       24.49362827198945
O            1.32360217234348        1.89820523630337       -1.77354644848276
H            2.18336590446348        1.46590225944245       -1.88703986824036
H            1.23500523888326        2.51771268968371       -2.51335630161236
O           -0.58592629687684        6.00186030040692       -0.60629924183294
H           -1.37919419599848        5.55073410943278       -0.93211996652722
H           -0.20845758962334        6.52192479655754       -1.33156105179399
O            4.00559731737496        1.22640185224134       -2.40903389597774
H            3.93270303874495        2.13989356610697       -2.09410729271622