449

C   -5.33771615   -11.45026748   -16.88360965
C   -0.61079780   -11.15748372   -17.88771647
C   -3.22620190   -10.02863596   -18.13227323
H   0.07521792   -12.85064097   -16.83607563
H   -1.59387298   -5.02245377   -20.09359120
C   -0.99751174   -5.43306104   -18.11382987
C   -3.18218100   -7.11469157   -17.06498781
H   -3.30987849   -10.03420953   -20.18177864
C   -5.73624032   -5.89275617   -17.90936862
C   -8.04233731   -7.46388354   -17.03081123
C   -7.90172890   -10.31212961   -17.71524498
H   -7.92287915   -10.47086384   -19.81713769
H   -5.26466878   -13.35100063   -15.97551891
H   -3.00417337   -7.50847523   -14.99345868
H   -5.75783060   -5.66807154   -20.00508960
H   -8.09936933   -7.50430052   -14.93005782
C   -6.11672685   -3.27720371   -16.66239415
C   -1.35114455   -2.84579305   -16.76394488
C   -3.87324198   -1.55421029   -17.39421800
C   -8.72968330   -2.21653742   -17.44749895
H   -6.13271141   -3.08120247   -14.56338388
H   -0.85846294   -3.00383792   -14.64419799
H   -8.64208445   -1.98621027   -19.51321009
H   -4.15693174   -1.47116108   -19.48170708
C   -10.96630850   -3.87590576   -16.53266859
C   -10.69590176   -6.48847098   -17.82508436
C   -10.58112865   -11.05135547   -16.78435752
C   -13.37487788   -2.52019176   -17.45048314
C   -12.12065130   -8.83860034   -16.86621734
C   -12.84776180   -11.03102672   -18.61049400
H   -13.56864025   -2.35526081   -19.53685767
H   -10.88821743   -4.04272978   -14.43491001
H   -10.61002675   -6.13812904   -19.89981466
H   -13.30087158   -8.26158499   -15.22571448
H   -12.69111451   -10.76332146   -20.68914141
H   -10.77572232   -12.73775545   -15.53843690
C   -13.38556128   -0.06156222   -15.91942665
C   -11.53014503   1.66220480   -17.32345655
C   -9.02315573   0.52577023   -16.41616521
C   -6.73138419   2.21080813   -16.97195101
C   -4.18261515   1.08737066   -16.14278599
C   -1.91441010   2.73255669   -16.88160971
H   -13.42402490   -0.41553321   -13.84994018
H   -9.10311581   0.24960773   -14.33372491
H   -4.18710595   0.73516055   -14.06989776
H   -11.90254023   1.36889921   -19.37146816
H   -6.48855610   2.40078814   -19.05339933
H   -1.94812863   3.38755150   -18.88081777
C   -2.94430934   10.43396637   -14.19496139
C   -5.18248017   8.55810153   -14.14766565
C   -7.60237464   9.75985833   -15.27224924
H   -3.33362486   11.96108602   -15.59498969
C   -4.76995948   6.22606360   -15.86854382
H   -5.72126029   8.16299283   -12.14817042
C   -7.14712875   4.63881753   -15.34989393
C   -9.41760310   6.09421190   -16.43549974
C   -10.18950313   8.59711803   -14.82356194
H   -4.84780253   6.61185971   -17.93547971
H   -7.25809569   10.73832644   -17.10730645
H   -10.41886611   8.10801343   -12.82946032
H   -9.19699095   6.69453116   -18.44018307
H   -7.16738986   3.95580851   -13.35981575
C   -2.14794088   5.04882092   -15.11299748
H   -2.42819807   4.44271273   -13.15378178
C   -12.65990604   9.08994599   -16.23358821
C   -11.84686680   4.31448920   -16.27841801
C   -15.11049760   7.90210886   -15.20154583
C   -13.72139597   6.33871277   -17.20537336
H   -12.60190701   10.59509177   -17.70531410
H   -14.71008728   7.30522033   -13.22648885
H   -14.23092039   6.14328902   -19.23314109
H   -12.14703744   3.93780725   -14.32036424
C   8.94789551   -9.51950806   -17.54770837
C   11.34658233   -10.66010129   -17.91091392
C   10.90837604   -8.03973256   -19.13491479
H   11.91518561   -12.26845198   -19.14915699
H   13.22135012   -3.44734577   -21.14437745
C   12.84254076   -3.48647646   -19.07105347
C   10.96472946   -5.39378248   -17.89124403
H   10.82706417   -8.13918565   -21.23895683
C   8.42251420   -4.17226348   -18.66466203
C   6.17620099   -5.81733289   -17.76126836
C   6.36630441   -8.62055951   -18.59097989
H   6.35761900   -8.99432009   -20.66554596
H   8.77394075   -8.64631762   -15.63720334
H   11.09837693   -5.52190997   -15.79151598
H   8.23334072   -4.25384626   -20.76241163
H   5.98549798   -5.90396642   -15.66760427
C   7.94303785   -1.44736544   -17.70969972
C   12.54997875   -1.03353803   -17.50537388
C   10.13984410   0.36884849   -18.37483983
C   5.43078488   -0.09628851   -18.31906454
H   7.91694813   -1.71354816   -15.61763680
H   12.59109927   -1.28121669   -15.41244286
H   5.04673571   0.53433236   -20.29400248
H   10.06768471   0.74122411   -20.44875333
C   3.32809364   -1.95384499   -17.54241155
C   3.59550968   -4.68169563   -18.57969415
C   4.16743634   -10.05230224   -17.28435014
C   0.65574307   -0.85148784   -17.96302448
C   1.55874359   -6.52804971   -17.59520571
C   1.69335019   -9.25173805   -18.59232877
H   0.14896507   -0.78858695   -20.00187812
H   3.62053775   -2.18261295   -15.46111030
H   3.38565593   -4.43703150   -20.66073251
H   1.92387554   -6.60081190   -15.59181759
H   1.64814437   -9.53115836   -20.67484172
H   4.72192043   -11.08743774   -15.53644520
C   0.63064280   1.61546290   -16.44684870
C   2.75292383   3.57098225   -16.85324670
C   5.32726663   2.26939154   -16.57753727
C   7.46891061   4.13868301   -17.14907568
C   10.09612500   2.91703372   -16.93454644
C   11.87668439   4.85576425   -18.17345354
H   0.81833766   0.97552430   -14.52861972
H   5.42514847   1.50038112   -14.61871825
H   10.91164186   2.57396073   -15.02559814
H   2.62498487   4.10906940   -18.88133736
H   7.01205368   4.58484221   -19.15399681
H   11.44135401   5.25735387   -20.19241399
C   7.23796726   13.21727871   -16.95139052
C   9.21191332   11.41410928   -15.77553701
C   6.71703740   12.11513838   -14.41577629
H   6.13680009   12.33899289   -18.51976073
C   9.38451340   8.68593612   -16.82304659
H   10.67234136   12.52285056   -14.73523954
C   7.62020160   6.66125620   -15.67872483
C   4.87208358   7.77300789   -15.83836587
C   4.64051522   10.21468407   -13.96489563
H   8.71282297   8.75965726   -18.81566279
H   6.93435360   13.66307347   -13.00155092
H   5.30484763   9.27382735   -12.25467566
H   4.50502675   8.33238617   -17.83340306
H   7.98412543   6.23676615   -13.71591972
C   11.89128880   7.25246160   -16.46863038
H   12.27289411   6.57667073   -14.51306426
C   1.94439380   11.24745727   -14.26594230
C   2.63704824   6.00123844   -15.26180977
C   -0.32189437   9.56375127   -13.72004974
C   -0.05106548   7.16194059   -15.60622943
H   1.76802155   13.13759149   -15.17758382
H   -0.08361031   9.00234886   -11.80421346
H   -0.63554513   7.51762234   -17.59155599
H   3.11082131   5.31940231   -13.39211205
C   -7.55873212   -10.71836270   17.56917166
C   -2.72585413   -11.04096264   18.40230311
C   -4.87874890   -9.76888698   16.88460659
H   -3.09221980   -11.28457865   20.46380134
H   -1.71461823   -6.15938794   14.65706238
C   -2.04561764   -5.79238483   16.70631786
C   -4.68381102   -6.88658308   17.33767151
H   -4.30059388   -10.11661101   14.88752868
C   -6.87437663   -5.32865632   16.18553052
C   -9.48674805   -6.52632550   16.73489510
C   -9.62673218   -9.36246106   16.00518860
H   -9.35594244   -9.48075668   13.91801925
H   -7.95883497   -11.38910834   19.52691762
H   -4.50039852   -6.72557532   19.43136979
H   -6.62834916   -5.51240588   14.10017628
H   -9.96273754   -6.43518046   18.78636661
C   -6.83401389   -2.53516757   17.04987058
C   -2.09100209   -2.90211820   17.15145902
C   -4.33069802   -1.32717336   16.13424787
C   -9.14152872   -1.30315802   15.74990837
H   -7.14576807   -2.41323335   19.13099719
H   -1.87440106   -2.50613798   19.21050719
H   -8.70275733   -1.27177686   13.68785813
H   -4.29400398   -1.66745489   14.05389942
C   -11.81488733   -2.52804966   16.01671970
C   -11.69544180   -5.33765854   15.25535777
C   -12.47870101   -9.89830589   16.41911307
C   -13.63230867   -0.94833001   14.37464622
C   -13.97764729   -7.08901487   15.62171069
C   -13.93737029   -9.44534158   13.94122672
H   -13.25320161   -0.62083867   12.33338877
H   -12.63150098   -2.34392109   17.93688225
H   -11.09245699   -5.10458445   13.27781186
H   -15.70570283   -6.32355988   16.54095981
H   -12.95934546   -9.62993126   12.09018009
H   -13.13257191   -11.25219871   17.89341184
C   -13.76111973   1.26368670   16.23998725
C   -11.49158903   2.92572773   15.57492493
C   -9.18461509   1.44229151   16.77160344
C   -6.70547354   2.74310690   15.98866809
C   -4.32229692   1.46154405   17.05759277
C   -1.92883198   2.63706206   15.92443790
H   -14.78893353   0.98738466   18.05018202
H   -9.51319990   1.41161828   18.84973500
H   -4.53481104   1.62047631   19.14233133
H   -11.60371939   3.23537496   13.52237096
H   -7.06216115   2.54215535   13.92472105
H   -2.40802560   2.61001230   13.87587019
C   -1.85887870   10.96667472   16.05016282
C   -4.39249098   9.57837963   16.47906819
C   -6.83301141   10.95593482   15.63586093
H   -1.59200428   13.05506821   15.94465996
C   -4.08768801   6.73121792   15.79537792
H   -4.28322086   10.02038568   18.53748184
C   -6.57831019   5.59375180   16.73485530
C   -9.01410965   6.85365273   15.76981795
C   -9.33856390   9.68742452   16.43882841
H   -4.33949432   6.68090470   13.70850386
H   -6.60736200   12.96973476   15.05529666
H   -10.06737849   9.82700677   18.41238560
H   -9.33743117   6.85379562   13.69057017
H   -6.64685392   5.74274716   18.83257432
C   -1.74735536   5.40779868   16.89442656
H   -1.66271149   5.27456714   18.99243500
C   -11.99733760   10.18006706   15.30686884
C   -11.40946531   5.54805280   16.81731492
C   -13.75047176   9.82303831   17.60480674
C   -13.31641068   7.54529276   15.86912195
H   -12.05450187   11.13965364   13.43317445
H   -15.26015683   10.74679735   18.73837395
H   -14.76752525   6.95501458   14.47073511
H   -11.70573837   5.79209855   18.85396500
C   7.06084306   -10.16124802   20.46064785
C   9.39272685   -11.89445326   20.65877458
C   9.37923419   -9.68379232   18.74322471
H   9.83520965   -13.78003372   19.82682334
H   13.46292900   -6.92850805   18.22955312
C   12.05307641   -5.89170097   17.05437364
C   9.69764016   -6.78398380   18.54154992
H   9.40046674   -10.10258025   16.67739284
C   7.28053439   -5.86216326   17.17736918
C   4.83051046   -6.81136803   18.46464940
C   4.82016177   -9.73869407   18.62709063
H   5.54151493   -10.22118502   16.70603652
H   7.35364891   -8.78108473   22.02658696
H   9.93992139   -5.88688975   20.39911464
H   7.76757350   -6.70083955   15.30589631
H   4.42583736   -6.20524280   20.41182208
C   7.41178070   -2.94178489   17.25772388
C   12.25296657   -2.99381115   17.39515299
C   9.88127950   -1.82223131   16.15664217
C   5.14335235   -1.60532440   15.99262307
H   7.52227518   -2.31916787   19.26851617
H   12.81248517   -2.33743555   19.31856295
H   5.62185730   -2.24447457   14.04119378
H   9.99488648   -2.48320158   14.15784266
C   2.71142059   -2.87254676   17.02836686
C   2.53027654   -5.79340562   16.95962632
C   2.15572328   -10.69185992   19.39157198
C   0.41583254   -1.54810662   15.82102112
C   0.10322073   -7.04790809   17.96365248
C   0.01229787   -9.91560723   17.58160716
H   2.69356534   -2.60983455   19.11766887
H   2.90348067   -7.03424153   15.29960687
H   -0.36261358   -6.69692883   19.96355207
H   0.95238321   -10.70033483   15.87356102
H   1.87803241   -11.26960385   21.39737094
C   0.41903381   1.27315374   16.47644947
C   2.79257822   2.68414768   15.60431153
C   5.15442375   1.27449432   16.53089035
C   7.53376908   2.44075355   15.33514524
C   9.89774501   1.09806661   16.35960355
C   12.22761953   1.88991226   14.80762939
H   0.54137855   1.07138424   18.56304233
H   5.36871702   1.62581500   18.59442898
H   10.14322223   1.37700896   18.43054115
H   2.69499719   2.63399405   13.50502110
H   7.60785345   2.23658682   13.24222565
H   11.73148276   2.19759874   12.78620281
C   10.10459406   11.82251256   13.39553521
C   9.93824268   9.23385455   14.73780620
C   7.62480216   10.21984014   13.24093536
H   10.08700155   13.62477097   14.48883085
C   10.17926309   6.33120683   14.44362715
H   9.70145965   9.86766505   16.73445192
C   7.81993682   5.33660437   15.81608005
C   5.36041240   6.60815502   14.92970261
C   5.46753954   9.53171349   15.08602838
H   9.92612796   6.10523071   12.39578050
H   7.09273492   9.43448265   11.35852179
H   5.90886960   10.33724955   16.98390122
H   5.25644464   6.02943189   12.90928721
H   7.75006674   5.60302109   17.90209618
C   12.27448592   4.70905695   15.64489894
H   12.68418683   5.24684559   17.63725517
C   2.86441015   10.71852720   14.44704694
C   3.07275411   5.49965418   16.33008518
C   0.69981487   9.71803408   16.11887471
C   0.60873204   6.86105222   15.65144156
H   3.07899326   12.61980370   13.56732736
H   1.22574447   9.78001188   18.15283910
H   0.37909049   6.84804324   13.56416031
H   3.59611594   5.44120503   18.36522736
N   -0.97701992   -2.31959119   10.39134784
C   0.80676996   -2.16158143   12.76547707
H   2.02955836   -3.75643129   12.48255877
H   1.91805439   -0.50765703   12.28455719
C   0.89890211   -2.86194280   8.28188360
H   1.77153991   -1.05581890   7.77116540
H   -0.17250776   -3.20046347   6.54318359
H   2.38698090   -4.26526576   8.60358639
C   -2.78874482   -4.57011650   10.44706102
H   -1.62145796   -6.27302255   10.52054151
H   -3.91134680   -4.61006086   8.70609510
H   -4.08950911   -4.50645486   12.01778408
C   -2.46379885   -0.01005177   9.59738577
H   -4.15873676   0.47189091   10.68864349
H   -3.01071746   -0.36962121   7.63879005
H   -1.12978588   1.49643394   9.91717072
O   -9.96039510   -17.46130363   1.55893164
H   -11.31490067   -18.36765348   2.39374570
H   -11.08553328   -16.86789406   0.24172228
O   13.60402735   2.23591240   6.33201873
H   14.59376236   2.59566973   4.83399757
H   12.91135131   3.72275083   7.14601156
O   -5.31660437   -9.83077488   10.80172044
H   -4.27549698   -11.27414932   10.37057297
H   -7.12118875   -9.97926706   10.52880422
O   -7.23965587   -4.44910282   -7.90295795
H   -7.83644313   -4.36445594   -9.63203869
H   -8.46823535   -5.55106937   -7.10966875
O   13.12990859   9.44549681   8.76560263
H   11.48978637   9.85422144   9.46989376
H   14.07975763   9.37961639   10.32974924
O   17.54290065   17.31762821   -7.89767714
H   16.68915761   18.93628431   -7.96226315
H   18.50027384   17.31207912   -9.45859184
O   8.90757949   -8.77451567   -4.89080454
H   9.56825632   -10.00749487   -3.70915236
H   9.87933860   -7.24075856   -4.65342171
O   5.78746659   -0.35806953   8.17127911
H   7.16980850   0.50654853   9.00472651
H   6.48691575   -1.55345071   6.97340280
O   -2.32491315   11.32696472   9.75203689
H   -3.78225454   10.55665707   10.54944686
H   -0.78941347   10.66318911   10.49684256
O   -5.16076752   3.84776130   0.00931035
H   -5.60484946   2.17338895   -0.58426278
H   -6.70446310   4.78978071   0.29687791
O   -2.02475315   -3.78994453   -1.41649772
H   -3.28809376   -2.93599759   -2.43031431
H   -0.48931998   -3.27798761   -2.27291591
O   5.36777485   4.12964970   -4.24812955
H   5.14280538   5.87187913   -4.76494044
H   3.76867561   3.59367123   -3.53491035
O   14.07730795   -11.12628266   -8.27897979
H   12.96934457   -11.76247726   -9.59076313
H   15.36977552   -10.10086225   -9.07340524
O   14.07171723   13.30309435   0.38832967
H   15.20491012   12.38112114   -0.71572477
H   14.87385094   14.89526143   0.80623885
O   -2.66440571   16.12656963   0.51940810
H   -1.98826741   15.93438758   2.21025735
H   -2.79935225   14.39799198   -0.06955849
O   4.71276295   -13.63952150   -2.39310590
H   3.06550186   -13.28032460   -1.67855946
H   5.33501370   -14.61480135   -0.97370245
O   -15.57095421   1.68609755   -7.73649689
H   -16.99629258   1.43550965   -6.61461265
H   -14.75142961   0.04926765   -7.78384474
O   -13.95651920   -5.58382403   -8.26362432
H   -15.06566545   -5.57986669   -9.72063080
H   -14.55170870   -6.99560690   -7.26077874
O   -16.84528576   3.84468983   10.19330145
H   -17.34323373   2.53294389   11.36994630
H   -15.32080498   4.60822779   10.86111860
O   -0.59260063   5.26519899   -3.75367022
H   -1.30773463   6.94754088   -3.86039061
H   -1.67572350   4.50263917   -2.48937311
O   -4.64691083   22.66515411   9.70315926
H   -6.04637936   22.09873762   10.73933713
H   -4.78315571   21.83201831   8.07821234
O   19.07086296   -9.60189593   -10.42019211
H   19.79673409   -10.91267354   -11.47280800
H   18.83868424   -8.13608091   -11.49282049
O   1.59089714   4.26384587   -9.07608962
H   1.25664865   3.57812915   -7.41141587
H   2.06498883   6.00148515   -8.74605972
O   0.63304478   13.73539990   -9.51311077
H   -1.00330244   13.56414204   -10.31692448
H   1.83018701   13.91227315   -10.88739861
O   -32.55395779   -35.18079835   30.63321025
H   -33.29967597   -35.37548485   32.29425501
H   -30.73109695   -35.24663449   30.79419746
O   18.75347269   1.13755631   1.98849101
H   19.24274801   1.87668755   3.59079155
H   19.18948063   2.41090910   0.74688249
O   18.82463426   -6.00856952   -14.58295663
H   19.39323902   -4.32837078   -15.03758754
H   18.94004945   -6.85330179   -16.20350299
O   -21.21703361   6.13986194   -14.28751297
H   -20.48253359   7.81586272   -14.21985029
H   -19.96451477   4.86776514   -13.88000252
O   -0.62956439   10.73752051   -4.96943845
H   -0.62326811   11.45225371   -6.65531655
H   0.54370083   11.73126883   -3.97496074
O   -4.37599091   -13.69072832   -8.48948791
H   -4.15392433   -11.88210983   -8.67022980
H   -5.66390731   -14.29014323   -9.64491672
O   4.37415471   24.31681216   14.84110716
H   5.58661135   25.60358954   14.36447498
H   2.75285699   25.16517854   14.91017938
O   10.73538375   -18.25147702   -0.71536113
H   12.44513054   -17.95332293   -0.13143788
H   9.98563219   -19.67942994   0.15179023
O   23.59064429   -13.10401650   -11.49866133
H   25.27903918   -13.58244501   -10.97573650
H   22.93496893   -12.39427448   -9.94322287
O   -21.73705532   4.92030523   17.87900040
H   -21.62077686   3.59910745   19.14153115
H   -19.97723616   5.13222088   17.41943409
O   5.44421132   -6.23844628   4.83957358
H   4.39566398   -5.22983308   3.72764392
H   6.53560321   -7.13344335   3.67297804
O   38.16574168   -1.19667081   -0.70823660
H   39.91188803   -1.68731291   -0.45670554
H   37.95635507   -1.22521848   -2.52714883
O   5.11801678   10.09680596   -8.12687953
H   6.12293395   9.97667927   -6.60085065
H   4.06739616   11.51786280   -7.64743563
O   -1.94669154   -2.54020999   3.58469436
H   -1.65131607   -1.37682257   2.20181384
H   -3.48621575   -3.32659558   2.98092921
O   22.20849294   12.42108310   -7.94383601
H   22.32741163   13.14401152   -6.26564467
H   23.33520213   13.55248190   -8.84022554
O   17.24364123   15.01154692   -13.11502509
H   17.74273127   13.49917460   -12.21133178
H   16.16513599   15.69492597   -11.80244115
O   8.47827578   8.68259816   -4.30682827
H   9.97500732   8.76425384   -5.35859289
H   8.25099585   6.94113740   -3.78844663
O   1.04793312   -9.18224181   -3.62431766
H   1.95547511   -7.76851807   -2.89570896
H   2.33802800   -10.31334984   -4.26406581
O   16.26766341   -28.60154076   15.98812364
H   17.55961306   -29.37807159   17.02779835
H   14.84667205   -27.88270392   16.89206500
O   -7.91720662   -15.49726168   -4.69075825
H   -6.91544285   -16.57111374   -3.59697188
H   -6.70859182   -14.29215426   -5.35409768
O   -4.05791442   11.47873712   -1.58786957
H   -3.04362941   10.77455609   -2.94005532
H   -5.63964189   12.12779346   -2.24353102
O   -44.07844261   33.86019945   10.33691108
H   -43.47411485   32.13386763   10.24925079
H   -45.89837894   33.78808088   10.52576035
O   -4.39836829   -9.59836048   -1.05648479
H   -4.12760716   -9.95107538   -2.83282053
H   -3.92128997   -7.83725875   -0.90158105
O   -9.87558113   -1.71282579   -2.27742159
H   -10.51634540   -1.18792220   -3.91049885
H   -10.63130961   -3.37460215   -2.13445008
O   12.28668122   -6.74395793   14.63505904
H   12.10206021   -5.26853843   13.56635073
