449

C   5.49371071   -6.15701913   -12.27188931
C   5.25556995   -5.57333975   -17.15712564
C   3.95304776   -5.76139345   -14.61891453
H   7.01765858   -4.44684449   -17.42056373
H   -1.06843037   -4.17146077   -16.50560884
C   0.50455919   -2.76892194   -16.45776917
C   2.35007034   -3.13922388   -14.18671309
H   2.59348906   -7.26344792   -14.93975369
C   0.80997417   -3.53017528   -11.69581267
C   2.45581087   -4.37210170   -9.42848625
C   3.82922334   -6.90306414   -9.98408793
H   2.38104781   -8.29346326   -10.62687464
H   7.40458980   -5.27556379   -12.15218618
H   3.67414423   -1.48953595   -14.12889204
H   -0.55843852   -5.12129324   -11.89275450
H   3.88754762   -2.88894098   -9.01810204
C   -0.79472312   -1.22263547   -10.89516511
C   -0.81676627   -0.26218893   -15.67572701
C   -2.37278160   -0.46056208   -13.23321395
C   -2.22116952   -1.59776503   -8.36663345
H   0.47876877   0.37506904   -10.37547789
H   0.69211023   1.27277997   -15.31767340
H   -3.72849962   -2.97628855   -8.76098804
H   -3.78470799   -1.88586999   -13.88124863
C   -0.39389554   -2.36649868   -6.20722878
C   0.98807003   -4.84399309   -6.92913452
C   4.85537100   -7.56562017   -7.31946228
C   -2.12507991   -2.50473247   -3.86940018
C   3.13260102   -6.00659864   -5.34112306
C   3.21864132   -8.89967407   -5.31590803
H   -3.68584023   -3.90640619   -3.73885237
H   0.95583041   -0.76323261   -6.00156569
H   -0.55494599   -6.21226305   -7.35523156
H   3.86931450   -4.78554815   -3.79729497
H   1.42176632   -9.66688113   -6.09025492
H   6.93275829   -7.56581503   -6.97509064
C   -3.00854368   0.23735112   -3.57010650
C   -5.28217612   0.80709161   -5.27046924
C   -3.85095927   0.78591787   -7.79055384
C   -5.49145733   1.56476738   -10.04945333
C   -3.81850556   1.95688809   -12.39323738
C   -5.37110683   2.79800911   -14.69088757
H   -1.27704332   1.41394983   -3.40557360
H   -2.56711418   2.44850280   -7.70827343
H   -2.52815611   3.60404669   -12.18634480
H   -6.65263736   -0.78667827   -5.29860238
H   -7.01062947   0.20949366   -10.58127486
H   -6.77402163   1.33869606   -15.26466756
C   -11.67880873   7.58842751   -13.28381777
C   -10.09388717   7.36468983   -10.84077059
C   -11.56972693   6.67838367   -8.40855395
H   -13.49739830   6.58709555   -13.64961352
C   -8.63383659   4.92536648   -11.53930464
H   -8.77118792   8.93154471   -10.35106807
C   -6.71792212   4.18688233   -9.48426343
C   -8.19480911   3.81759064   -7.00753272
C   -9.80971450   6.29790395   -6.17156700
H   -9.81143523   3.18976343   -11.37177664
H   -13.50936989   5.85658839   -8.33239319
H   -8.31507824   7.72418660   -6.17879591
H   -9.67789923   2.33669618   -7.19515867
H   -5.19614709   5.59463251   -9.12403687
C   -6.92025342   5.16587928   -13.95540033
H   -5.50521618   6.58482659   -13.43704186
C   -10.39119113   5.52961393   -3.45025126
C   -6.47204402   3.32452890   -4.58217084
C   -8.59847642   6.49735191   -1.36911583
C   -8.34693165   3.80568394   -2.40872357
H   -12.37208492   5.25417050   -2.79070936
H   -7.05894714   7.85416267   -1.82339389
H   -8.93509580   2.05693098   -1.40594064
H   -4.93573186   4.63047272   -4.56727343
C   5.63681236   -2.97450711   -26.08786016
C   7.56782836   -1.15788310   -26.25476217
C   5.20762918   -0.74667334   -27.93312494
H   8.24337680   0.09675995   -24.70142619
H   -0.00599450   0.50198280   -30.74247168
C   1.25384614   1.81620159   -29.67977201
C   3.05323582   1.17431626   -27.46479529
H   5.19789337   -1.30816556   -29.96490424
C   1.00472109   0.57201124   -25.46630623
C   2.44946171   -0.56726282   -23.18966932
C   3.58222306   -3.14105355   -24.01130976
H   2.17732818   -4.11612309   -25.24383017
H   5.87941669   -4.90154901   -26.90664213
H   3.85084201   2.89796121   -26.55046022
H   -0.22923885   -0.81781868   -26.46064593
H   3.97871586   0.81532470   -22.76879427
C   -0.51912551   2.94235403   -24.67492358
C   0.18439596   4.42217579   -28.89298940
C   -1.99604658   3.80497217   -27.05012805
C   -2.41662421   2.37166873   -22.53437079
H   0.85567680   4.49942156   -24.30924550
H   1.68745924   5.71753454   -28.18148229
H   -3.71942370   1.06117080   -23.54968599
H   -3.25698403   2.21803497   -27.63034769
C   -0.94440391   1.31253946   -20.25712927
C   0.61571743   -1.06888981   -20.95243608
C   4.52376203   -5.02577854   -21.97329472
C   -2.60485401   0.89643163   -17.88999519
C   2.07430716   -2.35579906   -18.77458450
C   3.21854981   -4.95659310   -19.37243951
H   -3.94035152   -0.67498751   -18.29594214
H   0.40692640   2.86016853   -19.75870793
H   -0.78928181   -2.53749663   -21.50360838
H   3.67517197   -1.17052162   -18.34501630
H   1.76234680   -6.47064482   -19.43646808
H   6.01961278   -6.34798938   -22.64286084
C   -3.91660853   3.33358359   -17.03861083
C   -5.39765831   4.43494436   -19.29400171
C   -3.80193070   4.82004380   -21.68204415
C   -5.29348739   5.86252212   -23.93948591
C   -3.61775792   6.12329317   -26.29843365
C   -5.61480083   6.97914342   -28.23319425
H   -2.43217677   4.69617604   -16.78531786
H   -2.21056311   6.15056751   -21.31436812
H   -2.34455201   7.75156989   -25.90535343
H   -6.75030532   2.88504365   -19.72668140
H   -6.73183827   4.40453305   -24.42208265
H   -7.07078382   5.52102139   -28.65861373
C   -12.94326971   10.83404712   -23.85602527
C   -10.21533331   11.44615139   -24.70113225
C   -11.12941632   11.83494099   -21.94829885
H   -14.07633068   9.06711888   -24.05064719
C   -8.47003971   9.23026496   -25.48458200
H   -10.05781065   13.30174283   -25.68923302
C   -6.78622238   8.29176925   -23.29241817
C   -8.47327623   7.71523870   -20.91858339
C   -9.92453999   10.24587858   -19.91111501
H   -9.79787940   7.68163070   -26.00003888
H   -11.42043549   13.86594499   -21.46488042
H   -8.32494717   11.27877960   -19.12002743
H   -9.96914925   6.37070286   -21.53696470
H   -5.60167118   9.93596627   -23.05015613
C   -6.55828141   9.69821407   -27.62714747
H   -5.26029193   11.35210687   -27.70725180
C   -11.66336924   9.52167803   -17.70242157
C   -6.88026953   6.84946105   -18.64268233
C   -10.17297998   8.58104925   -15.43022350
C   -8.53700452   6.14158117   -16.30902746
H   -13.57456314   8.75292990   -18.13965034
H   -8.97343052   10.05290007   -14.76907537
H   -9.77341718   4.52824547   -16.83635960
H   -5.51356935   8.28009767   -18.12254731
C   7.86559705   -6.35923034   2.06994376
C   9.26952630   -2.72184413   5.25280482
C   7.30113476   -3.80655234   3.38053938
H   11.23262407   -3.40523000   4.90269290
H   3.55197434   0.15492212   4.21607202
C   3.92514368   -1.12606316   5.84810182
C   4.63834895   -3.66392619   4.58061179
H   7.30939318   -2.34868608   1.85802398
C   2.41136294   -4.76877774   3.04016426
C   3.32164258   -7.33022626   1.95800449
C   5.74392011   -7.33340030   0.30624983
H   5.77590664   -5.84786988   -1.18900033
H   9.57297773   -7.46352817   2.62503720
H   4.92397089   -5.00260537   6.18357599
H   1.78976705   -3.59873573   1.40076926
H   3.75424013   -8.49760232   3.65903397
C   0.18620182   -5.37259452   4.83915164
C   1.43566753   -1.45892208   7.34662275
C   -0.71015738   -2.78681267   5.87572180
C   -1.86250223   -6.86714916   3.38949926
H   0.87336487   -6.38019654   6.55836416
H   1.71195348   -2.76122946   8.98095968
H   -2.56649996   -5.62406556   1.83879405
H   -1.00131919   -1.47464622   4.25139682
C   -0.80065668   -9.25815649   2.02057196
C   1.43284359   -8.71785830   0.22965163
C   5.68490306   -10.04474118   -0.80610665
C   -3.24326332   -10.07108308   0.65391070
C   3.01281142   -10.94742795   -0.74124805
C   4.31604379   -10.63350213   -3.30658627
H   -4.05397604   -8.93242597   -0.91577385
H   -0.31459671   -10.81424988   3.33590630
H   0.92563184   -7.33727323   -1.24185207
H   2.54344296   -12.90869028   -0.14942078
H   4.69383854   -12.43682184   -4.31766918
H   7.25990721   -11.37288102   -0.37074900
C   -5.17056672   -10.95162775   2.62856257
C   -6.54310080   -8.66532765   3.74410724
C   -4.24867652   -7.25197435   5.04518404
C   -5.10892765   -4.72267208   6.19141665
C   -3.11122642   -3.09339784   7.54018989
C   -4.04011749   -0.63892843   8.76791064
H   -4.41539781   -12.27717031   4.07154766
H   -3.84377104   -8.66774691   6.54824066
H   -2.48705966   -4.47266979   8.99778427
H   -7.42740075   -7.45917943   2.30027467
H   -6.15912937   -3.53751083   4.80579257
H   -4.95543207   0.50552947   7.25814138
C   -11.53814209   -0.59893665   12.34687087
C   -10.58638534   -3.09456888   11.16513771
C   -12.57850254   -4.47779495   9.52716593
H   -12.51217397   0.78534040   11.09037607
C   -8.31914355   -2.68734258   9.33198508
H   -10.00678218   -4.27946880   12.80965846
C   -7.21928196   -5.12009172   8.21319918
C   -9.29122576   -6.55274326   6.76188084
C   -11.49697072   -7.03778004   8.62803644
H   -9.06892992   -1.43079230   7.82205694
H   -13.59764577   -3.30913444   8.09925050
H   -10.77338323   -8.03094147   10.34140547
H   -9.88734315   -5.27921819   5.19644603
H   -6.57373551   -6.29560348   9.83454580
C   -6.15471551   -1.31375965   10.69764412
H   -5.18287125   -2.52699829   12.11543304
C   -13.02908161   -9.01765829   7.10297083
C   -8.54827515   -9.20062266   5.77378728
C   -12.37268193   -11.83880509   7.40585314
C   -11.18744427   -10.32822177   5.23733172
H   -15.04933961   -8.70052569   6.60018928
H   -11.31346468   -12.63866574   9.03549610
H   -11.72584622   -10.64219392   3.23204061
H   -7.61360212   -10.44289837   7.14434083
C   11.71058868   5.45057561   9.85084713
C   13.54013553   7.69109978   10.05376311
C   10.69789518   8.08305213   10.62348087
H   14.96067413   7.50947266   11.60051106
H   6.55992593   11.52242093   12.74260707
C   7.32391084   9.91389175   13.87072985
C   8.62361687   7.60646117   12.62876763
H   9.62982176   9.09474465   9.11378129
C   6.40407330   6.31108742   11.23278211
C   7.25147937   3.94474084   9.73511591
C   9.59709878   4.49821444   8.06554460
H   9.26599941   6.05310290   6.68124266
H   12.01061536   4.08821164   11.43094196
H   9.15746310   6.28449852   14.13921378
H   5.84563589   7.70281662   9.75148767
H   7.88949126   2.63719184   11.22033843
C   4.10934430   5.67318262   12.92971715
C   5.65781717   8.77082113   15.98529209
C   3.24364425   7.93892221   14.56715202
C   1.77665391   4.76316330   11.42545847
H   4.61920907   4.09594020   14.23182730
H   6.57648548   7.30648327   17.19159181
H   1.26892008   6.29889377   10.07294433
H   2.65190025   9.43759976   13.20744897
C   2.57657888   2.46011119   9.79788949
C   5.05146439   2.69775422   8.25276090
C   10.30586481   2.09813250   6.53929214
C   0.30796515   1.27882888   8.40522525
C   5.92027169   0.05468487   7.39730599
C   8.29471426   0.14959687   5.74475097
H   2.94738344   0.83699179   11.08727181
H   4.34560394   3.70671498   6.54443455
H   6.52771125   -1.00405555   9.08546247
H   7.85763402   1.06862130   3.90591047
H   12.33538466   1.91980611   6.00695898
C   -1.94289976   0.59374710   10.09441935
C   -2.74856721   2.88468216   11.67168224
C   -0.52743076   4.08522585   13.10319645
C   -1.12444116   6.42031334   14.72867983
C   1.02213213   7.43183771   16.40490976
C   0.08437921   9.79400602   17.82079780
H   -1.30676002   -0.79580296   11.53456717
H   -0.09623409   2.51043108   14.43046069
H   1.43486092   5.91052390   17.79850571
H   -3.43663567   4.30850675   10.28663961
H   -1.44477123   8.08924755   13.48790095
H   0.51810907   11.77301273   17.25299599
C   -4.80481662   9.87052918   20.40990114
C   -6.28254910   7.46363740   19.66579554
C   -8.65035638   6.96628382   18.01930684
H   -5.63269673   11.76198200   19.98474117
C   -4.14355411   8.01205454   17.74383429
H   -5.67060048   5.76880772   20.76007492
C   -3.41939334   5.55788537   16.36836115
C   -5.74367622   4.84213560   14.77550905
C   -8.07367127   4.52495514   16.52297228
H   -4.53491979   9.37323149   16.22632031
H   -9.32141235   8.81756993   17.26711911
H   -7.56464639   3.12177148   18.01211673
H   -6.21002848   6.09017876   13.14679422
H   -3.15885858   3.91784194   17.66053071
C   -2.05701091   8.83747004   19.59570083
H   -1.31768269   7.27710562   20.79787032
C   -10.13564114   3.39606068   14.77169152
C   -4.97539038   2.35758863   13.48710335
C   -9.45708284   0.75932640   13.73793218
C   -7.18714762   1.22503643   12.00021999
H   -11.42396164   4.68176449   13.71244613
H   -8.65864754   -0.35941063   15.32802114
H   -7.64092239   2.60833914   10.48687615
H   -4.21748240   0.92168612   14.82235131
N   -2.73858464   4.32782494   4.63597828
C   -0.36158600   3.30927007   6.10423793
H   0.87150549   2.81669025   4.56942497
H   0.45186399   5.00413664   6.92120141
C   -1.64838457   6.38337798   2.94801098
H   0.13846521   5.79096765   2.08741165
H   -1.32557134   8.27574844   3.72281336
H   -3.01901467   6.84534566   1.46640863
C   -4.13795208   2.55172463   2.83665794
H   -2.83030057   1.99362401   1.33785234
H   -5.70184185   3.71317916   2.13092053
H   -4.67180059   0.80315471   3.74259415
C   -4.40727869   5.59695758   6.58010334
H   -6.00585613   6.39351464   5.52845049
H   -3.19860404   7.02185846   7.45946129
H   -5.22347248   4.20821960   7.82773580
O   -140.90367689   -209.87915133   -117.07342020
H   -141.87253098   -209.03908122   -118.38058272
H   -141.09944617   -211.66553687   -117.42500584
O   10.51244993   2.54772711   -6.68187084
H   9.42574597   1.35057438   -5.82223836
H   10.05885400   4.23729942   -6.14088187
O   2.41323544   2.04169477   0.02050197
H   1.71284945   0.77080091   -1.09637347
H   4.12015024   1.53604362   0.44924054
O   14.18399445   -3.25384659   -8.92174112
H   13.80933694   -4.57044354   -7.70549916
H   15.15370791   -1.95657957   -8.06745800
O   157.28836656   46.88068150   -7.80507205
H   155.95261886   47.53954113   -6.73981866
H   156.51646318   45.81534563   -9.07878030
O   3.21232517   12.10388410   -5.92340553
H   3.17829535   10.28391017   -6.12248581
H   4.77398651   12.51096287   -5.05821791
O   19.19475569   12.95211643   5.02055136
H   19.73370146   14.43132698   4.08540055
H   18.51386445   13.30091476   6.68422323
O   6.85875416   7.32850585   -3.96063308
H   7.14803597   9.10096217   -3.60316596
H   7.37646394   7.19663058   -5.71210630
O   14.89406818   0.24005621   -5.37340573
H   13.55442264   1.35733763   -5.93028320
H   16.32343411   1.12400465   -4.64632872
O   10.90700349   6.12133575   -0.43302635
H   11.45300896   4.37623820   -0.33518384
H   9.27645055   6.07140522   -1.26482904
O   4.96664154   1.78124707   -6.63003879
H   4.31237718   3.25120712   -5.75583370
H   5.82492082   2.29295526   -8.16451539
O   7.91548997   12.63028353   -3.33360646
H   9.55632429   13.20858782   -3.90482885
H   7.92393937   12.54763903   -1.50435213
O   16.66928244   12.65340467   9.96172581
H   15.10826185   11.88268429   10.52944649
H   18.12659052   11.57120571   9.72054167
O   13.64669875   11.14675873   0.50058457
H   12.90252904   12.05404176   1.90633913
H   12.72124291   9.57174007   0.37444848
O   58.23863933   73.31019390   11.73027153
H   57.60708307   71.62432014   11.39555599
H   59.99632734   73.24103325   11.22152543
O   26.86362729   -118.26769627   -17.23577349
H   25.47865307   -119.29750334   -16.62388138
H   27.49630229   -118.91241471   -18.82861165
O   4.98369411   14.31465523   -10.19287979
H   4.31331878   15.99581238   -9.91482304
H   4.34900037   13.23184504   -8.85955296
O   9.08499290   6.16039822   -14.11593397
H   8.32846037   7.79260552   -13.77439805
H   10.77976866   6.16103035   -13.42252544
O   7.15490155   2.54241397   -11.25437963
H   8.10076194   0.97447097   -11.24932420
H   5.97860735   2.50827591   -12.65729736
O   11.40804556   11.14786921   -9.54662484
H   12.64357726   9.79875762   -9.62687099
H   12.08788113   12.25724776   -8.25813632
O   18.57726380   8.63574280   1.66767779
H   19.81248812   9.88673573   2.17977345
H   17.05587840   9.64958182   1.56449201
O   17.54840525   5.31462756   -2.08633351
H   18.76524693   6.13650783   -0.99233342
H   16.12051464   5.10745811   -0.95883121
O   7.45346657   14.46299625   1.53417327
H   8.26055531   15.70614940   2.60946214
H   7.97247223   12.91786684   2.36860790
O   2.23010043   10.36766523   0.09338144
H   0.78036489   10.62136120   -0.99610616
H   3.64736246   11.47264844   -0.25801740
O   -186.42593208   -118.82196344   264.49259492
H   -186.62833105   -118.02061730   262.85859763
H   -187.97483316   -119.77155888   264.72117062
O   1.96558024   9.94789114   7.02107349
H   2.07454072   10.77002134   5.38849825
H   3.19177039   8.58810232   6.99753470
O   13.82709400   12.80075813   -4.85121149
H   14.75895770   12.82431297   -3.27509486
H   13.03239951   11.16107504   -5.03277090
O   6.74723353   -1.83683228   -2.92753352
H   5.55304060   -0.87506444   -3.92850953
H   8.21089147   -2.18158495   -3.97249743
O   2.30622766   5.33444281   -3.77537591
H   3.74092146   6.45542899   -3.58015350
H   2.52668737   4.32611742   -2.26284480
O   5.12885103   6.38244432   2.47519377
H   4.25765228   7.48904718   1.30492675
H   5.44517400   4.71833673   1.77968797
O   63.33107197   72.99343135   9.59668525
H   63.45943325   73.15364271   7.77710259
H   64.21046062   74.35135091   10.45449225
O   30.04510418   -116.87479039   -12.95900982
H   29.00259089   -117.10857158   -14.44615767
H   29.27942987   -115.73596119   -11.74659929
O   13.36815090   1.33051194   -0.54049870
H   14.37906375   0.64192766   -1.90319031
H   14.60837166   1.87357917   0.69236917
O   -114.46781741   120.73009968   -47.19368681
H   -113.13698148   120.65990054   -48.44947977
H   -116.10228715   120.37093064   -47.93704352
O   25.28708535   -171.73505504   127.59559550
H   25.83830247   -170.20831754   128.44316378
H   26.38812041   -173.17537699   127.85307488
O   178.24763198   -37.90166755   164.94850901
H   179.36660232   -36.50438444   164.56311322
H   179.36661756   -39.31934536   165.25043667
O   15.82491362   4.46825501   2.69550789
H   17.56214236   4.68473347   3.23237515
H   14.95751647   6.02045578   3.13296375
O   7.84530546   10.99320886   -13.00165502
H   9.28401468   11.75425818   -12.16261080
H   6.48720685   11.92623674   -12.20284553
O   4.16314995   3.48132411   -15.82255200
H   5.34845539   4.87370385   -15.72547987
H   4.92595538   2.55740007   -17.20730586
O   13.43038262   7.38820660   -4.65369273
H   12.33138775   6.79585871   -3.31415671
H   14.88728227   8.10255951   -3.80504651
O   9.96075473   -1.81016590   -11.67449161
H   10.96423039   -2.33160327   -13.11470737
H   11.27622038   -1.77559037   -10.40114330
O   14.50008466   8.92038507   5.18578294
H   14.35554952   7.89080682   6.69316350
H   15.98719297   9.96392177   5.41505978
O   9.09734395   9.91007876   3.55979900
H   10.77270010   9.17099881   3.56016996
H   7.80660427   8.61666677   3.44093221
O   -64.68019981   -95.86915172   49.91232128
H   -65.82918684   -97.28936929   49.78635163
H   -63.78466492   -96.12135800   51.48949030
O   -8.44198102   7.60854032   3.81071600
H   -8.98740075   6.98029689   2.17949595
H   -9.57460927   8.99689184   4.18842110
O   -185.00153136   227.28575234   29.22841912
H   -186.80795703   227.15826965   28.95695571
H   -184.70775568   228.94573486   29.94339273
O   7.33016858   7.81535926   -8.72790782
H   7.82426459   6.51916616   -9.92324906
H   8.14649424   9.30284360   -9.41644318
O   14.50245973   7.01644836   -9.80410915
H   14.58731575   5.34727307   -10.55223832
H   14.32455425   6.88791247   -7.98617208
O   6.95249890   1.68130028   1.42807762
H   8.46656505   1.32035894   0.46349992
