449

C       -3.290109     -5.919302     -7.095950
C       -0.751599     -5.932222     -7.041810
C       -2.014041     -5.304996     -7.591269
H       -0.774609     -5.953262     -5.926780
H       -0.699239     -2.970722     -8.596870
C       -0.726399     -2.992332     -7.481900
C       -2.009886     -3.759860     -7.034670
H       -1.982249     -5.164672     -8.667150
C       -3.263899     -2.978912     -7.546560
C       -4.549265     -3.711620     -7.090966
C       -4.546119     -5.174092     -7.610210
H       -4.518769     -5.158302     -8.725260
H       -3.315179     -5.936922     -5.980980
H       -2.039049     -3.746872     -5.915320
H       -3.235299     -2.960932     -8.661470
H       -4.578179     -3.726842     -5.979160
C       -3.262477     -1.522873     -7.025384
C       -0.713728     -1.515124     -6.994582
C       -1.978619     -0.787122     -7.473850
C       -4.512729     -0.771352     -7.546570
H       -3.297729     -1.539992     -5.910460
H       -0.759419     -1.558032     -5.841630
H       -4.475720     -0.751426     -8.646645
H       -1.947289     -0.767552     -8.588910
C       -5.808249     -1.498632     -7.100530
C       -5.807059     -2.961332     -7.610490
C       -5.833669     -5.910362     -7.156140
C       -7.036209     -0.727372     -7.622400
C       -7.076199     -3.707662     -7.157940
C       -7.071129     -5.150992     -7.670610
H       -7.049709     -0.726272     -8.734560
H       -5.849919     -1.510922     -5.987020
H       -5.786999     -2.948912     -8.724610
H       -7.152019     -3.709102     -6.048360
H       -7.092199     -5.149122     -8.782560
H       -5.868439     -5.922452     -6.042440
C       -7.028509      0.717778     -7.111840
C       -5.746689      1.438068     -7.543380
C       -4.507061      0.697492     -7.026647
C       -3.224579      1.414288     -7.466890
C       -1.977121      0.677716     -6.950761
C       -0.697409      1.400108     -7.388890
H       -7.109969      0.725298     -6.003640
H       -4.542649      0.685338     -5.914850
H       -2.014539      0.664458     -5.838820
H       -5.723099      1.508818     -8.653290
H       -3.190389      1.483078     -8.577710
H       -0.664199      1.472778     -8.499430
C       -0.746579      5.869708     -7.566380
C       -2.025589      5.133738     -7.106740
C       -3.282429      5.881338     -7.616480
H       -0.725999      5.890578     -8.681510
C       -2.018779      3.674778     -7.627540
H       -2.046669      5.115098     -5.991500
C       -3.293019      2.945408     -7.171940
C       -4.546479      3.682918     -7.673590
C       -4.559712      5.216969     -7.130247
H       -1.999809      3.680698     -8.740790
H       -3.260429      5.899058     -8.731590
H       -4.581349      5.128228     -6.040800
H       -4.526029      3.686518     -8.786910
H       -3.313129      2.877698     -6.060730
C       -0.737892      2.921768     -7.112330
H       -0.782019      2.862638     -6.019480
C       -5.825149      5.884738     -7.665500
C       -5.849307      2.907240     -7.176220
C       -7.085309      5.126658     -7.204670
C       -7.067519      3.681118     -7.713880
H       -5.811929      5.896738     -8.779750
H       -7.153639      5.126518     -6.094560
H       -7.094269      3.673558     -8.824760
H       -5.847989      2.877848     -6.109580
C        4.308891     -5.919302     -7.095950
C        6.847401     -5.932222     -7.041810
C        5.592001     -5.184132     -7.552110
H        6.824391     -5.953262     -5.926780
H        6.899761     -2.970722     -8.596870
C        6.872601     -2.992332     -7.481900
C        5.587441     -3.727372     -7.030250
H        5.616751     -5.164672     -8.667150
C        4.335101     -2.978912     -7.546560
C        3.048977     -3.712928     -7.092167
C        3.052881     -5.174092     -7.610210
H        3.080231     -5.158302     -8.725260
H        4.283821     -5.936922     -5.980980
H        5.559951     -3.746872     -5.915320
H        4.363701     -2.960932     -8.661470
H        3.020821     -3.726842     -5.979160
C        4.331567     -1.520166     -7.025955
C        6.869271     -1.536562     -6.956500
C        5.620381     -0.787122     -7.473850
C        3.086271     -0.771352     -7.546570
H        4.301271     -1.539992     -5.910460
H        6.839581     -1.558032     -5.841630
H        3.120281     -0.754682     -8.661670
H        5.651711     -0.767552     -8.588910
C        1.800354     -1.495396     -7.104502
C        1.791941     -2.961332     -7.610490
C        1.765331     -5.910362     -7.156140
C        0.562791     -0.727372     -7.622400
C        0.534319     -3.715350     -7.123098
C        0.527871     -5.150992     -7.670610
H        0.549291     -0.726272     -8.734560
H        1.749081     -1.510922     -5.987020
H        1.812001     -2.948912     -8.724610
H        0.446981     -3.709102     -6.048360
H        0.506801     -5.149122     -8.782560
H        1.730561     -5.922452     -6.042440
C        0.580051      0.703478     -7.074236
C        1.852311      1.438068     -7.543380
C        3.091474      0.695481     -7.029036
C        4.374421      1.414288     -7.466890
C        5.617891      0.671328     -6.951690
C        6.901591      1.400108     -7.388890
H        0.489031      0.725298     -6.003640
H        3.056351      0.685338     -5.914850
H        5.584461      0.664458     -5.838820
H        1.875901      1.508818     -8.653290
H        4.408611      1.483078     -8.577710
H        6.934801      1.472778     -8.499430
C        6.852421      5.869708     -7.566380
C        5.573411      5.133738     -7.106740
C        4.316571      5.881338     -7.616480
H        6.873001      5.890578     -8.681510
C        5.580221      3.674778     -7.627540
H        5.552331      5.115098     -5.991500
C        4.320803      2.925387     -7.139104
C        3.052521      3.682918     -7.673590
C        3.050909      5.222067     -7.127355
H        5.599191      3.680698     -8.740790
H        4.338571      5.899058     -8.731590
H        3.017651      5.128228     -6.040800
H        3.072971      3.686518     -8.786910
H        4.285871      2.877698     -6.060730
C        6.834661      2.933468     -7.130440
H        6.816981      2.862638     -6.019480
C        1.773851      5.884738     -7.665500
C        1.796967      2.934302     -7.189699
C        0.513114      5.203576     -7.153547
C        0.531481      3.681118     -7.713880
H        1.787071      5.896738     -8.779750
H        0.445361      5.126518     -6.094560
H        0.504731      3.673558     -8.824760
H        1.751011      2.877848     -6.109580
C       -3.290109     -5.919302      7.904050
C       -0.751599     -5.932222      7.958190
C       -2.006999     -5.184132      7.447890
H       -0.774609     -5.953262      9.073220
H       -0.699239     -2.970722      6.403130
C       -0.726399     -2.992332      7.518100
C       -2.011559     -3.727372      7.969750
H       -1.982249     -5.164672      6.332850
C       -3.263899     -2.978912      7.453440
C       -4.551029     -3.710962      7.905810
C       -4.546119     -5.174092      7.389790
H       -4.518769     -5.158302      6.274740
H       -3.315179     -5.936922      9.019020
H       -2.039049     -3.746872      9.084680
H       -3.235299     -2.960932      6.338530
H       -4.578179     -3.726842      9.020840
C       -3.265969     -1.521802      7.974700
C       -0.729729     -1.536562      8.043500
C       -1.978619     -0.787122      7.526150
C       -4.512729     -0.771352      7.453430
H       -3.297729     -1.539992      9.089540
H       -0.759419     -1.558032      9.158370
H       -4.478719     -0.754682      6.338330
H       -1.947289     -0.767552      6.411090
C       -5.814793     -1.507591      7.905072
C       -5.804757     -2.966589      7.407014
C       -5.833669     -5.910362      7.843860
C       -7.036209     -0.727372      7.377600
C       -7.076199     -3.707662      7.842060
C       -7.071129     -5.150992      7.329390
H       -7.049709     -0.726272      6.265440
H       -5.849919     -1.510922      9.012980
H       -5.785259     -2.947073      6.306391
H       -7.152019     -3.709102      8.951640
H       -7.092199     -5.149122      6.217440
H       -5.868439     -5.922452      8.957560
C       -7.028509      0.717778      7.888160
C       -5.775901      1.449000      7.402306
C       -4.508569      0.689608      7.972200
C       -3.224579      1.414288      7.533110
C       -1.975961      0.676536      8.049817
C       -0.697409      1.400108      7.611110
H       -7.109969      0.725298      8.996360
H       -4.542649      0.685338      9.085150
H       -2.014539      0.664458      9.161180
H       -5.753627      1.396894      6.303710
H       -3.190389      1.483078      6.422290
H       -0.664199      1.472778      6.500570
C       -0.746579      5.869708      7.433620
C       -2.025589      5.133738      7.893260
C       -3.282429      5.881338      7.383520
H       -0.725999      5.890578      6.318490
C       -2.020565      3.665838      7.371572
H       -2.046669      5.115098      9.008500
C       -3.293019      2.945408      7.828060
C       -4.546479      3.682918      7.326410
C       -4.560739      5.144308      7.843760
H       -1.999809      3.680698      6.259210
H       -3.260429      5.899058      6.268410
H       -4.581349      5.128228      8.959200
H       -4.526029      3.686518      6.213090
H       -3.313129      2.877698      8.939270
C       -0.764339      2.933468      7.869560
H       -0.782019      2.862638      8.980520
C       -5.825149      5.884738      7.334500
C       -5.815123      2.933434      7.795600
C       -7.085309      5.126658      7.795330
C       -7.067519      3.681118      7.286120
H       -5.811929      5.896738      6.220250
H       -7.153639      5.126518      8.905440
H       -7.094269      3.673558      6.175240
H       -5.847989      2.877848      8.890420
C        4.308891     -5.919302      7.904050
C        6.847401     -5.932222      7.958190
C        5.592001     -5.184132      7.447890
H        6.824391     -5.953262      9.073220
H        6.899761     -2.970722      6.403130
C        6.872601     -2.992332      7.518100
C        5.587441     -3.727372      7.969750
H        5.616751     -5.164672      6.332850
C        4.335101     -2.978912      7.453440
C        3.047971     -3.710962      7.905810
C        3.052881     -5.174092      7.389790
H        3.080231     -5.158302      6.274740
H        4.283821     -5.936922      9.019020
H        5.589650     -3.755463      9.068502
H        4.363701     -2.960932      6.338530
H        3.022212     -3.726253      9.005611
C        4.333031     -1.521802      7.974700
C        6.869271     -1.536562      8.043500
C        5.620381     -0.787122      7.526150
C        3.086271     -0.771352      7.453430
H        4.301271     -1.539992      9.089540
H        6.839581     -1.558032      9.158370
H        3.120281     -0.754682      6.338330
H        5.651711     -0.767552      6.411090
C        1.790751     -1.498632      7.899470
C        1.791941     -2.961332      7.389510
C        1.765331     -5.910362      7.843860
C        0.562791     -0.727372      7.377600
C        0.522801     -3.707662      7.842060
C        0.527871     -5.150992      7.329390
H        1.749081     -1.510922      9.012980
H        1.812001     -2.948912      6.275390
H        0.573961     -3.762822      8.941880
H        0.506801     -5.149122      6.217440
H        1.730561     -5.922452      8.957560
C        0.570491      0.717778      7.888160
C        1.852311      1.438068      7.456620
C        3.090431      0.689608      7.972200
C        4.374421      1.414288      7.533110
C        5.617891      0.671328      8.048310
C        6.901591      1.400108      7.611110
H        0.489031      0.725298      8.996360
H        3.056351      0.685338      9.085150
H        5.584461      0.664458      9.161180
H        1.875901      1.508818      6.346710
H        4.408611      1.483078      6.422290
H        6.934801      1.472778      6.500570
C        6.852421      5.869708      7.433620
C        5.573411      5.133738      7.893260
C        4.316571      5.881338      7.383520
H        6.873001      5.890578      6.318490
C        5.580221      3.674778      7.372460
H        5.552331      5.115098      9.008500
C        4.305981      2.945408      7.828060
C        3.052521      3.682918      7.326410
C        3.038261      5.144308      7.843760
H        5.634027      3.694443      6.275505
H        4.338571      5.899058      6.268410
H        3.017651      5.128228      8.959200
H        3.072971      3.686518      6.213090
H        4.285871      2.877698      8.939270
C        6.834661      2.933468      7.869560
H        6.816981      2.862638      8.980520
C        1.773851      5.884738      7.334500
C        1.782841      2.947858      7.780660
C        0.513691      5.126658      7.795330
C        0.531481      3.681118      7.286120
H        1.787071      5.896738      6.220250
H        0.445361      5.126518      8.905440
H        0.504731      3.673558      6.175240
H        1.751011      2.877848      8.890420
N       -0.289441     -0.614050      4.485143
C        0.676024     -0.756782      5.719606
H        1.152994     -1.672997      5.425614
H        1.428786     -0.018537      5.464772
C        0.661990     -0.560191      3.299490
H        1.282856     -1.462431      3.283795
H        1.287772      0.336036      3.372032
H        0.074643     -0.513786      2.375691
C       -1.150046     -1.863619      4.294715
H       -0.512442     -2.750083      4.347266
H       -1.581020     -1.810778      3.287951
H       -1.979686     -1.899514      4.984807
C       -1.108366      0.656406      4.418081
H       -1.544030      0.716557      3.413312
H       -0.447439      1.516660      4.549695
H       -1.938179      0.618683      5.105456
O         -5.61758       -1.58753        4.70001
H         -4.65699       -1.70189        4.64394
H         -5.89079       -1.44820        3.78082
O          2.71074        1.05219       -0.97262
H          3.63165        1.35297       -0.99289
H          2.47968        0.94249       -1.90725
O         -4.76229       -4.68839        2.26429
H         -5.28529       -4.59638        1.45375
H         -4.99821       -3.90610        2.78517
O         -0.92002        0.04257       -1.14026
H         -0.49831        0.91321       -1.08464
H         -0.60126       -0.31865       -1.98101
O          4.30844        2.93059        3.23838
H          5.17588        3.33947        3.09937
H          3.89960        2.94452        2.35996
O          5.48730        3.99087       -2.57072
H          5.57864        3.52764       -1.72453
H          4.89373        3.42355       -3.08528
O          1.69578       -0.32044        1.85955
H          0.85214       -0.06514        1.45701
H          2.34037       -0.20508        1.14530
O          1.99635        1.53200        4.63848
H          2.91726        1.83278        4.61821
H          1.76529        1.42230        3.70385
O         -0.92451        3.27930        2.45214
H         -0.70130        3.46983        3.37563
H         -1.01651        4.15520        2.04804
O         -0.66536        2.73659       -1.16495
H         -1.50171        2.73049       -0.67563
H         -0.93662        2.67225       -2.09298
O         -0.41612       -3.22610       -0.45118
H          0.44500       -3.59771       -0.20759
H         -0.26001       -2.82214       -1.31802
O          0.51649       -1.58872       -2.71587
H          1.43740       -1.28794       -2.73614
H          0.28543       -1.69842       -3.65050
O          3.19288       -0.26303       -3.64604
H          3.68429        0.08698       -2.88777
H          3.85044       -0.29385       -4.35711
O          5.42799        2.73008        1.05390
H          5.95014        3.49176        0.76036
H          4.66944        2.71994        0.45103
O         -4.08823        4.01152        1.24113
H         -3.16732        4.31230        1.22086
H         -4.31929        3.90182        0.30650
O          3.59957       -4.53805       -0.48961
H          4.52048       -4.23727       -0.50988
H          3.36851       -4.64775       -1.42424
O         -3.58462        0.79729       -3.68115
H         -4.13294        1.00752       -4.45192
H         -3.42336       -0.15483       -3.76127
O         -5.26909        0.84510       -0.92024
H         -5.24341        0.67552       -1.87394
H         -5.20973       -0.03715       -0.52392
O         -4.97967        3.21922       -2.28951
H         -5.29501        2.88396       -1.43679
H         -5.79000        3.47867       -2.75318
O          0.01381        0.93274       -3.49988
H          0.22863        1.47811       -2.72827
H          0.09474        1.54333       -4.24794
O          3.15526        4.90987        3.61119
H          2.59237        5.01611        4.39273
H          2.57606        5.14730        2.87151
O          3.15306       -3.07653       -3.32554
H          3.69640       -2.82158       -2.56480
H          3.79361       -3.18706       -4.04417
O          2.97170        1.92438       -3.52964
H          3.89261        2.22516       -3.54991
H          2.74064        1.81468       -4.46427
O         -2.40837        4.50451       -3.70567
H         -1.87189        4.43298       -2.90191
H         -3.31199        4.33443       -3.39988
O         -0.17708       -4.86236       -3.21813
H          0.74383       -4.56158       -3.23840
H         -0.40814       -4.97206       -4.15276
O          4.20950        0.45357        3.30828
H          4.87885       -0.17403        3.61980
H          4.06135        0.19880        2.38518
O          6.05672       -1.52670       -2.89815
H          5.73936       -0.74358       -2.42385
H          5.77716       -1.37526       -3.81350
O         -6.24439       -1.55067       -2.84431
H         -6.38359       -1.23224       -1.93978
H         -6.56051       -0.82254       -3.40006
O          0.59661        3.55712       -3.07438
H          1.51752        3.85790       -3.09465
H          0.36555        3.44742       -4.00901
O         -2.95732       -3.50097       -3.82908
H         -3.08359       -2.59790       -4.15692
H         -3.21343       -4.05987       -4.57807
O         -2.11784        5.47659        2.83827
H         -1.26584        5.80155        3.16605
H         -1.96633        5.33626        1.89153
O          5.73877       -4.28501        1.45791
H          6.40623       -3.70617        1.85591
H          5.05813       -3.67316        1.13957
O          3.46566       -1.67879        0.72089
H          4.39905       -1.41921        0.73941
H          3.28141       -1.82306       -0.21942
O         -4.51544        0.89252        3.50747
H         -3.59453        1.19330        3.48720
H         -4.74650        0.78282        2.57284
O          2.92020       -5.09785        1.79364
H          2.91270       -4.46148        1.06292
H          2.86341       -4.54416        2.58684
O          5.50022        1.61404       -1.53834
H          5.67470        1.76275       -0.59686
H          6.37710        1.44714       -1.91542
O         -0.05207        5.30568       -0.59264
H          0.66652        5.49651        0.02878
H          0.40399        5.00120       -1.39155
O         -2.06250        1.05041        1.35120
H         -2.49438        1.76147        0.85438
H         -2.49771        0.24506        1.03346
O          6.38290        1.88454       -4.30544
H          6.55377        0.93075       -4.31250
H          5.41827        1.95003       -4.36986
O          3.33049        5.04886       -3.76159
H          3.05187        4.63053       -2.93315
H          2.93293        4.49395       -4.44932
O          0.68161        1.03292       -0.36172
H          1.07469        0.83727        0.50209
H          1.36759        0.77381       -0.99516
O          0.96352       -4.12776       -4.41489
H          1.92198       -4.01488       -4.50196
H          0.61377       -3.22742       -4.49239
O          2.72650       -2.61234        4.58282
H          3.68495       -2.49945        4.49575
H          2.37674       -1.71200        4.50532
O         -5.95412       -4.55600       -4.02723
H         -4.99567       -4.44311       -4.11430
H         -6.30388       -3.65566       -4.10473
O         -5.49360        3.14824       -4.49166
H         -4.53515        3.26113       -4.57872
H         -5.84335        4.04858       -4.56916
O         -4.99322        2.36412        2.72559
H         -4.03476        2.47700        2.63852
H         -5.34297        3.26446        2.64808
O         -3.08243       -3.31108       -1.29216
H         -2.22131       -3.68270       -1.04858
H         -2.92632       -2.90713       -2.15900
O         -4.33398       -2.19608        0.91891
H         -3.47287       -2.56770        1.16250
H         -4.17788       -1.79213        0.05207
O          5.31036       -3.34920        3.68453
H          5.83985       -2.58665        3.40683