      -----------------------------------------------------------
     |                   =====================                   |
     |                           x T B                           |
     |                   =====================                   |
     |                         S. Grimme                         |
     |          Mulliken Center for Theoretical Chemistry        |
     |                    University of Bonn                     |
      -----------------------------------------------------------

   * xtb version 6.7.1 (edcfbbe) compiled by 'albert@albert-system' on 2024-07-22

   xtb is free software: you can redistribute it and/or modify it under
   the terms of the GNU Lesser General Public License as published by
   the Free Software Foundation, either version 3 of the License, or
   (at your option) any later version.

   xtb is distributed in the hope that it will be useful,
   but WITHOUT ANY WARRANTY; without even the implied warranty of
   MERCHANTABILITY or FITNESS FOR A PARTICULAR PURPOSE.  See the
   GNU Lesser General Public License for more details.

   Cite this work as:
   * C. Bannwarth, E. Caldeweyher, S. Ehlert, A. Hansen, P. Pracht,
     J. Seibert, S. Spicher, S. Grimme, WIREs Comput. Mol. Sci., 2020, 11,
     e01493. DOI: 10.1002/wcms.1493

   for GFN2-xTB:
   * C. Bannwarth, S. Ehlert and S. Grimme., J. Chem. Theory Comput., 2019,
     15, 1652-1671. DOI: 10.1021/acs.jctc.8b01176
   for GFN1-xTB:
   * S. Grimme, C. Bannwarth, P. Shushkov, J. Chem. Theory Comput., 2017,
     13, 1989-2009. DOI: 10.1021/acs.jctc.7b00118
   for GFN0-xTB:
   * P. Pracht, E. Caldeweyher, S. Ehlert, S. Grimme, ChemRxiv, 2019, preprint.
     DOI: 10.26434/chemrxiv.8326202.v1
   for GFN-FF:
   * S. Spicher and S. Grimme, Angew. Chem. Int. Ed., 2020, 59, 15665-15673.
     DOI: 10.1002/anie.202004239

   for ALPB and GBSA implicit solvation:
   * S. Ehlert, M. Stahn, S. Spicher, S. Grimme, J. Chem. Theory Comput.,
     2021, 17, 4250-4261. DOI: 10.1021/acs.jctc.1c00471

   for ddCOSMO and CPCM-X implicit solvation:
   * M. Stahn, S. Ehlert, S. Grimme, J. Phys. Chem. A,
     2023, XX, XXXX-XXXX. DOI: 10.1021/acs.jpca.3c04382

   for DFT-D4:
   * E. Caldeweyher, C. Bannwarth and S. Grimme, J. Chem. Phys., 2017,
     147, 034112. DOI: 10.1063/1.4993215
   * E. Caldeweyher, S. Ehlert, A. Hansen, H. Neugebauer, S. Spicher,
     C. Bannwarth and S. Grimme, J. Chem. Phys., 2019, 150, 154122.
     DOI: 10.1063/1.5090222
   * E. Caldeweyher, J.-M. Mewes, S. Ehlert and S. Grimme, Phys. Chem. Chem. Phys.
     2020, 22, 8499-8512. DOI: 10.1039/D0CP00502A

   for sTDA-xTB:
   * S. Grimme and C. Bannwarth, J. Chem. Phys., 2016, 145, 054103.
     DOI: 10.1063/1.4959605

   in the mass-spec context:
   * V. Asgeirsson, C. Bauer and S. Grimme, Chem. Sci., 2017, 8, 4879.
     DOI: 10.1039/c7sc00601b
   * J. Koopman and S. Grimme, ACS Omega 2019, 4, 12, 15120-15133.
     DOI: 10.1021/acsomega.9b02011

   for metadynamics refer to:
   * S. Grimme, J. Chem. Theory Comput., 2019, 155, 2847-2862
     DOI: 10.1021/acs.jctc.9b00143

   for SPH calculations refer to:
   * S. Spicher and S. Grimme, J. Chem. Theory Comput., 2021, 17, 1701-1714
     DOI: 10.1021/acs.jctc.0c01306

   for ONIOM refer to:
   * C. Plett, A. Katbashev, S. Ehlert, S. Grimme, M. Bursch,
     Phys. Chem. Chem. Phys., 2023, 25, 17860-17868. DOI: 10.1039/D3CP02178E

   for DIPRO refer to:
   * J. Kohn, N. Gildemeister, S. Grimme, D. Fazzi, A. Hansen,
     J. Chem. Phys., 2023, just accepted.

   for PTB refer to:
   * S. Grimme, M. Mueller, A. Hansen, J. Chem. Phys., 2023, 158, 124111.
     DOI: 10.1063/5.0137838

   with help from (in alphabetical order)
   P. Atkinson, C. Bannwarth, F. Bohle, G. Brandenburg, E. Caldeweyher
   M. Checinski, S. Dohm, S. Ehlert, S. Ehrlich, I. Gerasimov, C. Hölzer
   A. Katbashev, J. Kohn, J. Koopman, C. Lavigne, S. Lehtola, F. März, M. Müller,
   F. Musil, H. Neugebauer, J. Pisarek, C. Plett, P. Pracht, F. Pultar,
   J. Seibert, P. Shushkov, S. Spicher, M. Stahn, M. Steiner, T. Strunk,
   J. Stückrath, T. Rose, and J. Unsleber

 * started run on 2025/06/26 at 20:14:34.611
   ID    Z sym.   atoms
    1    6 C      1-3, 6, 7, 9-11, 17-20, 25-30, 37-42, 49-51, 53, 55-57, 63,
                  65-68, 73-75, 78, 79, 81-83, 89-92, 97-102, 109-114,
                  121-123, 125, 127-129, 135, 137-140, 145-147, 150, 151,
                  153-155, 161-164, 169-174, 181-186, 193-195, 197, 199-201,
                  207, 209-212, 217-219, 222, 223, 225-227, 233-236, 241-246,
                  252-257, 264-266, 268, 270-272, 278, 280-283, 289, 292,
                  296, 300
    2    1 H      4, 5, 8, 12-16, 21-24, 31-36, 43-48, 52, 54, 58-62, 64,
                  69-72, 76, 77, 80, 84-88, 93-96, 103-108, 115-120, 124,
                  126, 130-134, 136, 141-144, 148, 149, 152, 156-160,
                  165-168, 175-180, 187-192, 196, 198, 202-206, 208, 213-216,
                  220, 221, 224, 228-232, 237-240, 247-251, 258-263, 267,
                  269, 273-277, 279, 284-287, 290, 291, 293-295, 297-299,
                  301-303, 305, 306, 308, 309, 311, 312, 314, 315, 317, 318,
                  320, 321, 323, 324, 326, 327, 329, 330, 332, 333, 335, 336,
                  338, 339, 341, 342, 344, 345, 347, 348, 350, 351, 353, 354,
                  356, 357, 359, 360, 362, 363, 365, 366, 368, 369, 371, 372,
                  374, 375, 377, 378, 380, 381, 383, 384, 386, 387, 389, 390,
                  392, 393, 395, 396, 398, 399, 401, 402, 404, 405, 407, 408,
                  410, 411, 413, 414, 416, 417, 419, 420, 422, 423, 425, 426,
                  428, 429, 431, 432, 434, 435, 437, 438, 440, 441, 443, 444,
                  446, 447, 449
    3    7 N      288
    4    8 O      304, 307, 310, 313, 316, 319, 322, 325, 328, 331, 334, 337,
                  340, 343, 346, 349, 352, 355, 358, 361, 364, 367, 370, 373,
                  376, 379, 382, 385, 388, 391, 394, 397, 400, 403, 406, 409,
                  412, 415, 418, 421, 424, 427, 430, 433, 436, 439, 442, 445,
                  448

           -------------------------------------------------
          |                Calculation Setup                |
           -------------------------------------------------

          program call               : xtb xtb.inp --mcgfnff --md
          hostname                   : chemist4
          coordinate file            : xtb.inp
          omp threads                :                    20


molecular fragmentation (1/2 indicates fragments):
111111111111111111111111111111111111111111111111111111111111111111111111
111111111111111111111111111111111111111111111111111111111111111111111111
222222222222222222222222222222222222222222222222222222222222222222222222
222222222222222222222222222222222222222222222222222222222222222222222222
222222222222222222222222222222222222222222222222222222222222222222222222
222222222222222222222222222222222222222222222222222222222222222222222222
22222222222222222
# atoms in fragment 1/2:   144   305
 fragment masses (1/2) :      937.34     1891.21
CMA distance (Bohr)    :  20.920
constraining FC (au)   :  0.0500
          GFN-FF topology read from file successfully!
           -------------------------------------------------
          |                   G F N - F F                   |
          |          A general generic force-field          |
          |                  Version 1.0.0                  |
           -------------------------------------------------
          Number of HB bonds (bound hydrogen)     203754
          Number of HB bonds (unbound hydrogen)   25386
          Number of XB bonds                      0

 E+G (total)                   0 d,  0 h,  0 min,  0.069 sec
 distance/D3 list               ...        0 min,  0.001 sec (  1.134%)
 non bonded repulsion           ...        0 min,  0.001 sec (  1.492%)
 dCN                            ...        0 min,  0.007 sec (  9.604%)
 EEQ energy and q               ...        0 min,  0.006 sec (  9.366%)
 D3                             ...        0 min,  0.010 sec ( 15.201%)
 EEQ gradient                   ...        0 min,  0.000 sec (  0.671%)
 bonds                          ...        0 min,  0.003 sec (  4.442%)
 bend and torsion               ...        0 min,  0.000 sec (  0.361%)
 bonded ATM                     ...        0 min,  0.003 sec (  3.965%)
 HB/XB (incl list setup)        ...        0 min,  0.037 sec ( 53.455%)

 -4.774574260749193E-002 -4.635007952798806E-002 -2.791040416367845E-002
  3.321891663913826E-002  2.967045816508226E-002 -3.146018078487652E-002
 -3.053140812534902E-002  3.040339318273244E-002 -3.400638440339489E-002
 -2.589384432685349E-002 -2.636018655938790E-002  2.894843259945823E-002
  2.695275346374271E-002  8.047816649652262E-003  2.828911120860741E-002
 -2.800285879764552E-003 -2.634546404986260E-002 -2.866464819828961E-002
 -3.005038533258735E-002 -3.159912259552888E-002 -5.022396747763946E-003
  1.436910288764634E-002  2.872782617767430E-002  2.828679517185614E-002
 -2.717932937629519E-002 -2.803813248391959E-002 -4.986483739716463E-002
 -4.941611078496116E-002 -4.729501171431780E-002 -4.314765057816544E-002
  2.962378453904230E-002  1.562012479597749E-002  2.794954969713803E-002
  3.814343465860431E-002  2.876438989541108E-002  6.210883396752032E-002
 -4.760444076007270E-002 -2.720542979552429E-002 -2.308471178456936E-002
 -3.212583214696517E-002 -3.152216496003581E-002 -3.263931401339179E-002
  2.429581570154726E-002 -1.363250430781948E-002  3.228452851807129E-002
  2.892626263559211E-002  2.924833429111925E-002  3.123605390939707E-002
 -4.881891175462263E-002 -3.029851700216277E-002 -4.938498842930192E-002
  2.993843313280897E-002 -2.813902326023008E-002  5.454042538999146E-002
 -2.892243122219906E-002 -3.212807684541369E-002 -2.464977205190109E-002
  2.689293523874450E-002  2.846456917308637E-002  7.085494288477545E-003
  2.761449463494686E-002  1.692239896220160E-002 -3.014031582386031E-002
  8.488705111073525E-003 -5.208094381147699E-002 -4.110187803469545E-002
 -4.880128658590654E-002 -4.877729074225240E-002  2.716070923608405E-002
  8.127474729407114E-003  2.789573610716400E-002  6.990375926729420E-002
 -4.501762161967188E-002 -0.267124944561533       1.823693976613369E-002
  0.121429496899703       3.513126760053145E-002 -4.139980860333403E-002
 -2.483138127430398E-002  3.692800678863806E-002 -3.302237864586560E-002
 -2.604590952280286E-002 -2.701252714293359E-002  3.002571416118488E-002
  3.348951453028376E-002  1.369320940851532E-002  2.859759348101915E-002
  2.992847964032597E-003 -2.505428155466601E-002 -4.568126222642926E-002
 -3.353493799871343E-002 -3.121035978862929E-002 -2.269461972232512E-002
  1.780502105912962E-003  2.813717853608422E-002  2.905497887287051E-002
 -2.921694441347689E-002 -3.025345923935902E-002 -4.807305927916622E-002
 -2.987240729459512E-002 -3.476170572050238E-002 -2.388248622926592E-002
  2.673232339540027E-002  2.253787015030723E-002  2.810826727043270E-002
  5.478385047411283E-002  2.818774940168423E-002  4.755550637208072E-002
 -3.016114789850560E-002 -3.490140642852615E-002 -2.606700694659639E-002
 -3.704889567697479E-002 -2.136218609534823E-002 -4.988448294757866E-002
  1.654322972487554E-002 -3.073841976923142E-002 -3.979197884458996E-002
  2.910451485757598E-002  3.009727146486207E-002  3.391206427818327E-002
 -0.266593613857523       1.752387406295544E-002 -4.317519427163197E-002
  0.115353175242711      -2.631846269861249E-002  5.025833406274594E-002
 -2.693158117307667E-002 -3.605179347631650E-002 -2.428160924077487E-002
  2.978334260573956E-002  3.203593248218672E-002  7.544331723748521E-003
  2.747948578695664E-002 -1.924241014711903E-002 -4.696585306257817E-002
  6.754106366928769E-002 -4.910262505805374E-002 -2.645607403110201E-002
 -2.657082007396477E-002 -3.410552654791427E-002  2.931175149661214E-002
  1.567731876890155E-002  2.666160442969967E-002 -2.920034380861991E-002
 -4.282162745779228E-002 -4.205565551191162E-002 -2.606173196499424E-002
  3.610068475195582E-002  4.071589501824172E-002 -2.970688236239908E-002
 -2.943754264190736E-002  4.775300415177899E-002 -2.929021602880433E-002
 -2.897094385211869E-002 -2.609594274615444E-002  4.713589818697925E-002
  3.619467321231384E-002  3.033921588728561E-002  2.852799444205319E-002
  3.105018918030872E-002 -3.064667113542900E-002 -2.878319484425770E-002
 -2.968283749914212E-002 -3.068986865208174E-002  3.023107563253156E-002
  2.850551254389797E-002  5.829926631287474E-002  3.945257501046015E-002
 -2.075503970106621E-002 -3.186777968802453E-002 -4.214039466218467E-002
 -4.694654385215548E-002 -4.225342266018121E-002 -4.386309214224801E-002
  8.195766112846681E-002  3.092179660458885E-002  7.402402039194195E-002
  3.639058738740519E-002  4.855607593397737E-002  3.692079696170003E-002
 -4.247342392726886E-002 -3.121995197885190E-002 -2.744341482736917E-002
 -3.192096608972199E-002 -2.984718665723263E-002 -3.153038870791829E-002
  3.541169894678059E-002  2.952989076638945E-002  2.892389996812497E-002
  6.439053672141096E-002  4.115041175772421E-002  4.341290699948981E-002
 -4.781181353463219E-002 -2.601559956271544E-002 -4.899794867140592E-002
  2.418265582726026E-002 -2.972146670885592E-002  3.147245869012663E-002
 -2.983750696936306E-002 -3.021301466993486E-002 -2.460035312709891E-002
  2.942000024822139E-002  4.135638417531018E-002  3.203908318978027E-002
  4.481428595684631E-002  3.143205153919248E-002 -3.181312458788248E-002
  3.091609573974619E-002 -4.680136807187305E-002 -2.642249766044646E-002
 -4.427375436588868E-002 -4.546594258067060E-002  4.137073981221090E-002
  3.538403178044192E-002  4.646288795119691E-002  3.283551733521228E-002
 -3.244613410550404E-002 -0.253844412199263       1.649328053336538E-002
  0.132478815440551       0.111687015638794      -3.949261386696953E-002
 -1.926055437335718E-002  0.121720248769533      -3.578803667855193E-002
 -2.392095104072055E-002 -2.946013546690555E-002  9.437709601947966E-002
  4.091259667554548E-002  3.616857607317947E-002  0.104895213376868
  3.076157916017042E-002 -2.675787748161264E-002 -3.829349503110727E-002
 -2.915166013908251E-002 -3.038652036451158E-002  3.076108867114283E-002
  3.957949585258858E-002  4.857494308587577E-002  6.182065049030888E-002
 -2.855698937709687E-002 -3.813038134601239E-002 -3.768215045036849E-002
 -1.064000296536079E-002 -2.816771582402405E-002 -2.720074886762916E-002
  3.036108772982146E-002  9.845784239975650E-002  3.245150463827895E-002
  6.039620796664896E-002  3.768750461816273E-002 -2.687273147948396E-002
 -4.313722847205717E-002 -2.823873141673051E-002 -3.233215577552478E-002
 -2.634082232164420E-002 -4.553885361432086E-002  3.064339635064867E-002
  2.988340594660077E-002  3.181710579732044E-002  0.103607001844579
  4.890866671685848E-002  5.252391166409992E-002 -0.267852976009249
  2.097067072023520E-002 -4.546023088269815E-002  0.128893697829737
 -2.810572078724999E-002  4.174921414895716E-002 -2.980396167927497E-002
 -3.098295377454776E-002 -2.740715999207501E-002  4.926003097435017E-002
  4.342365550682808E-002  3.317773993300505E-002  3.837955752295791E-002
  3.228372452975925E-002 -3.901875177528347E-002  4.316556272178573E-002
 -4.580834619479240E-002 -2.873194954256386E-002 -2.743571597000855E-002
 -2.945533538268041E-002  1.099662167256088E-002  3.344147953120513E-002
  2.552310270028857E-002  3.203268909535495E-002 -0.126752131417940
 -4.649924972615302E-002  5.575151789701838E-002  9.105515406775350E-002
 -3.127190000881391E-002  0.113956470693251       6.136197415827749E-002
  6.641939301061572E-002 -5.487123183259666E-002  6.031132591974198E-002
  5.141852747148612E-002  2.748560342061668E-002 -5.903561481818681E-002
  8.095399552653260E-002  4.891929241142179E-002  3.313154548579966E-002
 -0.631027518871023       0.306149295913415       0.324878222957608
 -0.647427649323298       0.314728306521994       0.332699342801303
 -0.620510984845862       0.325620565523915       0.294890419321947
 -0.637969840927009       0.343351236802853       0.294618604124156
 -0.606708043069379       0.311619338802258       0.295088704267121
 -0.582955032039832       0.295202772087609       0.287752259952223
 -0.516713544293084       0.237517631136652       0.279195913156432
 -0.674918725770176       0.364274801794789       0.310643923975387
 -0.587963955681541       0.309286209655884       0.278677746025657
 -0.608971563729027       0.302739400503243       0.306232163225785
 -0.652056069819007       0.309760694831066       0.342295374987941
 -0.642902278452876       0.330395594358829       0.312506684094048
 -0.605433321936343       0.291689524253702       0.313743797682641
 -0.618352903671844       0.323905611463922       0.294447292207921
 -0.620162844941828       0.303139150581165       0.317023694360664
 -0.617785120685332       0.319251106353484       0.298534014331849
 -0.619581956986941       0.317306077349014       0.302275879637927
 -0.636516701169104       0.332050108032409       0.304466593136695
 -0.645177521880606       0.322046804694421       0.323130717186184
 -0.623994375594877       0.330461225439771       0.293533150155105
 -0.597179573669332       0.310387193121126       0.286792380548206
 -0.626916825322031       0.308585380383982       0.318331444938048
 -0.633698437826092       0.271247374605678       0.362451063220414
 -0.632376551461493       0.314023461614838       0.318353089846655
 -0.576542196351995       0.387120203866599       0.320837912836290
 -0.632142604940740       0.332623838274006       0.299518766666733
 -0.601145596835549       0.292782526954301       0.308363069881249
 -0.616850325616769       0.309008479051528       0.307841846565242
 -0.620979592789499       0.298780765193111       0.322198827596387
 -0.616014790672348       0.300715381606567       0.315299409065781
 -0.596488296155108       0.307753479424833       0.288734816730275
 -0.611511707974940       0.344383375843816       0.267128332131124
 -0.602150071812819       0.305713075609745       0.296436996203074
 -0.521383368935764       0.231175382650171       0.291220049863487
 -0.639526156488611       0.321614705947251       0.317911450541361
 -0.682497038567113       0.331951982587133       0.350545055979978
 -0.625688518451525       0.284042188113379       0.341646330338147
 -0.616299225023220       0.296776924036469       0.319522300986751
 -0.593530783929837       0.311232494504194       0.282298289425644
 -0.588184456529126       0.283359578692098       0.304824877837028
 -0.571664301459841       0.257264663477683       0.314399637982158
 -0.604100849820372       0.252604807362715       0.220080122106764
 -0.666939693488701       0.423013551473999       0.243926142014702
 -0.621806151577690       0.304256056995562       0.317550094582129
 -0.636862230504033       0.338649648330931       0.298212582173102
 -0.539064880839342       0.258728051841331       0.279324765420115
 -0.665894406481537       0.347348592656783       0.318545813824754
 -0.652310675921412       0.336107303098560       0.316203372822852
 -0.931127532171543      -6.887246782845724E-002
 -0.999999999999983                0
########################################################################
[ERROR] Program stopped due to fatal error
-3- Single point calculation terminated
-2- gfnff_calculator_singlepoint: Force-field method terminated
-1- gfnff_eg: EEQ charge constrain error
########################################################################