#
Geometry = GenFormat {
335  S
C  H  O N
    1  1   -0.1945939000E+01   -0.5894446000E+01    0.1611900000E+00
    2  1    0.5925710000E+00   -0.5907366000E+01    0.2153300000E+00
    3  1   -0.6628290000E+00   -0.5159276000E+01   -0.2949700000E+00
    4  2    0.5695610000E+00   -0.5928406000E+01    0.1330360000E+01
    5  2    0.6449310000E+00   -0.2945866000E+01   -0.1339730000E+01
    6  1    0.6177710000E+00   -0.2967476000E+01   -0.2247600000E+00
    7  1   -0.6673890000E+00   -0.3702516000E+01    0.2268900000E+00
    8  2   -0.6380790000E+00   -0.5139816000E+01   -0.1410010000E+01
    9  1   -0.1919729000E+01   -0.2954056000E+01   -0.2894200000E+00
   10  1   -0.3206859000E+01   -0.3686106000E+01    0.1629500000E+00
   11  1   -0.3201949000E+01   -0.5149236000E+01   -0.3530700000E+00
   12  2   -0.3174599000E+01   -0.5133446000E+01   -0.1468120000E+01
   13  2   -0.1971009000E+01   -0.5912066000E+01    0.1276160000E+01
   14  2   -0.6948790000E+00   -0.3722016000E+01    0.1341820000E+01
   15  2   -0.1891129000E+01   -0.2936076000E+01   -0.1404330000E+01
   16  2   -0.3234009000E+01   -0.3701986000E+01    0.1277980000E+01
   17  1   -0.1921799000E+01   -0.1496946000E+01    0.2318400000E+00
   18  1    0.6144410000E+00   -0.1511706000E+01    0.3006400000E+00
   19  1   -0.6344490000E+00   -0.7622660000E+00   -0.2167100000E+00
   20  1   -0.3168559000E+01   -0.7464960000E+00   -0.2894300000E+00
   21  2   -0.1953559000E+01   -0.1515136000E+01    0.1346680000E+01
   22  2   -0.3134549000E+01   -0.7298260000E+00   -0.1404530000E+01
   23  2   -0.6031190000E+00   -0.7426960000E+00   -0.1331770000E+01
   24  1   -0.4464079000E+01   -0.1473776000E+01    0.1566100000E+00
   25  1   -0.4462889000E+01   -0.2936476000E+01   -0.3533500000E+00
   26  1   -0.4489499000E+01   -0.5885506000E+01    0.1010000000E+00
   27  1   -0.5692039000E+01   -0.7025160000E+00   -0.3652600000E+00
   28  1   -0.5732029000E+01   -0.3682806000E+01    0.9920000000E-01
   29  1   -0.5726959000E+01   -0.5126136000E+01   -0.4134700000E+00
   30  2   -0.5705539000E+01   -0.7014160000E+00   -0.1477420000E+01
   31  2   -0.4505749000E+01   -0.1486066000E+01    0.1270120000E+01
   32  2   -0.4442829000E+01   -0.2924056000E+01   -0.1467470000E+01
   33  2   -0.5807849000E+01   -0.3684246000E+01    0.1208780000E+01
   34  2   -0.5748029000E+01   -0.5124266000E+01   -0.1525420000E+01
   35  2   -0.4524269000E+01   -0.5897596000E+01    0.1214700000E+01
   36  1   -0.5684339000E+01    0.7426340000E+00    0.1453000000E+00
   37  1   -0.4402519000E+01    0.1462924000E+01   -0.2862400000E+00
   38  1   -0.3164399000E+01    0.7144640000E+00    0.2293400000E+00
   39  1   -0.1880409000E+01    0.1439144000E+01   -0.2097500000E+00
   40  1   -0.6369390000E+00    0.6961840000E+00    0.3054500000E+00
   41  1    0.6467610000E+00    0.1424964000E+01   -0.1317500000E+00
   42  2   -0.5765799000E+01    0.7501540000E+00    0.1253500000E+01
   43  2   -0.3198479000E+01    0.7101940000E+00    0.1342290000E+01
   44  2   -0.6703690000E+00    0.6893140000E+00    0.1418320000E+01
   45  2   -0.4378929000E+01    0.1533674000E+01   -0.1396150000E+01
   46  2   -0.1846219000E+01    0.1507934000E+01   -0.1320570000E+01
   47  2    0.6799710000E+00    0.1497634000E+01   -0.1242290000E+01
   48  1    0.5975910000E+00    0.5894564000E+01   -0.3092400000E+00
   49  1   -0.6814190000E+00    0.5158594000E+01    0.1504000000E+00
   50  1   -0.1938259000E+01    0.5906194000E+01   -0.3593400000E+00
   51  2    0.6181710000E+00    0.5915434000E+01   -0.1424370000E+01
   52  1   -0.6746090000E+00    0.3699634000E+01   -0.3704000000E+00
   53  2   -0.7024990000E+00    0.5139954000E+01    0.1265640000E+01
   54  1   -0.1948849000E+01    0.2970264000E+01    0.8520000000E-01
   55  1   -0.3202309000E+01    0.3707774000E+01   -0.4164500000E+00
   56  1   -0.3216569000E+01    0.5169164000E+01    0.1009000000E+00
   57  2   -0.6556390000E+00    0.3705554000E+01   -0.1483650000E+01
   58  2   -0.1916259000E+01    0.5923914000E+01   -0.1474450000E+01
   59  2   -0.3237179000E+01    0.5153084000E+01    0.1216340000E+01
   60  2   -0.3181859000E+01    0.3711374000E+01   -0.1529770000E+01
   61  2   -0.1968959000E+01    0.2902554000E+01    0.1196410000E+01
   62  1    0.5798310000E+00    0.2958324000E+01    0.1267000000E+00
   63  2    0.5621510000E+00    0.2887494000E+01    0.1237660000E+01
   64  1   -0.4480979000E+01    0.5909594000E+01   -0.4083600000E+00
   65  1   -0.4471989000E+01    0.2972714000E+01    0.3780000000E-01
   66  1   -0.5741139000E+01    0.5151514000E+01    0.5247000000E-01
   67  1   -0.5723349000E+01    0.3705974000E+01   -0.4567400000E+00
   68  2   -0.4467759000E+01    0.5921594000E+01   -0.1522610000E+01
   69  2   -0.5809469000E+01    0.5151374000E+01    0.1162580000E+01
   70  2   -0.5750099000E+01    0.3698414000E+01   -0.1567620000E+01
   71  2   -0.4503819000E+01    0.2902704000E+01    0.1147560000E+01
   72  1    0.5631581000E+01   -0.5894446000E+01    0.1611900000E+00
   73  1    0.8170091000E+01   -0.5907366000E+01    0.2153300000E+00
   74  1    0.6914691000E+01   -0.5159276000E+01   -0.2949700000E+00
   75  2    0.8147081000E+01   -0.5928406000E+01    0.1330360000E+01
   76  2    0.8222451000E+01   -0.2945866000E+01   -0.1339730000E+01
   77  1    0.8195291000E+01   -0.2967476000E+01   -0.2247600000E+00
   78  1    0.6910131000E+01   -0.3702516000E+01    0.2268900000E+00
   79  2    0.6939441000E+01   -0.5139816000E+01   -0.1410010000E+01
   80  1    0.5657791000E+01   -0.2954056000E+01   -0.2894200000E+00
   81  1    0.4370661000E+01   -0.3686106000E+01    0.1629500000E+00
   82  1    0.4375571000E+01   -0.5149236000E+01   -0.3530700000E+00
   83  2    0.4402921000E+01   -0.5133446000E+01   -0.1468120000E+01
   84  2    0.5606511000E+01   -0.5912066000E+01    0.1276160000E+01
   85  2    0.6882641000E+01   -0.3722016000E+01    0.1341820000E+01
   86  2    0.5686391000E+01   -0.2936076000E+01   -0.1404330000E+01
   87  2    0.4343511000E+01   -0.3701986000E+01    0.1277980000E+01
   88  1    0.5655721000E+01   -0.1496946000E+01    0.2318400000E+00
   89  1    0.8191961000E+01   -0.1511706000E+01    0.3006400000E+00
   90  1    0.6943071000E+01   -0.7622660000E+00   -0.2167100000E+00
   91  1    0.4408961000E+01   -0.7464960000E+00   -0.2894300000E+00
   92  2    0.5623961000E+01   -0.1515136000E+01    0.1346680000E+01
   93  2    0.8162271000E+01   -0.1533176000E+01    0.1415510000E+01
   94  2    0.4442971000E+01   -0.7298260000E+00   -0.1404530000E+01
   95  2    0.6974401000E+01   -0.7426960000E+00   -0.1331770000E+01
   96  1    0.3113441000E+01   -0.1473776000E+01    0.1566100000E+00
   97  1    0.3114631000E+01   -0.2936476000E+01   -0.3533500000E+00
   98  1    0.3088021000E+01   -0.5885506000E+01    0.1010000000E+00
   99  1    0.1885481000E+01   -0.7025160000E+00   -0.3652600000E+00
  100  1    0.1845491000E+01   -0.3682806000E+01    0.9920000000E-01
  101  1    0.1850561000E+01   -0.5126136000E+01   -0.4134700000E+00
  102  2    0.1871981000E+01   -0.7014160000E+00   -0.1477420000E+01
  103  2    0.3071771000E+01   -0.1486066000E+01    0.1270120000E+01
  104  2    0.3134691000E+01   -0.2924056000E+01   -0.1467470000E+01
  105  2    0.1769671000E+01   -0.3684246000E+01    0.1208780000E+01
  106  2    0.1829491000E+01   -0.5124266000E+01   -0.1525420000E+01
  107  2    0.3053251000E+01   -0.5897596000E+01    0.1214700000E+01
  108  1    0.1893181000E+01    0.7426340000E+00    0.1453000000E+00
  109  1    0.3175001000E+01    0.1462924000E+01   -0.2862400000E+00
  110  1    0.4413121000E+01    0.7144640000E+00    0.2293400000E+00
  111  1    0.5697111000E+01    0.1439144000E+01   -0.2097500000E+00
  112  1    0.6940581000E+01    0.6961840000E+00    0.3054500000E+00
  113  1    0.8224281000E+01    0.1424964000E+01   -0.1317500000E+00
  114  2    0.1811721000E+01    0.7501540000E+00    0.1253500000E+01
  115  2    0.4379041000E+01    0.7101940000E+00    0.1342290000E+01
  116  2    0.6907151000E+01    0.6893140000E+00    0.1418320000E+01
  117  2    0.3198591000E+01    0.1533674000E+01   -0.1396150000E+01
  118  2    0.5731301000E+01    0.1507934000E+01   -0.1320570000E+01
  119  2    0.8257491000E+01    0.1497634000E+01   -0.1242290000E+01
  120  1    0.8175111000E+01    0.5894564000E+01   -0.3092400000E+00
  121  1    0.6896101000E+01    0.5158594000E+01    0.1504000000E+00
  122  1    0.5639261000E+01    0.5906194000E+01   -0.3593400000E+00
  123  2    0.8195691000E+01    0.5915434000E+01   -0.1424370000E+01
  124  1    0.6902911000E+01    0.3699634000E+01   -0.3704000000E+00
  125  2    0.6875021000E+01    0.5139954000E+01    0.1265640000E+01
  126  1    0.5628671000E+01    0.2970264000E+01    0.8520000000E-01
  127  1    0.4375211000E+01    0.3707774000E+01   -0.4164500000E+00
  128  1    0.4360951000E+01    0.5169164000E+01    0.1009000000E+00
  129  2    0.6921881000E+01    0.3705554000E+01   -0.1483650000E+01
  130  2    0.5661261000E+01    0.5923914000E+01   -0.1474450000E+01
  131  2    0.4340341000E+01    0.5153084000E+01    0.1216340000E+01
  132  2    0.4395661000E+01    0.3711374000E+01   -0.1529770000E+01
  133  2    0.5608561000E+01    0.2902554000E+01    0.1196410000E+01
  134  1    0.8157351000E+01    0.2958324000E+01    0.1267000000E+00
  135  2    0.8139671000E+01    0.2887494000E+01    0.1237660000E+01
  136  1    0.3096541000E+01    0.5909594000E+01   -0.4083600000E+00
  137  1    0.3105531000E+01    0.2972714000E+01    0.3780000000E-01
  138  1    0.1836381000E+01    0.5151514000E+01    0.5247000000E-01
  139  1    0.1854171000E+01    0.3705974000E+01   -0.4567400000E+00
  140  2    0.3109761000E+01    0.5921594000E+01   -0.1522610000E+01
  141  2    0.1768051000E+01    0.5151374000E+01    0.1162580000E+01
  142  2    0.1827421000E+01    0.3698414000E+01   -0.1567620000E+01
  143  2    0.3073701000E+01    0.2902704000E+01    0.1147560000E+01
  144  1   -0.1945939000E+01   -0.5894446000E+01    0.1016119000E+02
  145  1    0.5925710000E+00   -0.5907366000E+01    0.1021533000E+02
  146  1   -0.6628290000E+00   -0.5159276000E+01    0.9705030000E+01
  147  2    0.5695610000E+00   -0.5928406000E+01    0.1133036000E+02
  148  2    0.6449310000E+00   -0.2945866000E+01    0.8660270000E+01
  149  1    0.6177710000E+00   -0.2967476000E+01    0.9775240000E+01
  150  1   -0.6673890000E+00   -0.3702516000E+01    0.1022689000E+02
  151  2   -0.6380790000E+00   -0.5139816000E+01    0.8589990000E+01
  152  1   -0.1919729000E+01   -0.2954056000E+01    0.9710580000E+01
  153  1   -0.3206859000E+01   -0.3686106000E+01    0.1016295000E+02
  154  1   -0.3201949000E+01   -0.5149236000E+01    0.9646930000E+01
  155  2   -0.3174599000E+01   -0.5133446000E+01    0.8531880000E+01
  156  2   -0.1971009000E+01   -0.5912066000E+01    0.1127616000E+02
  157  2   -0.6948790000E+00   -0.3722016000E+01    0.1134182000E+02
  158  2   -0.1891129000E+01   -0.2936076000E+01    0.8595670000E+01
  159  2   -0.3234009000E+01   -0.3701986000E+01    0.1127798000E+02
  160  1   -0.1921799000E+01   -0.1496946000E+01    0.1023184000E+02
  161  1    0.6144410000E+00   -0.1511706000E+01    0.1030064000E+02
  162  1   -0.6344490000E+00   -0.7622660000E+00    0.9783290000E+01
  163  1   -0.3168559000E+01   -0.7464960000E+00    0.9710570000E+01
  164  2   -0.1953559000E+01   -0.1515136000E+01    0.1134668000E+02
  165  2    0.5847510000E+00   -0.1533176000E+01    0.1141551000E+02
  166  2   -0.3134549000E+01   -0.7298260000E+00    0.8595470000E+01
  167  2   -0.6031190000E+00   -0.7426960000E+00    0.8668230000E+01
  168  1   -0.4464079000E+01   -0.1473776000E+01    0.1015661000E+02
  169  1   -0.4462889000E+01   -0.2936476000E+01    0.9646650000E+01
  170  1   -0.4489499000E+01   -0.5885506000E+01    0.1010100000E+02
  171  1   -0.5692039000E+01   -0.7025160000E+00    0.9634740000E+01
  172  1   -0.5732029000E+01   -0.3682806000E+01    0.1009920000E+02
  173  1   -0.5726959000E+01   -0.5126136000E+01    0.9586530000E+01
  174  2   -0.5705539000E+01   -0.7014160000E+00    0.8522580000E+01
  175  2   -0.4505749000E+01   -0.1486066000E+01    0.1127012000E+02
  176  2   -0.4442829000E+01   -0.2924056000E+01    0.8532530000E+01
  177  2   -0.5807849000E+01   -0.3684246000E+01    0.1120878000E+02
  178  2   -0.5748029000E+01   -0.5124266000E+01    0.8474580000E+01
  179  2   -0.4524269000E+01   -0.5897596000E+01    0.1121470000E+02
  180  1   -0.5684339000E+01    0.7426340000E+00    0.1014530000E+02
  181  1   -0.4402519000E+01    0.1462924000E+01    0.9713760000E+01
  182  1   -0.3164399000E+01    0.7144640000E+00    0.1022934000E+02
  183  1   -0.1880409000E+01    0.1439144000E+01    0.9790250000E+01
  184  1   -0.6369390000E+00    0.6961840000E+00    0.1030545000E+02
  185  1    0.6467610000E+00    0.1424964000E+01    0.9868250000E+01
  186  2   -0.5765799000E+01    0.7501540000E+00    0.1125350000E+02
  187  2   -0.3198479000E+01    0.7101940000E+00    0.1134229000E+02
  188  2   -0.6703690000E+00    0.6893140000E+00    0.1141832000E+02
  189  2   -0.4378929000E+01    0.1533674000E+01    0.8603850000E+01
  190  2   -0.1846219000E+01    0.1507934000E+01    0.8679430000E+01
  191  2    0.6799710000E+00    0.1497634000E+01    0.8757710000E+01
  192  1    0.5975910000E+00    0.5894564000E+01    0.9690760000E+01
  193  1   -0.6814190000E+00    0.5158594000E+01    0.1015040000E+02
  194  1   -0.1938259000E+01    0.5906194000E+01    0.9640660000E+01
  195  2    0.6181710000E+00    0.5915434000E+01    0.8575630000E+01
  196  1   -0.6746090000E+00    0.3699634000E+01    0.9629600000E+01
  197  2   -0.7024990000E+00    0.5139954000E+01    0.1126564000E+02
  198  1   -0.1948849000E+01    0.2970264000E+01    0.1008520000E+02
  199  1   -0.3202309000E+01    0.3707774000E+01    0.9583550000E+01
  200  1   -0.3216569000E+01    0.5169164000E+01    0.1010090000E+02
  201  2   -0.6556390000E+00    0.3705554000E+01    0.8516350000E+01
  202  2   -0.1916259000E+01    0.5923914000E+01    0.8525550000E+01
  203  2   -0.3237179000E+01    0.5153084000E+01    0.1121634000E+02
  204  2   -0.3181859000E+01    0.3711374000E+01    0.8470230000E+01
  205  2   -0.1968959000E+01    0.2902554000E+01    0.1119641000E+02
  206  1    0.5798310000E+00    0.2958324000E+01    0.1012670000E+02
  207  2    0.5621510000E+00    0.2887494000E+01    0.1123766000E+02
  208  1   -0.4480979000E+01    0.5909594000E+01    0.9591640000E+01
  209  1   -0.4471989000E+01    0.2972714000E+01    0.1003780000E+02
  210  1   -0.5741139000E+01    0.5151514000E+01    0.1005247000E+02
  211  1   -0.5723349000E+01    0.3705974000E+01    0.9543260000E+01
  212  2   -0.4467759000E+01    0.5921594000E+01    0.8477390000E+01
  213  2   -0.5809469000E+01    0.5151374000E+01    0.1116258000E+02
  214  2   -0.5750099000E+01    0.3698414000E+01    0.8432380000E+01
  215  2   -0.4503819000E+01    0.2902704000E+01    0.1114756000E+02
  216  1    0.5631581000E+01   -0.5894446000E+01    0.1016119000E+02
  217  1    0.8170091000E+01   -0.5907366000E+01    0.1021533000E+02
  218  1    0.6914691000E+01   -0.5159276000E+01    0.9705030000E+01
  219  2    0.8147081000E+01   -0.5928406000E+01    0.1133036000E+02
  220  2    0.8222451000E+01   -0.2945866000E+01    0.8660270000E+01
  221  1    0.8195291000E+01   -0.2967476000E+01    0.9775240000E+01
  222  1    0.6910131000E+01   -0.3702516000E+01    0.1022689000E+02
  223  2    0.6939441000E+01   -0.5139816000E+01    0.8589990000E+01
  224  1    0.5657791000E+01   -0.2954056000E+01    0.9710580000E+01
  225  1    0.4370661000E+01   -0.3686106000E+01    0.1016295000E+02
  226  1    0.4375571000E+01   -0.5149236000E+01    0.9646930000E+01
  227  2    0.4402921000E+01   -0.5133446000E+01    0.8531880000E+01
  228  2    0.5606511000E+01   -0.5912066000E+01    0.1127616000E+02
  229  2    0.6882641000E+01   -0.3722016000E+01    0.1134182000E+02
  230  2    0.5686391000E+01   -0.2936076000E+01    0.8595670000E+01
  231  2    0.4343511000E+01   -0.3701986000E+01    0.1127798000E+02
  232  1    0.5655721000E+01   -0.1496946000E+01    0.1023184000E+02
  233  1    0.8191961000E+01   -0.1511706000E+01    0.1030064000E+02
  234  1    0.6943071000E+01   -0.7622660000E+00    0.9783290000E+01
  235  1    0.4408961000E+01   -0.7464960000E+00    0.9710570000E+01
  236  2    0.5623961000E+01   -0.1515136000E+01    0.1134668000E+02
  237  2    0.8162271000E+01   -0.1533176000E+01    0.1141551000E+02
  238  2    0.4442971000E+01   -0.7298260000E+00    0.8595470000E+01
  239  2    0.6974401000E+01   -0.7426960000E+00    0.8668230000E+01
  240  1    0.3113441000E+01   -0.1473776000E+01    0.1015661000E+02
  241  1    0.3114631000E+01   -0.2936476000E+01    0.9646650000E+01
  242  1    0.3088021000E+01   -0.5885506000E+01    0.1010100000E+02
  243  1    0.1885481000E+01   -0.7025160000E+00    0.9634740000E+01
  244  1    0.1845491000E+01   -0.3682806000E+01    0.1009920000E+02
  245  1    0.1850561000E+01   -0.5126136000E+01    0.9586530000E+01
  246  2    0.1871981000E+01   -0.7014160000E+00    0.8522580000E+01
  247  2    0.3071771000E+01   -0.1486066000E+01    0.1127012000E+02
  248  2    0.3134691000E+01   -0.2924056000E+01    0.8532530000E+01
  249  2    0.1769671000E+01   -0.3684246000E+01    0.1120878000E+02
  250  2    0.1829491000E+01   -0.5124266000E+01    0.8474580000E+01
  251  2    0.3053251000E+01   -0.5897596000E+01    0.1121470000E+02
  252  1    0.1893181000E+01    0.7426340000E+00    0.1014530000E+02
  253  1    0.3175001000E+01    0.1462924000E+01    0.9713760000E+01
  254  1    0.4413121000E+01    0.7144640000E+00    0.1022934000E+02
  255  1    0.5697111000E+01    0.1439144000E+01    0.9790250000E+01
  256  1    0.6940581000E+01    0.6961840000E+00    0.1030545000E+02
  257  1    0.8224281000E+01    0.1424964000E+01    0.9868250000E+01
  258  2    0.1811721000E+01    0.7501540000E+00    0.1125350000E+02
  259  2    0.4379041000E+01    0.7101940000E+00    0.1134229000E+02
  260  2    0.6907151000E+01    0.6893140000E+00    0.1141832000E+02
  261  2    0.3198591000E+01    0.1533674000E+01    0.8603850000E+01
  262  2    0.5731301000E+01    0.1507934000E+01    0.8679430000E+01
  263  2    0.8257491000E+01    0.1497634000E+01    0.8757710000E+01
  264  1    0.8175111000E+01    0.5894564000E+01    0.9690760000E+01
  265  1    0.6896101000E+01    0.5158594000E+01    0.1015040000E+02
  266  1    0.5639261000E+01    0.5906194000E+01    0.9640660000E+01
  267  2    0.8195691000E+01    0.5915434000E+01    0.8575630000E+01
  268  1    0.6902911000E+01    0.3699634000E+01    0.9629600000E+01
  269  2    0.6875021000E+01    0.5139954000E+01    0.1126564000E+02
  270  1    0.5628671000E+01    0.2970264000E+01    0.1008520000E+02
  271  1    0.4375211000E+01    0.3707774000E+01    0.9583550000E+01
  272  1    0.4360951000E+01    0.5169164000E+01    0.1010090000E+02
  273  2    0.6921881000E+01    0.3705554000E+01    0.8516350000E+01
  274  2    0.5661261000E+01    0.5923914000E+01    0.8525550000E+01
  275  2    0.4340341000E+01    0.5153084000E+01    0.1121634000E+02
  276  2    0.4395661000E+01    0.3711374000E+01    0.8470230000E+01
  277  2    0.5608561000E+01    0.2902554000E+01    0.1119641000E+02
  278  1    0.8157351000E+01    0.2958324000E+01    0.1012670000E+02
  279  2    0.8139671000E+01    0.2887494000E+01    0.1123766000E+02
  280  1    0.3096541000E+01    0.5909594000E+01    0.9591640000E+01
  281  1    0.3105531000E+01    0.2972714000E+01    0.1003780000E+02
  282  1    0.1836381000E+01    0.5151514000E+01    0.1005247000E+02
  283  1    0.1854171000E+01    0.3705974000E+01    0.9543260000E+01
  284  2    0.3109761000E+01    0.5921594000E+01    0.8477390000E+01
  285  2    0.1768051000E+01    0.5151374000E+01    0.1116258000E+02
  286  2    0.1827421000E+01    0.3698414000E+01    0.8432380000E+01
  287  2    0.3073701000E+01    0.2902704000E+01    0.1114756000E+02
  288  4   -0.1420050000E+01   -0.2838975000E+01    0.6274870000E+01
  289  2   -0.5905420000E+00   -0.3331278000E+01    0.6618518000E+01
  290  2   -0.2238080000E+01   -0.3383092000E+01    0.6564049000E+01
  291  2   -0.1465455000E+01   -0.1935654000E+01    0.6753966000E+01
  292  1   -0.1391548000E+01   -0.2656732000E+01    0.4791033000E+01
  293  2   -0.1545793000E+01   -0.3641127000E+01    0.4349780000E+01
  294  2   -0.2258398000E+01   -0.2040744000E+01    0.4549320000E+01
  295  1   -0.9705800000E-01   -0.2031845000E+01    0.4280056000E+01
  296  2    0.7143540000E+00   -0.2766933000E+01    0.4338636000E+01
  297  2    0.1896120000E+00   -0.1168315000E+01    0.4888757000E+01
  298  1   -0.4167530000E+00   -0.1641321000E+01    0.2832714000E+01
  299  2   -0.1090672000E+01   -0.2421199000E+01    0.2487379000E+01
  300  2   -0.1001587000E+01   -0.7191180000E+00    0.2861565000E+01
  301  1    0.7839450000E+00   -0.1513622000E+01    0.1888169000E+01
  302  2    0.1437350000E+01   -0.2342935000E+01    0.2157191000E+01
  303  2    0.1334902000E+01   -0.6282960000E+00    0.2205801000E+01
  304  3    0.7112275143E+01    0.6753080678E+01    0.3127243126E+01
  305  2    0.7641518534E+01    0.7486291499E+01    0.3509808461E+01
  306  2    0.6190356903E+01    0.6979457500E+01    0.3315159648E+01
  307  3   -0.1859009693E+01   -0.5326286107E+00    0.6990822935E+01
  308  2   -0.8651475062E+00    0.2590885375E+01    0.5242032931E+01
  309  2   -0.1215149728E+01    0.2308929814E+00    0.7213264208E+01
  310  3    0.9178395967E+01    0.1200324975E+02    0.4617964589E+01
  311  2    0.9474434687E+01    0.1275045674E+02    0.5165829750E+01
  312  2    0.9883856150E+01    0.1147194879E+02    0.4216432063E+01
  313  3   -0.2275127842E+01    0.1133799734E+00    0.4513742993E+01
  314  2   -0.2047049559E+01   -0.2603780417E+00    0.5497444396E+01
  315  2   -0.3250148400E+01    0.1651346338E+00    0.4629592254E+01
  316  3   -0.4631445466E+01    0.1463725122E-01    0.6366959395E+01
  317  2   -0.3604786995E+01   -0.1450550572E+00    0.6443025620E+01
  318  2   -0.4861024444E+01    0.9009665960E+00    0.6570914976E+01
  319  3   -0.3073813298E+01   -0.5150987351E+01    0.5677736425E+01
  320  2   -0.4017374424E+01   -0.5157436188E+01    0.5534215529E+01
  321  2   -0.2865603974E+01   -0.6090183386E+01    0.5903777473E+01
  322  3   -0.9829663875E+01    0.4373047050E+01    0.4220068343E+01
  323  2   -0.1061240878E+02    0.4636303184E+01    0.4733940014E+01
  324  2   -0.9134558850E+01    0.4961507216E+01    0.4541595194E+01
  325  3    0.1286639648E+02   -0.8647703333E+01    0.5857783386E+01
  326  2    0.1259886353E+02   -0.9587204446E+01    0.5710173008E+01
  327  2    0.1372430925E+02   -0.8684137276E+01    0.5420462954E+01
  328  3    0.2249930511E+01   -0.6420042424E+01    0.4917833440E+01
  329  2    0.2615249275E+01   -0.5918807427E+01    0.4190232788E+01
  330  2    0.1417730380E+01   -0.6836489760E+01    0.4641543843E+01
  331  3    0.1500799594E+02   -0.7855095230E+01    0.3945053956E+01
  332  2    0.1422160299E+02   -0.7870847443E+01    0.3387295039E+01
  333  2    0.1531393921E+02   -0.8778310745E+01    0.3960810653E+01
  334  3   -0.1103996026E+01    0.2500292632E+01    0.4294502993E+01
  335  2   -0.1395114037E+01    0.1573169200E+01    0.4182241343E+01
#dimensions of perodic box 
    0.0000000000E+00    0.0000000000E+00    0.0000000000E+00 
    0.1535088000E+02    0.0000000000E+00    0.0000000000E+00 
    0.0000000000E+00    0.1350000000E+02    0.0000000000E+00 
    0.0000000000E+00    0.0000000000E+00    0.4000000000E+02 
              
}
Driver = VelocityVerlet{
  TimeStep [fs] = 1
  Thermostat = None{}
  Steps = 10000  
  MovedAtoms = 304:-1 # last -1 means all atoms; otherwise list first:last out of movable
  MDRestartFrequency = 10
  ConvergentForcesOnly = Yes #if the SCC cycle does not converge at any geometric step, forces will be calculated using the non-converged charges
  Velocities [AA/ps] {
      0.00000000      0.00000000      0.00000000
      0.00000000      0.00000000      0.00000000
      0.00000000      0.00000000      0.00000000
      0.00000000      0.00000000      0.00000000
      0.00000000      0.00000000      0.00000000
      0.00000000      0.00000000      0.00000000
      0.00000000      0.00000000      0.00000000
      0.00000000      0.00000000      0.00000000
      0.00000000      0.00000000      0.00000000
      0.00000000      0.00000000      0.00000000
      0.00000000      0.00000000      0.00000000
      0.00000000      0.00000000      0.00000000
      0.00000000      0.00000000      0.00000000
      0.00000000      0.00000000      0.00000000
      0.00000000      0.00000000      0.00000000
      0.00000000      0.00000000      0.00000000
      0.00000000      0.00000000      0.00000000
      0.00000000      0.00000000      0.00000000
      0.00000000      0.00000000      0.00000000
      0.00000000      0.00000000      0.00000000
      0.00000000      0.00000000      0.00000000
      0.00000000      0.00000000      0.00000000
      0.00000000      0.00000000      0.00000000
      0.00000000      0.00000000      0.00000000
      0.00000000      0.00000000      0.00000000
      0.00000000      0.00000000      0.00000000
      0.00000000      0.00000000      0.00000000
      0.00000000      0.00000000      0.00000000
      0.00000000      0.00000000      0.00000000
      0.00000000      0.00000000      0.00000000
      0.00000000      0.00000000      0.00000000
      0.00000000      0.00000000      0.00000000
      0.00000000      0.00000000      0.00000000
      0.00000000      0.00000000      0.00000000
      0.00000000      0.00000000      0.00000000
      0.00000000      0.00000000      0.00000000
      0.00000000      0.00000000      0.00000000
      0.00000000      0.00000000      0.00000000
      0.00000000      0.00000000      0.00000000
      0.00000000      0.00000000      0.00000000
      0.00000000      0.00000000      0.00000000
      0.00000000      0.00000000      0.00000000
      0.00000000      0.00000000      0.00000000
      0.00000000      0.00000000      0.00000000
      0.00000000      0.00000000      0.00000000
      0.00000000      0.00000000      0.00000000
      0.00000000      0.00000000      0.00000000
      0.00000000      0.00000000      0.00000000
      0.00000000      0.00000000      0.00000000
      0.00000000      0.00000000      0.00000000
      0.00000000      0.00000000      0.00000000
      0.00000000      0.00000000      0.00000000
      0.00000000      0.00000000      0.00000000
      0.00000000      0.00000000      0.00000000
      0.00000000      0.00000000      0.00000000
      0.00000000      0.00000000      0.00000000
      0.00000000      0.00000000      0.00000000
      0.00000000      0.00000000      0.00000000
      0.00000000      0.00000000      0.00000000
      0.00000000      0.00000000      0.00000000
      0.00000000      0.00000000      0.00000000
      0.00000000      0.00000000      0.00000000
      0.00000000      0.00000000      0.00000000
      0.00000000      0.00000000      0.00000000
      0.00000000      0.00000000      0.00000000
      0.00000000      0.00000000      0.00000000
      0.00000000      0.00000000      0.00000000
      0.00000000      0.00000000      0.00000000
      0.00000000      0.00000000      0.00000000
      0.00000000      0.00000000      0.00000000
      0.00000000      0.00000000      0.00000000
      0.00000000      0.00000000      0.00000000
      0.00000000      0.00000000      0.00000000
      0.00000000      0.00000000      0.00000000
      0.00000000      0.00000000      0.00000000
      0.00000000      0.00000000      0.00000000
      0.00000000      0.00000000      0.00000000
      0.00000000      0.00000000      0.00000000
      0.00000000      0.00000000      0.00000000
      0.00000000      0.00000000      0.00000000
      0.00000000      0.00000000      0.00000000
      0.00000000      0.00000000      0.00000000
      0.00000000      0.00000000      0.00000000
      0.00000000      0.00000000      0.00000000
      0.00000000      0.00000000      0.00000000
      0.00000000      0.00000000      0.00000000
      0.00000000      0.00000000      0.00000000
      0.00000000      0.00000000      0.00000000
      0.00000000      0.00000000      0.00000000
      0.00000000      0.00000000      0.00000000
      0.00000000      0.00000000      0.00000000
      0.00000000      0.00000000      0.00000000
      0.00000000      0.00000000      0.00000000
      0.00000000      0.00000000      0.00000000
      0.00000000      0.00000000      0.00000000
      0.00000000      0.00000000      0.00000000
      0.00000000      0.00000000      0.00000000
      0.00000000      0.00000000      0.00000000
      0.00000000      0.00000000      0.00000000
      0.00000000      0.00000000      0.00000000
      0.00000000      0.00000000      0.00000000
      0.00000000      0.00000000      0.00000000
      0.00000000      0.00000000      0.00000000
      0.00000000      0.00000000      0.00000000
      0.00000000      0.00000000      0.00000000
      0.00000000      0.00000000      0.00000000
      0.00000000      0.00000000      0.00000000
      0.00000000      0.00000000      0.00000000
      0.00000000      0.00000000      0.00000000
      0.00000000      0.00000000      0.00000000
      0.00000000      0.00000000      0.00000000
      0.00000000      0.00000000      0.00000000
      0.00000000      0.00000000      0.00000000
      0.00000000      0.00000000      0.00000000
      0.00000000      0.00000000      0.00000000
      0.00000000      0.00000000      0.00000000
      0.00000000      0.00000000      0.00000000
      0.00000000      0.00000000      0.00000000
      0.00000000      0.00000000      0.00000000
      0.00000000      0.00000000      0.00000000
      0.00000000      0.00000000      0.00000000
      0.00000000      0.00000000      0.00000000
      0.00000000      0.00000000      0.00000000
      0.00000000      0.00000000      0.00000000
      0.00000000      0.00000000      0.00000000
      0.00000000      0.00000000      0.00000000