#
Geometry = GenFormat {
335 S
C  H  O N
1 1 -1.945939 -5.894446 0.16119
2 1 0.592571 -5.907366 0.21533
3 1 -0.662829 -5.159276 -0.29497
4 2 0.569561 -5.928406 1.33036
5 2 0.644931 -2.945866 -1.33973
6 1 0.617771 -2.967476 -0.22476
7 1 -0.667389 -3.702516 0.22689
8 2 -0.638079 -5.139816 -1.41001
9 1 -1.919729 -2.954056 -0.28942
10 1 -3.206859 -3.686106 0.16295
11 1 -3.201949 -5.149236 -0.35307
12 2 -3.174599 -5.133446 -1.46812
13 2 -1.971009 -5.912066 1.27616
14 2 -0.694879 -3.722016 1.34182
15 2 -1.891129 -2.936076 -1.40433
16 2 -3.234009 -3.701986 1.27798
17 1 -1.921799 -1.496946 0.23184
18 1 0.614441 -1.511706 0.30064
19 1 -0.634449 -0.762266 -0.21671
20 1 -3.168559 -0.746496 -0.28943
21 2 -1.953559 -1.515136 1.34668
22 2 -3.134549 -0.729826 -1.40453
23 2 -0.603119 -0.742696 -1.33177
24 1 -4.464079 -1.473776 0.15661
25 1 -4.462889 -2.936476 -0.35335
26 1 -4.489499 -5.885506 0.101
27 1 -5.692039 -0.702516 -0.36526
28 1 -5.732029 -3.682806 0.0992
29 1 -5.726959 -5.126136 -0.41347
30 2 -5.705539 -0.701416 -1.47742
31 2 -4.505749 -1.486066 1.27012
32 2 -4.442829 -2.924056 -1.46747
33 2 -5.807849 -3.684246 1.20878
34 2 -5.748029 -5.124266 -1.52542
35 2 -4.524269 -5.897596 1.2147
36 1 -5.684339 0.742634 0.1453
37 1 -4.402519 1.462924 -0.28624
38 1 -3.164399 0.714464 0.22934
39 1 -1.880409 1.439144 -0.20975
40 1 -0.636939 0.696184 0.30545
41 1 0.646761 1.424964 -0.13175
42 2 -5.765799 0.750154 1.2535
43 2 -3.198479 0.710194 1.34229
44 2 -0.670369 0.689314 1.41832
45 2 -4.378929 1.533674 -1.39615
46 2 -1.846219 1.507934 -1.32057
47 2 0.679971 1.497634 -1.24229
48 1 0.597591 5.894564 -0.30924
49 1 -0.681419 5.158594 0.1504
50 1 -1.938259 5.906194 -0.35934
51 2 0.618171 5.915434 -1.42437
52 1 -0.674609 3.699634 -0.3704
53 2 -0.702499 5.139954 1.26564
54 1 -1.948849 2.970264 0.0852
55 1 -3.202309 3.707774 -0.41645
56 1 -3.216569 5.169164 0.1009
57 2 -0.655639 3.705554 -1.48365
58 2 -1.916259 5.923914 -1.47445
59 2 -3.237179 5.153084 1.21634
60 2 -3.181859 3.711374 -1.52977
61 2 -1.968959 2.902554 1.19641
62 1 0.579831 2.958324 0.1267
63 2 0.562151 2.887494 1.23766
64 1 -4.480979 5.909594 -0.40836
65 1 -4.471989 2.972714 0.0378
66 1 -5.741139 5.151514 0.05247
67 1 -5.723349 3.705974 -0.45674
68 2 -4.467759 5.921594 -1.52261
69 2 -5.809469 5.151374 1.16258
70 2 -5.750099 3.698414 -1.56762
71 2 -4.503819 2.902704 1.14756
72 1 5.631581 -5.894446 0.16119
73 1 8.170091 -5.907366 0.21533
74 1 6.914691 -5.159276 -0.29497
75 2 8.147081 -5.928406 1.33036
76 2 8.222451 -2.945866 -1.33973
77 1 8.195291 -2.967476 -0.22476
78 1 6.910131 -3.702516 0.22689
79 2 6.939441 -5.139816 -1.41001
80 1 5.657791 -2.954056 -0.28942
81 1 4.370661 -3.686106 0.16295
82 1 4.375571 -5.149236 -0.35307
83 2 4.402921 -5.133446 -1.46812
84 2 5.606511 -5.912066 1.27616
85 2 6.882641 -3.722016 1.34182
86 2 5.686391 -2.936076 -1.40433
87 2 4.343511 -3.701986 1.27798
88 1 5.655721 -1.496946 0.23184
89 1 8.191961 -1.511706 0.30064
90 1 6.943071 -0.762266 -0.21671
91 1 4.408961 -0.746496 -0.28943
92 2 5.623961 -1.515136 1.34668
93 2 8.162271 -1.533176 1.41551
94 2 4.442971 -0.729826 -1.40453
95 2 6.974401 -0.742696 -1.33177
96 1 3.113441 -1.473776 0.15661
97 1 3.114631 -2.936476 -0.35335
98 1 3.088021 -5.885506 0.101
99 1 1.885481 -0.702516 -0.36526
100 1 1.845491 -3.682806 0.0992
101 1 1.850561 -5.126136 -0.41347
102 2 1.871981 -0.701416 -1.47742
103 2 3.071771 -1.486066 1.27012
104 2 3.134691 -2.924056 -1.46747
105 2 1.769671 -3.684246 1.20878
106 2 1.829491 -5.124266 -1.52542
107 2 3.053251 -5.897596 1.2147
108 1 1.893181 0.742634 0.1453
109 1 3.175001 1.462924 -0.28624
110 1 4.413121 0.714464 0.22934
111 1 5.697111 1.439144 -0.20975
112 1 6.940581 0.696184 0.30545
113 1 8.224281 1.424964 -0.13175
114 2 1.811721 0.750154 1.2535
115 2 4.379041 0.710194 1.34229
116 2 6.907151 0.689314 1.41832
117 2 3.198591 1.533674 -1.39615
118 2 5.731301 1.507934 -1.32057
119 2 8.257491 1.497634 -1.24229
120 1 8.175111 5.894564 -0.30924
121 1 6.896101 5.158594 0.1504
122 1 5.639261 5.906194 -0.35934
123 2 8.195691 5.915434 -1.42437
124 1 6.902911 3.699634 -0.3704
125 2 6.875021 5.139954 1.26564
126 1 5.628671 2.970264 0.0852
127 1 4.375211 3.707774 -0.41645
128 1 4.360951 5.169164 0.1009
129 2 6.921881 3.705554 -1.48365
130 2 5.661261 5.923914 -1.47445
131 2 4.340341 5.153084 1.21634
132 2 4.395661 3.711374 -1.52977
133 2 5.608561 2.902554 1.19641
134 1 8.157351 2.958324 0.1267
135 2 8.139671 2.887494 1.23766
136 1 3.096541 5.909594 -0.40836
137 1 3.105531 2.972714 0.0378
138 1 1.836381 5.151514 0.05247
139 1 1.854171 3.705974 -0.45674
140 2 3.109761 5.921594 -1.52261
141 2 1.768051 5.151374 1.16258
142 2 1.827421 3.698414 -1.56762
143 2 3.073701 2.902704 1.14756
144 1 -1.945939 -5.894446 10.16119
145 1 0.592571 -5.907366 10.21533
146 1 -0.662829 -5.159276 9.70503
147 2 0.569561 -5.928406 11.33036
148 2 0.644931 -2.945866 8.66027
149 1 0.617771 -2.967476 9.77524
150 1 -0.667389 -3.702516 10.22689
151 2 -0.638079 -5.139816 8.58999
152 1 -1.919729 -2.954056 9.71058
153 1 -3.206859 -3.686106 10.16295
154 1 -3.201949 -5.149236 9.64693
155 2 -3.174599 -5.133446 8.53188
156 2 -1.971009 -5.912066 11.27616
157 2 -0.694879 -3.722016 11.34182
158 2 -1.891129 -2.936076 8.59567
159 2 -3.234009 -3.701986 11.27798
160 1 -1.921799 -1.496946 10.23184
161 1 0.614441 -1.511706 10.30064
162 1 -0.634449 -0.762266 9.78329
163 1 -3.168559 -0.746496 9.71057
164 2 -1.953559 -1.515136 11.34668
165 2 0.584751 -1.533176 11.41551
166 2 -3.134549 -0.729826 8.59547
167 2 -0.603119 -0.742696 8.66823
168 1 -4.464079 -1.473776 10.15661
169 1 -4.462889 -2.936476 9.64665
170 1 -4.489499 -5.885506 10.101
171 1 -5.692039 -0.702516 9.63474
172 1 -5.732029 -3.682806 10.0992
173 1 -5.726959 -5.126136 9.58653
174 2 -5.705539 -0.701416 8.52258
175 2 -4.505749 -1.486066 11.27012
176 2 -4.442829 -2.924056 8.53253
177 2 -5.807849 -3.684246 11.20878
178 2 -5.748029 -5.124266 8.47458
179 2 -4.524269 -5.897596 11.2147
180 1 -5.684339 0.742634 10.1453
181 1 -4.402519 1.462924 9.71376
182 1 -3.164399 0.714464 10.22934
183 1 -1.880409 1.439144 9.79025
184 1 -0.636939 0.696184 10.30545
185 1 0.646761 1.424964 9.86825
186 2 -5.765799 0.750154 11.2535
187 2 -3.198479 0.710194 11.34229
188 2 -0.670369 0.689314 11.41832
189 2 -4.378929 1.533674 8.60385
190 2 -1.846219 1.507934 8.67943
191 2 0.679971 1.497634 8.75771
192 1 0.597591 5.894564 9.69076
193 1 -0.681419 5.158594 10.1504
194 1 -1.938259 5.906194 9.64066
195 2 0.618171 5.915434 8.57563
196 1 -0.674609 3.699634 9.6296
197 2 -0.702499 5.139954 11.26564
198 1 -1.948849 2.970264 10.0852
199 1 -3.202309 3.707774 9.58355
200 1 -3.216569 5.169164 10.1009
201 2 -0.655639 3.705554 8.51635
202 2 -1.916259 5.923914 8.52555
203 2 -3.237179 5.153084 11.21634
204 2 -3.181859 3.711374 8.47023
205 2 -1.968959 2.902554 11.19641
206 1 0.579831 2.958324 10.1267
207 2 0.562151 2.887494 11.23766
208 1 -4.480979 5.909594 9.59164
209 1 -4.471989 2.972714 10.0378
210 1 -5.741139 5.151514 10.05247
211 1 -5.723349 3.705974 9.54326
212 2 -4.467759 5.921594 8.47739
213 2 -5.809469 5.151374 11.16258
214 2 -5.750099 3.698414 8.43238
215 2 -4.503819 2.902704 11.14756
216 1 5.631581 -5.894446 10.16119
217 1 8.170091 -5.907366 10.21533
218 1 6.914691 -5.159276 9.70503
219 2 8.147081 -5.928406 11.33036
220 2 8.222451 -2.945866 8.66027
221 1 8.195291 -2.967476 9.77524
222 1 6.910131 -3.702516 10.22689
223 2 6.939441 -5.139816 8.58999
224 1 5.657791 -2.954056 9.71058
225 1 4.370661 -3.686106 10.16295
226 1 4.375571 -5.149236 9.64693
227 2 4.402921 -5.133446 8.53188
228 2 5.606511 -5.912066 11.27616
229 2 6.882641 -3.722016 11.34182
230 2 5.686391 -2.936076 8.59567
231 2 4.343511 -3.701986 11.27798
232 1 5.655721 -1.496946 10.23184
233 1 8.191961 -1.511706 10.30064
234 1 6.943071 -0.762266 9.78329
235 1 4.408961 -0.746496 9.71057
236 2 5.623961 -1.515136 11.34668
237 2 8.162271 -1.533176 11.41551
238 2 4.442971 -0.729826 8.59547
239 2 6.974401 -0.742696 8.66823
240 1 3.113441 -1.473776 10.15661
241 1 3.114631 -2.936476 9.64665
242 1 3.088021 -5.885506 10.101
243 1 1.885481 -0.702516 9.63474
244 1 1.845491 -3.682806 10.0992
245 1 1.850561 -5.126136 9.58653
246 2 1.871981 -0.701416 8.52258
247 2 3.071771 -1.486066 11.27012
248 2 3.134691 -2.924056 8.53253
249 2 1.769671 -3.684246 11.20878
250 2 1.829491 -5.124266 8.47458
251 2 3.053251 -5.897596 11.2147
252 1 1.893181 0.742634 10.1453
253 1 3.175001 1.462924 9.71376
254 1 4.413121 0.714464 10.22934
255 1 5.697111 1.439144 9.79025
256 1 6.940581 0.696184 10.30545
257 1 8.224281 1.424964 9.86825
258 2 1.811721 0.750154 11.2535
259 2 4.379041 0.710194 11.34229
260 2 6.907151 0.689314 11.41832
261 2 3.198591 1.533674 8.60385
262 2 5.731301 1.507934 8.67943
263 2 8.257491 1.497634 8.75771
264 1 8.175111 5.894564 9.69076
265 1 6.896101 5.158594 10.1504
266 1 5.639261 5.906194 9.64066
267 2 8.195691 5.915434 8.57563
268 1 6.902911 3.699634 9.6296
269 2 6.875021 5.139954 11.26564
270 1 5.628671 2.970264 10.0852
271 1 4.375211 3.707774 9.58355
272 1 4.360951 5.169164 10.1009
273 2 6.921881 3.705554 8.51635
274 2 5.661261 5.923914 8.52555
275 2 4.340341 5.153084 11.21634
276 2 4.395661 3.711374 8.47023
277 2 5.608561 2.902554 11.19641
278 1 8.157351 2.958324 10.1267
279 2 8.139671 2.887494 11.23766
280 1 3.096541 5.909594 9.59164
281 1 3.105531 2.972714 10.0378
282 1 1.836381 5.151514 10.05247
283 1 1.854171 3.705974 9.54326
284 2 3.109761 5.921594 8.47739
285 2 1.768051 5.151374 11.16258
286 2 1.827421 3.698414 8.43238
287 2 3.073701 2.902704 11.14756
288 4 -1.42005 -2.838975 6.27487
289 2 -0.590542 -3.331278 6.618518
290 2 -2.23808 -3.383092 6.564049
291 2 -1.465455 -1.935654 6.753966
292 1 -1.391548 -2.656732 4.791033
293 2 -1.545793 -3.641127 4.34978
294 2 -2.258398 -2.040744 4.54932
295 1 -0.097058 -2.031845 4.280056
296 2 0.714354 -2.766933 4.338636
297 2 0.189612 -1.168315 4.888757
298 1 -0.416753 -1.641321 2.832714
299 2 -1.090672 -2.421199 2.487379
300 2 -1.001587 -0.719118 2.861565
301 1 0.783945 -1.513622 1.888169
302 2 1.43735 -2.342935 2.157191
303 2 1.334902 -0.628296 2.205801
304 3 7.11227514 6.75308068 3.12724313
305 2 7.64151853 7.4862915 3.50980846
306 2 6.1903569 6.9794575 3.31515965
307 3 -1.85900969 -0.53262861 6.99082294
308 2 -0.86514751 2.59088538 5.24203293
309 2 -1.21514973 0.23089298 7.21326421
310 3 9.17839597 12.00324975 4.61796459
311 2 9.47443469 12.75045674 5.16582975
312 2 9.88385615 11.47194879 4.21643206
313 3 -2.27512784 0.11337997 4.51374299
314 2 -2.04704956 -0.26037804 5.4974444
315 2 -3.2501484 0.16513463 4.62959225
316 3 -4.63144547 0.01463725 6.36695939
317 2 -3.604787 -0.14505506 6.44302562
318 2 -4.86102444 0.9009666 6.57091498
319 3 -3.0738133 -5.15098735 5.67773643
320 2 -4.01737442 -5.15743619 5.53421553
321 2 -2.86560397 -6.09018339 5.90377747
322 3 -9.82966387 4.37304705 4.22006834
323 2 -10.61240878 4.63630318 4.73394001
324 2 -9.13455885 4.96150722 4.54159519
325 3 12.86639648 -8.64770333 5.85778339
326 2 12.59886353 -9.58720445 5.71017301
327 2 13.72430925 -8.68413728 5.42046295
328 3 2.24993051 -6.42004242 4.91783344
329 2 2.61524927 -5.91880743 4.19023279
330 2 1.41773038 -6.83648976 4.64154384
331 3 15.00799594 -7.85509523 3.94505396
332 2 14.22160299 -7.87084744 3.38729504
333 2 15.31393921 -8.77831074 3.96081065
334 3 -1.10399603 2.50029263 4.29450299
335 2 -1.39511404 1.5731692 4.18224134
#dimensions of perodic box
     0.000     0.000     0.000
    15.198     0.000     0.000
     0.000     13.500    0.000
     0.000     0.000     40.000
}
Driver = VelocityVerlet{
  TimeStep [fs] = 1
  Thermostat = None{}
  Steps = 10000
  MovedAtoms =304:-1 # last -1 means all atoms; otherwise list first:last out of movable
  MDRestartFrequency = 10
  ConvergentForcesOnly = Yes #if the SCC cycle does not converge at any geometric step, forces will be calculated using the non-converged charges
  Velocities [AA/ps] {
   0.00000000   0.00000000   0.00000000
   0.00000000   0.00000000   0.00000000
   0.00000000   0.00000000   0.00000000
   0.00000000   0.00000000   0.00000000
   0.00000000   0.00000000   0.00000000
   0.00000000   0.00000000   0.00000000
   0.00000000   0.00000000   0.00000000
   0.00000000   0.00000000   0.00000000
   0.00000000   0.00000000   0.00000000
   0.00000000   0.00000000   0.00000000
   0.00000000   0.00000000   0.00000000
   0.00000000   0.00000000   0.00000000
   0.00000000   0.00000000   0.00000000
   0.00000000   0.00000000   0.00000000
   0.00000000   0.00000000   0.00000000
   0.00000000   0.00000000   0.00000000
   0.00000000   0.00000000   0.00000000
   0.00000000   0.00000000   0.00000000
   0.00000000   0.00000000   0.00000000
   0.00000000   0.00000000   0.00000000
   0.00000000   0.00000000   0.00000000
   0.00000000   0.00000000   0.00000000
   0.00000000   0.00000000   0.00000000
   0.00000000   0.00000000   0.00000000
   0.00000000   0.00000000   0.00000000
   0.00000000   0.00000000   0.00000000
   0.00000000   0.00000000   0.00000000
   0.00000000   0.00000000   0.00000000
   0.00000000   0.00000000   0.00000000
   0.00000000   0.00000000   0.00000000
   0.00000000   0.00000000   0.00000000
   0.00000000   0.00000000   0.00000000
   0.00000000   0.00000000   0.00000000
   0.00000000   0.00000000   0.00000000
   0.00000000   0.00000000   0.00000000
   0.00000000   0.00000000   0.00000000
   0.00000000   0.00000000   0.00000000
   0.00000000   0.00000000   0.00000000
   0.00000000   0.00000000   0.00000000
   0.00000000   0.00000000   0.00000000
   0.00000000   0.00000000   0.00000000
   0.00000000   0.00000000   0.00000000
   0.00000000   0.00000000   0.00000000
   0.00000000   0.00000000   0.00000000
   0.00000000   0.00000000   0.00000000
   0.00000000   0.00000000   0.00000000
   0.00000000   0.00000000   0.00000000
   0.00000000   0.00000000   0.00000000
   0.00000000   0.00000000   0.00000000
   0.00000000   0.00000000   0.00000000
   0.00000000   0.00000000   0.00000000
   0.00000000   0.00000000   0.00000000
   0.00000000   0.00000000   0.00000000
   0.00000000   0.00000000   0.00000000
   0.00000000   0.00000000   0.00000000
   0.00000000   0.00000000   0.00000000
   0.00000000   0.00000000   0.00000000
   0.00000000   0.00000000   0.00000000
   0.00000000   0.00000000   0.00000000
   0.00000000   0.00000000   0.00000000
   0.00000000   0.00000000   0.00000000
   0.00000000   0.00000000   0.00000000
   0.00000000   0.00000000   0.00000000
   0.00000000   0.00000000   0.00000000
   0.00000000   0.00000000   0.00000000
   0.00000000   0.00000000   0.00000000
   0.00000000   0.00000000   0.00000000
   0.00000000   0.00000000   0.00000000
   0.00000000   0.00000000   0.00000000
   0.00000000   0.00000000   0.00000000
   0.00000000   0.00000000   0.00000000
   0.00000000   0.00000000   0.00000000
   0.00000000   0.00000000   0.00000000
   0.00000000   0.00000000   0.00000000
   0.00000000   0.00000000   0.00000000
   0.00000000   0.00000000   0.00000000
   0.00000000   0.00000000   0.00000000
   0.00000000   0.00000000   0.00000000
   0.00000000   0.00000000   0.00000000
   0.00000000   0.00000000   0.00000000
   0.00000000   0.00000000   0.00000000
   0.00000000   0.00000000   0.00000000
   0.00000000   0.00000000   0.00000000
   0.00000000   0.00000000   0.00000000
   0.00000000   0.00000000   0.00000000
   0.00000000   0.00000000   0.00000000
   0.00000000   0.00000000   0.00000000
   0.00000000   0.00000000   0.00000000
   0.00000000   0.00000000   0.00000000
   0.00000000   0.00000000   0.00000000
   0.00000000   0.00000000   0.00000000
   0.00000000   0.00000000   0.00000000
   0.00000000   0.00000000   0.00000000
   0.00000000   0.00000000   0.00000000
   0.00000000   0.00000000   0.00000000
   0.00000000   0.00000000   0.00000000
   0.00000000   0.00000000   0.00000000
   0.00000000   0.00000000   0.00000000
   0.00000000   0.00000000   0.00000000
   0.00000000   0.00000000   0.00000000
   0.00000000   0.00000000   0.00000000
   0.00000000   0.00000000   0.00000000
   0.00000000   0.00000000   0.00000000
   0.00000000   0.00000000   0.00000000
   0.00000000   0.00000000   0.00000000
   0.00000000   0.00000000   0.00000000
   0.00000000   0.00000000   0.00000000
   0.00000000   0.00000000   0.00000000
   0.00000000   0.00000000   0.00000000
   0.00000000   0.00000000   0.00000000
   0.00000000   0.00000000   0.00000000
   0.00000000   0.00000000   0.00000000
   0.00000000   0.00000000   0.00000000
   0.00000000   0.00000000   0.00000000
   0.00000000   0.00000000   0.00000000
   0.00000000   0.00000000   0.00000000
   0.00000000   0.00000000   0.00000000
   0.00000000   0.00000000   0.00000000
   0.00000000   0.00000000   0.00000000
   0.00000000   0.00000000   0.00000000
   0.00000000   0.00000000   0.00000000
   0.00000000   0.00000000   0.00000000
   0.00000000   0.00000000   0.00000000
   0.00000000   0.00000000   0.00000000
   0.00000000   0.00000000   0.00000000
   0.00000000   0.00000000   0.00000000
   0.00000000   0.00000000   0.00000000
   0.00000000   0.00000000   0.00000000
   0.00000000   0.00000000   0.00000000
   0.00000000   0.00000000   0.00000000
   0.00000000   0.00000000   0.00000000
   0.00000000   0.00000000   0.00000000
   0.00000000   0.00000000   0.00000000
   0.00000000   0.00000000   0.00000000
   0.00000000   0.00000000   0.00000000
   0.00000000   0.00000000   0.00000000
   0.00000000   0.00000000   0.00000000
   0.00000000   0.00000000   0.00000000
   0.00000000   0.00000000   0.00000000
   0.00000000   0.00000000   0.00000000
   0.00000000   0.00000000   0.00000000
   0.00000000   0.00000000   0.00000000
   0.00000000   0.00000000   0.00000000
   0.00000000   0.00000000   0.00000000
   0.00000000   0.00000000   0.00000000
   0.00000000   0.00000000   0.00000000
   0.00000000   0.00000000   0.00000000
   0.00000000   0.00000000   0.00000000
   0.00000000   0.00000000   0.00000000
   0.00000000   0.00000000   0.00000000
   0.00000000   0.00000000   0.00000000
   0.00000000   0.00000000   0.00000000
   0.00000000   0.00000000   0.00000000
   0.00000000   0.00000000   0.00000000
   0.00000000   0.00000000   0.00000000
   0.00000000   0.00000000   0.00000000
   0.00000000   0.00000000   0.00000000
   0.00000000   0.00000000   0.00000000
   0.00000000   0.00000000   0.00000000
   0.00000000   0.00000000   0.00000000
   0.00000000   0.00000000   0.00000000
   0.00000000   0.00000000   0.00000000
   0.00000000   0.00000000   0.00000000
   0.00000000   0.00000000   0.00000000
   0.00000000   0.00000000   0.00000000
   0.00000000   0.00000000   0.00000000
   0.00000000   0.00000000   0.00000000
   0.00000000   0.00000000   0.00000000
   0.00000000   0.00000000   0.00000000
   0.00000000   0.00000000   0.00000000
   0.00000000   0.00000000   0.00000000
   0.00000000   0.00000000   0.00000000
   0.00000000   0.00000000   0.00000000
   0.00000000   0.00000000   0.00000000
   0.00000000   0.00000000   0.00000000
   0.00000000   0.00000000   0.00000000
   0.00000000   0.00000000   0.00000000
   0.00000000   0.00000000   0.00000000
   0.00000000   0.00000000   0.00000000
   0.00000000   0.00000000   0.00000000
   0.00000000   0.00000000   0.00000000
   0.00000000   0.00000000   0.00000000
   0.00000000   0.00000000   0.00000000
   0.00000000   0.00000000   0.00000000
   0.00000000   0.00000000   0.00000000
   0.00000000   0.00000000   0.00000000
   0.00000000   0.00000000   0.00000000
   0.00000000   0.00000000   0.00000000
   0.00000000   0.00000000   0.00000000
   0.00000000   0.00000000   0.00000000
   0.00000000   0.00000000   0.00000000
   0.00000000   0.00000000   0.00000000
   0.00000000   0.00000000   0.00000000
   0.00000000   0.00000000   0.00000000
   0.00000000   0.00000000   0.00000000
   0.00000000   0.00000000   0.00000000
   0.00000000   0.00000000   0.00000000
   0.00000000   0.00000000   0.00000000
   0.00000000   0.00000000   0.00000000
   0.00000000   0.00000000   0.00000000
   0.00000000   0.00000000   0.00000000
   0.00000000   0.00000000   0.00000000
   0.00000000   0.00000000   0.00000000
   0.00000000   0.00000000   0.00000000
   0.00000000   0.00000000   0.00000000
   0.00000000   0.00000000   0.00000000
   0.00000000   0.00000000   0.00000000
   0.00000000   0.00000000   0.00000000
   0.00000000   0.00000000   0.00000000
   0.00000000   0.00000000   0.00000000
   0.00000000   0.00000000   0.00000000
   0.00000000   0.00000000   0.00000000
   0.00000000   0.00000000   0.00000000
   0.00000000   0.00000000   0.00000000
   0.00000000   0.00000000   0.00000000
   0.00000000   0.00000000   0.00000000
   0.00000000   0.00000000   0.00000000
   0.00000000   0.00000000   0.00000000
   0.00000000   0.00000000   0.00000000
   0.00000000   0.00000000   0.00000000
   0.00000000   0.00000000   0.00000000
   0.00000000   0.00000000   0.00000000
   0.00000000   0.00000000   0.00000000
   0.00000000   0.00000000   0.00000000
   0.00000000   0.00000000   0.00000000
   0.00000000   0.00000000   0.00000000
   0.00000000   0.00000000   0.00000000
   0.00000000   0.00000000   0.00000000
   0.00000000   0.00000000   0.00000000
   0.00000000   0.00000000   0.00000000
   0.00000000   0.00000000   0.00000000
   0.00000000   0.00000000   0.00000000
   0.00000000   0.00000000   0.00000000
   0.00000000   0.00000000   0.00000000
   0.00000000   0.00000000   0.00000000
   0.00000000   0.00000000   0.00000000
   0.00000000   0.00000000   0.00000000
   0.00000000   0.00000000   0.00000000
   0.00000000   0.00000000   0.00000000
   0.00000000   0.00000000   0.00000000
   0.00000000   0.00000000   0.00000000
   0.00000000   0.00000000   0.00000000
   0.00000000   0.00000000   0.00000000
   0.00000000   0.00000000   0.00000000
   0.00000000   0.00000000   0.00000000
   0.00000000   0.00000000   0.00000000
   0.00000000   0.00000000   0.00000000
   0.00000000   0.00000000   0.00000000
   0.00000000   0.00000000   0.00000000
   0.00000000   0.00000000   0.00000000
   0.00000000   0.00000000   0.00000000
   0.00000000   0.00000000   0.00000000
   0.00000000   0.00000000   0.00000000
   0.00000000   0.00000000   0.00000000
   0.00000000   0.00000000   0.00000000
   0.00000000   0.00000000   0.00000000
   0.00000000   0.00000000   0.00000000
   0.00000000   0.00000000   0.00000000
   0.00000000   0.00000000   0.00000000
   0.00000000   0.00000000   0.00000000
   0.00000000   0.00000000   0.00000000
   0.00000000   0.00000000   0.00000000
   0.00000000   0.00000000   0.00000000
   0.00000000   0.00000000   0.00000000
   0.00000000   0.00000000   0.00000000
   0.00000000   0.00000000   0.00000000
   0.00000000   0.00000000   0.00000000
   0.00000000   0.00000000   0.00000000
   0.00000000   0.00000000   0.00000000
   0.00000000   0.00000000   0.00000000
   0.00000000   0.00000000   0.00000000
   0.00000000   0.00000000   0.00000000
   0.00000000   0.00000000   0.00000000
   0.00000000   0.00000000   0.00000000
   0.00000000   0.00000000   0.00000000
   0.00000000   0.00000000   0.00000000
   0.00000000   0.00000000   0.00000000
   0.00000000   0.00000000   0.00000000
   0.00000000   0.00000000   0.00000000
   0.00000000   0.00000000   0.00000000
   0.00000000   0.00000000   0.00000000
   0.00000000   0.00000000   0.00000000
   0.00000000   0.00000000   0.00000000
   0.00000000   0.00000000   0.00000000
   0.00000000   0.00000000   0.00000000
   0.00000000   0.00000000   0.00000000
   0.00000000   0.00000000   0.00000000
   0.00000000   0.00000000   0.00000000
   0.00000000   0.00000000   0.00000000
   0.00000000   0.00000000   0.00000000
   0.00000000   0.00000000   0.00000000
   0.00000000   0.00000000   0.00000000
   0.00000000   0.00000000   0.00000000
   0.00000000   0.00000000   0.00000000
   0.00000000   0.00000000   0.00000000
   0.00000000   0.00000000   0.00000000
   0.00000000   0.00000000   0.00000000
   0.00000000   0.00000000   0.00000000
   0.00000000   0.00000000   0.00000000
   0.00000000   0.00000000   0.00000000
   0.00000000   0.00000000   0.00000000
   0.00000000   0.00000000   0.00000000
   0.00000000   0.00000000   0.00000000
   -4.49578389   -3.29141649   -6.64791921
   -17.53559858   4.58424280   -5.08812464
   11.41881372   -11.03460999   23.55663495
   -0.92286938   -2.54511547   3.24958847
   -2.89004161   2.68172153   5.71219815
   -9.31553263   8.26991291   -4.54975133
   1.53075211   2.16140636   -2.70887003
   30.76272084   10.95061873   -29.51426339
   7.32655975   6.65290202   -22.08516359
   2.71643940   2.46395639   9.52976596
   -20.78223581   7.90058556   -15.32653643
   16.28368069   -30.41798220   7.21506273
   -6.21980854   3.39055033   4.75203106
   3.22022193   -7.96586931   12.38664020
   -2.22191505   -9.29454136   19.66165506
   0.78320196   3.94651852   -4.13092278
   14.55499298   7.00070278   -8.19884718
   22.13853856   18.42771592   11.02943527
   -5.26571094   0.17515762   8.39581371
   2.09919141   28.05391162   -7.63534873
   4.06697482   -16.89702841   -4.05893277
   0.43558385   1.10950141   5.19366452
   30.21933163   -1.27251056   -10.37176097
   -7.19711660   -5.07536946   -12.20027565
   4.58998109   -0.89470122   -6.09199457
   -14.47805240   14.18009659   2.15937636
   -11.47599718   10.22942463   20.33875126
   3.47671383   3.08898525   -5.83656996
   -5.48958149   -9.61599219   -6.44725566
   -12.72989087   -3.80411917   -5.49927886
   2.34910668   -11.72338258   -4.61234049
   -22.79193322   13.39446044   11.68735151
	}
}

Hamiltonian = DFTB {
  Scc = Yes
  SCCTolerance = 1e-005
  MaxSCCIterations= 500
# set non-zero temperature for convergence
  Filling = Fermi {
  Temperature[K] = 300.0
  }

 SlaterKosterFiles = Type2FileNames {
  Prefix = "/home/shehani/DOE_project/slakos/" 
  Separator = "-"                     # Dash between type names
  Suffix = ".skf"
 }

  MaxAngularMomentum {
    C = "p"
    N = "p"
    O = "p"
    H = "s"
  }
 KPointsAndWeights = {
 0 0 0 1.0
 }
}

Options {
 WriteChargesAsText = yes
}

Analysis {
  CalculateForces = Yes
}

ParserOptions {
  ParserVersion = 7
}
