844

C   -10.71856000   -5.90074000   -8.40206000
C   -8.18005000   -5.91366000   -8.34792000
C   -9.43545000   -5.16557000   -8.85822000
H   -8.20306000   -5.93470000   -7.23289000
H   -8.12769000   -2.95216000   -9.90298000
C   -8.15485000   -2.97377000   -8.78801000
C   -9.44001000   -3.70881000   -8.33636000
H   -9.41070000   -5.14611000   -9.97326000
C   -10.69235000   -2.96035000   -8.85267000
C   -11.97948000   -3.69240000   -8.40030000
C   -11.97457000   -5.15553000   -8.91632000
H   -11.94722000   -5.13974000   -10.03137000
H   -10.74363000   -5.91836000   -7.28709000
H   -9.46750000   -3.72831000   -7.22143000
H   -10.66375000   -2.94237000   -9.96758000
H   -12.00663000   -3.70828000   -7.28527000
C   -10.69442000   -1.50324000   -8.33141000
C   -8.15818000   -1.51800000   -8.26261000
C   -9.40707000   -0.76856000   -8.77996000
C   -11.94118000   -0.75279000   -8.85268000
H   -10.72618000   -1.52143000   -7.21657000
H   -8.18787000   -1.53947000   -7.14774000
H   -11.90717000   -0.73612000   -9.96778000
H   -9.37574000   -0.74899000   -9.89502000
C   -13.23670000   -1.48007000   -8.40664000
C   -13.23551000   -2.94277000   -8.91660000
C   -13.26212000   -5.89180000   -8.46225000
C   -14.46466000   -0.70881000   -8.92851000
C   -14.50465000   -3.68910000   -8.46405000
C   -14.49958000   -5.13243000   -8.97672000
H   -14.47816000   -0.70771000   -10.04067000
H   -13.27837000   -1.49236000   -7.29313000
H   -13.21545000   -2.93035000   -10.03072000
H   -14.58047000   -3.69054000   -7.35447000
H   -14.52065000   -5.13056000   -10.08867000
H   -13.29689000   -5.90389000   -7.34855000
C   -14.45696000   0.73634000   -8.41795000
C   -13.17514000   1.45663000   -8.84949000
C   -11.93702000   0.70817000   -8.33391000
C   -10.65303000   1.43285000   -8.77300000
C   -9.40956000   0.68989000   -8.25780000
C   -8.12586000   1.41867000   -8.69500000
H   -14.53842000   0.74386000   -7.30975000
H   -11.97110000   0.70390000   -7.22096000
H   -9.44299000   0.68302000   -7.14493000
H   -13.15155000   1.52738000   -9.95940000
H   -10.61884000   1.50164000   -9.88382000
H   -8.09265000   1.49134000   -9.80554000
C   -8.17503000   5.88827000   -8.87249000
C   -9.45404000   5.15230000   -8.41285000
C   -10.71088000   5.89990000   -8.92259000
H   -8.15445000   5.90914000   -9.98762000
C   -9.44723000   3.69334000   -8.93365000
H   -9.47512000   5.13366000   -7.29761000
C   -10.72147000   2.96397000   -8.47805000
C   -11.97493000   3.70148000   -8.97970000
C   -11.98919000   5.16287000   -8.46235000
H   -9.42826000   3.69926000   -10.04690000
H   -10.68888000   5.91762000   -10.03770000
H   -12.00980000   5.14679000   -7.34691000
H   -11.95448000   3.70508000   -10.09302000
H   -10.74158000   2.89626000   -7.36684000
C   -8.19279000   2.95203000   -8.43655000
H   -8.21047000   2.88120000   -7.32559000
C   -13.25360000   5.90330000   -8.97161000
C   -13.24461000   2.96642000   -8.52545000
C   -14.51376000   5.14522000   -8.51078000
C   -14.49597000   3.69968000   -9.01999000
H   -13.24038000   5.91530000   -10.08586000
H   -14.58209000   5.14508000   -7.40067000
H   -14.52272000   3.69212000   -10.13087000
H   -13.27644000   2.89641000   -7.41569000
C   -3.11956000   -5.90074000   -8.40206000
C   -0.58105000   -5.91366000   -8.34792000
C   -1.83645000   -5.16557000   -8.85822000
H   -0.60406000   -5.93470000   -7.23289000
H   -0.52869000   -2.95216000   -9.90298000
C   -0.55585000   -2.97377000   -8.78801000
C   -1.84101000   -3.70881000   -8.33636000
H   -1.81170000   -5.14611000   -9.97326000
C   -3.09335000   -2.96035000   -8.85267000
C   -4.38048000   -3.69240000   -8.40030000
C   -4.37557000   -5.15553000   -8.91632000
H   -4.34822000   -5.13974000   -10.03137000
H   -3.14463000   -5.91836000   -7.28709000
H   -1.86850000   -3.72831000   -7.22143000
H   -3.06475000   -2.94237000   -9.96758000
H   -4.40763000   -3.70828000   -7.28527000
C   -3.09542000   -1.50324000   -8.33141000
C   -0.55918000   -1.51800000   -8.26261000
C   -1.80807000   -0.76856000   -8.77996000
C   -4.34218000   -0.75279000   -8.85268000
H   -3.12718000   -1.52143000   -7.21657000
H   -0.58887000   -1.53947000   -7.14774000
H   -4.30817000   -0.73612000   -9.96778000
H   -1.77674000   -0.74899000   -9.89502000
C   -5.63770000   -1.48007000   -8.40664000
C   -5.63651000   -2.94277000   -8.91660000
C   -5.66312000   -5.89180000   -8.46225000
C   -6.86566000   -0.70881000   -8.92851000
C   -6.90565000   -3.68910000   -8.46405000
C   -6.90058000   -5.13243000   -8.97672000
H   -6.87916000   -0.70771000   -10.04067000
H   -5.67937000   -1.49236000   -7.29313000
H   -5.61645000   -2.93035000   -10.03072000
H   -6.98147000   -3.69054000   -7.35447000
H   -6.92165000   -5.13056000   -10.08867000
H   -5.69789000   -5.90389000   -7.34855000
C   -6.85796000   0.73634000   -8.41795000
C   -5.57614000   1.45663000   -8.84949000
C   -4.33802000   0.70817000   -8.33391000
C   -3.05403000   1.43285000   -8.77300000
C   -1.81056000   0.68989000   -8.25780000
C   -0.52686000   1.41867000   -8.69500000
H   -6.93942000   0.74386000   -7.30975000
H   -4.37210000   0.70390000   -7.22096000
H   -1.84399000   0.68302000   -7.14493000
H   -5.55255000   1.52738000   -9.95940000
H   -3.01984000   1.50164000   -9.88382000
H   -0.49365000   1.49134000   -9.80554000
C   -0.57603000   5.88827000   -8.87249000
C   -1.85504000   5.15230000   -8.41285000
C   -3.11188000   5.89990000   -8.92259000
H   -0.55545000   5.90914000   -9.98762000
C   -1.84823000   3.69334000   -8.93365000
H   -1.87612000   5.13366000   -7.29761000
C   -3.12247000   2.96397000   -8.47805000
C   -4.37593000   3.70148000   -8.97970000
C   -4.39019000   5.16287000   -8.46235000
H   -1.82926000   3.69926000   -10.04690000
H   -3.08988000   5.91762000   -10.03770000
H   -4.41080000   5.14679000   -7.34691000
H   -4.35548000   3.70508000   -10.09302000
H   -3.14258000   2.89626000   -7.36684000
C   -0.59379000   2.95203000   -8.43655000
H   -0.61147000   2.88120000   -7.32559000
C   -5.65460000   5.90330000   -8.97161000
C   -5.64561000   2.96642000   -8.52545000
C   -6.91476000   5.14522000   -8.51078000
C   -6.89697000   3.69968000   -9.01999000
H   -5.64138000   5.91530000   -10.08586000
H   -6.98309000   5.14508000   -7.40067000
H   -6.92372000   3.69212000   -10.13087000
H   -5.67744000   2.89641000   -7.41569000
C   4.47944000   -5.90074000   -8.40206000
C   7.01795000   -5.91366000   -8.34792000
C   5.76255000   -5.16557000   -8.85822000
H   6.99494000   -5.93470000   -7.23289000
H   7.07031000   -2.95216000   -9.90298000
C   7.04315000   -2.97377000   -8.78801000
C   5.75799000   -3.70881000   -8.33636000
H   5.78730000   -5.14611000   -9.97326000
C   4.50565000   -2.96035000   -8.85267000
C   3.21852000   -3.69240000   -8.40030000
C   3.22343000   -5.15553000   -8.91632000
H   3.25078000   -5.13974000   -10.03137000
H   4.45437000   -5.91836000   -7.28709000
H   5.73050000   -3.72831000   -7.22143000
H   4.53425000   -2.94237000   -9.96758000
H   3.19137000   -3.70828000   -7.28527000
C   4.50358000   -1.50324000   -8.33141000
C   7.03982000   -1.51800000   -8.26261000
C   5.79093000   -0.76856000   -8.77996000
C   3.25682000   -0.75279000   -8.85268000
H   4.47182000   -1.52143000   -7.21657000
H   7.01013000   -1.53947000   -7.14774000
H   3.29083000   -0.73612000   -9.96778000
H   5.82226000   -0.74899000   -9.89502000
C   1.96130000   -1.48007000   -8.40664000
C   1.96249000   -2.94277000   -8.91660000
C   1.93588000   -5.89180000   -8.46225000
C   0.73334000   -0.70881000   -8.92851000
C   0.69335000   -3.68910000   -8.46405000
C   0.69842000   -5.13243000   -8.97672000
H   0.71984000   -0.70771000   -10.04067000
H   1.91963000   -1.49236000   -7.29313000
H   1.98255000   -2.93035000   -10.03072000
H   0.61753000   -3.69054000   -7.35447000
H   0.67735000   -5.13056000   -10.08867000
H   1.90111000   -5.90389000   -7.34855000
C   0.74104000   0.73634000   -8.41795000
C   2.02286000   1.45663000   -8.84949000
C   3.26098000   0.70817000   -8.33391000
C   4.54497000   1.43285000   -8.77300000
C   5.78844000   0.68989000   -8.25780000
C   7.07214000   1.41867000   -8.69500000
H   0.65958000   0.74386000   -7.30975000
H   3.22690000   0.70390000   -7.22096000
H   5.75501000   0.68302000   -7.14493000
H   2.04645000   1.52738000   -9.95940000
H   4.57916000   1.50164000   -9.88382000
H   7.10535000   1.49134000   -9.80554000
C   7.02297000   5.88827000   -8.87249000
C   5.74396000   5.15230000   -8.41285000
C   4.48712000   5.89990000   -8.92259000
H   7.04355000   5.90914000   -9.98762000
C   5.75077000   3.69334000   -8.93365000
H   5.72288000   5.13366000   -7.29761000
C   4.47653000   2.96397000   -8.47805000
C   3.22307000   3.70148000   -8.97970000
C   3.20881000   5.16287000   -8.46235000
H   5.76974000   3.69926000   -10.04690000
H   4.50912000   5.91762000   -10.03770000
H   3.18820000   5.14679000   -7.34691000
H   3.24352000   3.70508000   -10.09302000
H   4.45642000   2.89626000   -7.36684000
C   7.00521000   2.95203000   -8.43655000
H   6.98753000   2.88120000   -7.32559000
C   1.94440000   5.90330000   -8.97161000
C   1.95339000   2.96642000   -8.52545000
C   0.68424000   5.14522000   -8.51078000
C   0.70203000   3.69968000   -9.01999000
H   1.95762000   5.91530000   -10.08586000
H   0.61591000   5.14508000   -7.40067000
H   0.67528000   3.69212000   -10.13087000
H   1.92156000   2.89641000   -7.41569000
C   12.07844000   -5.90074000   -8.40206000
C   14.61695000   -5.91366000   -8.34792000
C   13.36155000   -5.16557000   -8.85822000
H   14.59394000   -5.93470000   -7.23289000
H   14.66931000   -2.95216000   -9.90298000
C   14.64215000   -2.97377000   -8.78801000
C   13.35699000   -3.70881000   -8.33636000
H   13.38630000   -5.14611000   -9.97326000
C   12.10465000   -2.96035000   -8.85267000
C   10.81752000   -3.69240000   -8.40030000
C   10.82243000   -5.15553000   -8.91632000
H   10.84978000   -5.13974000   -10.03137000
H   12.05337000   -5.91836000   -7.28709000
H   13.32950000   -3.72831000   -7.22143000
H   12.13325000   -2.94237000   -9.96758000
H   10.79037000   -3.70828000   -7.28527000
C   12.10258000   -1.50324000   -8.33141000
C   14.63882000   -1.51800000   -8.26261000
C   13.38993000   -0.76856000   -8.77996000
C   10.85582000   -0.75279000   -8.85268000
H   12.07082000   -1.52143000   -7.21657000
H   14.60913000   -1.53947000   -7.14774000
H   10.88983000   -0.73612000   -9.96778000
H   13.42126000   -0.74899000   -9.89502000
C   9.56030000   -1.48007000   -8.40664000
C   9.56149000   -2.94277000   -8.91660000
C   9.53488000   -5.89180000   -8.46225000
C   8.33234000   -0.70881000   -8.92851000
C   8.29235000   -3.68910000   -8.46405000
C   8.29742000   -5.13243000   -8.97672000
H   8.31884000   -0.70771000   -10.04067000
H   9.51863000   -1.49236000   -7.29313000
H   9.58155000   -2.93035000   -10.03072000
H   8.21653000   -3.69054000   -7.35447000
H   8.27635000   -5.13056000   -10.08867000
H   9.50011000   -5.90389000   -7.34855000
C   8.34004000   0.73634000   -8.41795000
C   9.62186000   1.45663000   -8.84949000
C   10.85998000   0.70817000   -8.33391000
C   12.14397000   1.43285000   -8.77300000
C   13.38744000   0.68989000   -8.25780000
C   14.67114000   1.41867000   -8.69500000
H   8.25858000   0.74386000   -7.30975000
H   10.82590000   0.70390000   -7.22096000
H   13.35401000   0.68302000   -7.14493000
H   9.64545000   1.52738000   -9.95940000
H   12.17816000   1.50164000   -9.88382000
H   14.70435000   1.49134000   -9.80554000
C   14.62197000   5.88827000   -8.87249000
C   13.34296000   5.15230000   -8.41285000
C   12.08612000   5.89990000   -8.92259000
H   14.64255000   5.90914000   -9.98762000
C   13.34977000   3.69334000   -8.93365000
H   13.32188000   5.13366000   -7.29761000
C   12.07553000   2.96397000   -8.47805000
C   10.82207000   3.70148000   -8.97970000
C   10.80781000   5.16287000   -8.46235000
H   13.36874000   3.69926000   -10.04690000
H   12.10812000   5.91762000   -10.03770000
H   10.78720000   5.14679000   -7.34691000
H   10.84252000   3.70508000   -10.09302000
H   12.05542000   2.89626000   -7.36684000
C   14.60421000   2.95203000   -8.43655000
H   14.58653000   2.88120000   -7.32559000
C   9.54340000   5.90330000   -8.97161000
C   9.55239000   2.96642000   -8.52545000
C   8.28324000   5.14522000   -8.51078000
C   8.30103000   3.69968000   -9.01999000
H   9.55662000   5.91530000   -10.08586000
H   8.21491000   5.14508000   -7.40067000
H   8.27428000   3.69212000   -10.13087000
H   9.52056000   2.89641000   -7.41569000
C   -10.71856000   -5.90074000   8.59794000
C   -8.18005000   -5.91366000   8.65208000
C   -9.43545000   -5.16557000   8.14178000
H   -8.20306000   -5.93470000   9.76711000
H   -8.12769000   -2.95216000   7.09702000
C   -8.15485000   -2.97377000   8.21199000
C   -9.44001000   -3.70881000   8.66364000
H   -9.41070000   -5.14611000   7.02674000
C   -10.69235000   -2.96035000   8.14733000
C   -11.97948000   -3.69240000   8.59970000
C   -11.97457000   -5.15553000   8.08368000
H   -11.94722000   -5.13974000   6.96863000
H   -10.74363000   -5.91836000   9.71291000
H   -9.46750000   -3.72831000   9.77857000
H   -10.66375000   -2.94237000   7.03242000
H   -12.00663000   -3.70828000   9.71473000
C   -10.69442000   -1.50324000   8.66859000
C   -8.15818000   -1.51800000   8.73739000
C   -9.40707000   -0.76856000   8.22004000
C   -11.94118000   -0.75279000   8.14732000
H   -10.72618000   -1.52143000   9.78343000
H   -8.18787000   -1.53947000   9.85226000
H   -11.90717000   -0.73612000   7.03222000
H   -9.37574000   -0.74899000   7.10498000
C   -13.23670000   -1.48007000   8.59336000
C   -13.23551000   -2.94277000   8.08340000
C   -13.26212000   -5.89180000   8.53775000
C   -14.46466000   -0.70881000   8.07149000
C   -14.50465000   -3.68910000   8.53595000
C   -14.49958000   -5.13243000   8.02328000
H   -14.47816000   -0.70771000   6.95933000
H   -13.27837000   -1.49236000   9.70687000
H   -13.21545000   -2.93035000   6.96928000
H   -14.58047000   -3.69054000   9.64553000
H   -14.52065000   -5.13056000   6.91133000
H   -13.29689000   -5.90389000   9.65145000
C   -14.45696000   0.73634000   8.58205000
C   -13.17514000   1.45663000   8.15051000
C   -11.93702000   0.70817000   8.66609000
C   -10.65303000   1.43285000   8.22700000
C   -9.40956000   0.68989000   8.74220000
C   -8.12586000   1.41867000   8.30500000
H   -14.53842000   0.74386000   9.69025000
H   -11.97110000   0.70390000   9.77904000
H   -9.44299000   0.68302000   9.85507000
H   -13.15155000   1.52738000   7.04060000
H   -10.61884000   1.50164000   7.11618000
H   -8.09265000   1.49134000   7.19446000
C   -8.17503000   5.88827000   8.12751000
C   -9.45404000   5.15230000   8.58715000
C   -10.71088000   5.89990000   8.07741000
H   -8.15445000   5.90914000   7.01238000
C   -9.44723000   3.69334000   8.06635000
H   -9.47512000   5.13366000   9.70239000
C   -10.72147000   2.96397000   8.52195000
C   -11.97493000   3.70148000   8.02030000
C   -11.98919000   5.16287000   8.53765000
H   -9.42826000   3.69926000   6.95310000
H   -10.68888000   5.91762000   6.96230000
H   -12.00980000   5.14679000   9.65309000
H   -11.95448000   3.70508000   6.90698000
H   -10.74158000   2.89626000   9.63316000
C   -8.19279000   2.95203000   8.56345000
H   -8.21047000   2.88120000   9.67441000
C   -13.25360000   5.90330000   8.02839000
C   -13.24461000   2.96642000   8.47455000
C   -14.51376000   5.14522000   8.48922000
C   -14.49597000   3.69968000   7.98001000
H   -13.24038000   5.91530000   6.91414000
H   -14.58209000   5.14508000   9.59933000
H   -14.52272000   3.69212000   6.86913000
H   -13.27644000   2.89641000   9.58431000
C   -3.11956000   -5.90074000   8.59794000
C   -0.58105000   -5.91366000   8.65208000
C   -1.83645000   -5.16557000   8.14178000
H   -0.60406000   -5.93470000   9.76711000
H   -0.52869000   -2.95216000   7.09702000
C   -0.55585000   -2.97377000   8.21199000
C   -1.84101000   -3.70881000   8.66364000
H   -1.81170000   -5.14611000   7.02674000
C   -3.09335000   -2.96035000   8.14733000
C   -4.38048000   -3.69240000   8.59970000
C   -4.37557000   -5.15553000   8.08368000
H   -4.34822000   -5.13974000   6.96863000
H   -3.14463000   -5.91836000   9.71291000
H   -1.86850000   -3.72831000   9.77857000
H   -3.06475000   -2.94237000   7.03242000
H   -4.40763000   -3.70828000   9.71473000
C   -3.09542000   -1.50324000   8.66859000
C   -0.55918000   -1.51800000   8.73739000
C   -1.80807000   -0.76856000   8.22004000
C   -4.34218000   -0.75279000   8.14732000
H   -3.12718000   -1.52143000   9.78343000
H   -0.58887000   -1.53947000   9.85226000
H   -1.77674000   -0.74899000   7.10498000
C   -5.63770000   -1.48007000   8.59336000
C   -5.63651000   -2.94277000   8.08340000
C   -5.66312000   -5.89180000   8.53775000
C   -6.86566000   -0.70881000   8.07149000
C   -6.90565000   -3.68910000   8.53595000
C   -6.90058000   -5.13243000   8.02328000
H   -6.87916000   -0.70771000   6.95933000
H   -5.67937000   -1.49236000   9.70687000
H   -5.61645000   -2.93035000   6.96928000
H   -6.98147000   -3.69054000   9.64553000
H   -6.92165000   -5.13056000   6.91133000
H   -5.69789000   -5.90389000   9.65145000
C   -6.85796000   0.73634000   8.58205000
C   -5.57614000   1.45663000   8.15051000
C   -4.33802000   0.70817000   8.66609000
C   -3.05403000   1.43285000   8.22700000
C   -1.81056000   0.68989000   8.74220000
C   -0.52686000   1.41867000   8.30500000
H   -6.93942000   0.74386000   9.69025000
H   -4.37210000   0.70390000   9.77904000
H   -1.84399000   0.68302000   9.85507000
H   -5.55255000   1.52738000   7.04060000
H   -3.01984000   1.50164000   7.11618000
H   -0.49365000   1.49134000   7.19446000
C   -0.57603000   5.88827000   8.12751000
C   -1.85504000   5.15230000   8.58715000
C   -3.11188000   5.89990000   8.07741000
H   -0.55545000   5.90914000   7.01238000
C   -1.84823000   3.69334000   8.06635000
H   -1.87612000   5.13366000   9.70239000
C   -3.12247000   2.96397000   8.52195000
C   -4.37593000   3.70148000   8.02030000
C   -4.39019000   5.16287000   8.53765000
H   -1.82926000   3.69926000   6.95310000
H   -3.08988000   5.91762000   6.96230000
H   -4.41080000   5.14679000   9.65309000
H   -4.35548000   3.70508000   6.90698000
H   -3.14258000   2.89626000   9.63316000
C   -0.59379000   2.95203000   8.56345000
H   -0.61147000   2.88120000   9.67441000
C   -5.65460000   5.90330000   8.02839000
C   -5.64561000   2.96642000   8.47455000
C   -6.91476000   5.14522000   8.48922000
C   -6.89697000   3.69968000   7.98001000
H   -5.64138000   5.91530000   6.91414000
H   -6.98309000   5.14508000   9.59933000
H   -6.92372000   3.69212000   6.86913000
H   -5.67744000   2.89641000   9.58431000
C   4.47944000   -5.90074000   8.59794000
C   7.01795000   -5.91366000   8.65208000
C   5.76255000   -5.16557000   8.14178000
H   6.99494000   -5.93470000   9.76711000
H   7.07031000   -2.95216000   7.09702000
C   7.04315000   -2.97377000   8.21199000
C   5.75799000   -3.70881000   8.66364000
H   5.78730000   -5.14611000   7.02674000
C   4.50565000   -2.96035000   8.14733000
C   3.21852000   -3.69240000   8.59970000
C   3.22343000   -5.15553000   8.08368000
H   3.25078000   -5.13974000   6.96863000
H   4.45437000   -5.91836000   9.71291000
H   5.73050000   -3.72831000   9.77857000
H   4.53425000   -2.94237000   7.03242000
H   3.19137000   -3.70828000   9.71473000
C   4.50358000   -1.50324000   8.66859000
C   7.03982000   -1.51800000   8.73739000
C   5.79093000   -0.76856000   8.22004000
C   3.25682000   -0.75279000   8.14732000
H   4.47182000   -1.52143000   9.78343000
H   7.01013000   -1.53947000   9.85226000
H   3.29083000   -0.73612000   7.03222000
C   1.96130000   -1.48007000   8.59336000
C   1.96249000   -2.94277000   8.08340000
C   1.93588000   -5.89180000   8.53775000
C   0.73334000   -0.70881000   8.07149000
C   0.69335000   -3.68910000   8.53595000
C   0.69842000   -5.13243000   8.02328000
H   0.71984000   -0.70771000   6.95933000
H   1.91963000   -1.49236000   9.70687000
H   1.98255000   -2.93035000   6.96928000
H   0.61753000   -3.69054000   9.64553000
H   0.67735000   -5.13056000   6.91133000
H   1.90111000   -5.90389000   9.65145000
C   0.74104000   0.73634000   8.58205000
C   2.02286000   1.45663000   8.15051000
C   3.26098000   0.70817000   8.66609000
C   4.54497000   1.43285000   8.22700000
C   5.78844000   0.68989000   8.74220000
C   7.07214000   1.41867000   8.30500000
H   0.65958000   0.74386000   9.69025000
H   3.22690000   0.70390000   9.77904000
H   5.75501000   0.68302000   9.85507000
H   2.04645000   1.52738000   7.04060000
H   4.57916000   1.50164000   7.11618000
H   7.10535000   1.49134000   7.19446000
C   7.02297000   5.88827000   8.12751000
C   5.74396000   5.15230000   8.58715000
C   4.48712000   5.89990000   8.07741000
H   7.04355000   5.90914000   7.01238000
C   5.75077000   3.69334000   8.06635000
H   5.72288000   5.13366000   9.70239000
C   4.47653000   2.96397000   8.52195000
C   3.22307000   3.70148000   8.02030000
C   3.20881000   5.16287000   8.53765000
H   5.76974000   3.69926000   6.95310000
H   4.50912000   5.91762000   6.96230000
H   3.18820000   5.14679000   9.65309000
H   3.24352000   3.70508000   6.90698000
H   4.45642000   2.89626000   9.63316000
C   7.00521000   2.95203000   8.56345000
H   6.98753000   2.88120000   9.67441000
C   1.94440000   5.90330000   8.02839000
C   1.95339000   2.96642000   8.47455000
C   0.68424000   5.14522000   8.48922000
C   0.70203000   3.69968000   7.98001000
H   1.95762000   5.91530000   6.91414000
H   0.61591000   5.14508000   9.59933000
H   0.67528000   3.69212000   6.86913000
H   1.92156000   2.89641000   9.58431000
C   12.07844000   -5.90074000   8.59794000
C   14.61695000   -5.91366000   8.65208000
C   13.36155000   -5.16557000   8.14178000
H   14.59394000   -5.93470000   9.76711000
H   14.66931000   -2.95216000   7.09702000
C   14.64215000   -2.97377000   8.21199000
C   13.35699000   -3.70881000   8.66364000
H   13.38630000   -5.14611000   7.02674000
C   12.10465000   -2.96035000   8.14733000
C   10.81752000   -3.69240000   8.59970000
C   10.82243000   -5.15553000   8.08368000
H   10.84978000   -5.13974000   6.96863000
H   12.05337000   -5.91836000   9.71291000
H   13.32950000   -3.72831000   9.77857000
H   12.13325000   -2.94237000   7.03242000
H   10.79037000   -3.70828000   9.71473000
C   12.10258000   -1.50324000   8.66859000
C   14.63882000   -1.51800000   8.73739000
C   13.38993000   -0.76856000   8.22004000
C   10.85582000   -0.75279000   8.14732000
H   12.07082000   -1.52143000   9.78343000
H   14.60913000   -1.53947000   9.85226000
H   10.88983000   -0.73612000   7.03222000
H   13.42126000   -0.74899000   7.10498000
C   9.56030000   -1.48007000   8.59336000
C   9.56149000   -2.94277000   8.08340000
C   9.53488000   -5.89180000   8.53775000
C   8.33234000   -0.70881000   8.07149000
C   8.29235000   -3.68910000   8.53595000
C   8.29742000   -5.13243000   8.02328000
H   8.31884000   -0.70771000   6.95933000
H   9.51863000   -1.49236000   9.70687000
H   9.58155000   -2.93035000   6.96928000
H   8.21653000   -3.69054000   9.64553000
H   8.27635000   -5.13056000   6.91133000
H   9.50011000   -5.90389000   9.65145000
C   8.34004000   0.73634000   8.58205000
C   9.62186000   1.45663000   8.15051000
C   10.85998000   0.70817000   8.66609000
C   12.14397000   1.43285000   8.22700000
C   13.38744000   0.68989000   8.74220000
C   14.67114000   1.41867000   8.30500000
H   8.25858000   0.74386000   9.69025000
H   10.82590000   0.70390000   9.77904000
H   13.35401000   0.68302000   9.85507000
H   9.64545000   1.52738000   7.04060000
H   12.17816000   1.50164000   7.11618000
H   14.70435000   1.49134000   7.19446000
C   14.62197000   5.88827000   8.12751000
C   13.34296000   5.15230000   8.58715000
C   12.08612000   5.89990000   8.07741000
H   14.64255000   5.90914000   7.01238000
C   13.34977000   3.69334000   8.06635000
H   13.32188000   5.13366000   9.70239000
C   12.07553000   2.96397000   8.52195000
C   10.82207000   3.70148000   8.02030000
C   10.80781000   5.16287000   8.53765000
H   13.36874000   3.69926000   6.95310000
H   12.10812000   5.91762000   6.96230000
H   10.78720000   5.14679000   9.65309000
H   10.84252000   3.70508000   6.90698000
H   12.05542000   2.89626000   9.63316000
C   14.60421000   2.95203000   8.56345000
H   14.58653000   2.88120000   9.67441000
C   9.54340000   5.90330000   8.02839000
C   9.55239000   2.96642000   8.47455000
C   8.28324000   5.14522000   8.48922000
C   8.30103000   3.69968000   7.98001000
H   9.55662000   5.91530000   6.91414000
H   8.21491000   5.14508000   9.59933000
H   8.27428000   3.69212000   6.86913000
H   9.52056000   2.89641000   9.58431000
N   -8.47037555   -1.94845987   3.76577895
C   -3.58242408   -1.29623987   5.49707759
H   -2.85177265   -2.02337940   5.50016553
H   -3.81882393   -0.80790434   4.68400079
C   -4.31249866   -0.75493828   6.52018576
H   -5.06309626   -0.05868977   6.26900865
H   -8.11475234   -4.07528961   3.66719516
C   -9.32657454   -2.06183681   2.60671366
H   -9.75413438   -3.01205635   2.26729486
H   -10.20739257   -1.50216791   2.38672270
H   -8.87881133   -1.52230211   1.80835617
C   -7.48124805   -3.12244527   3.90284308
H   -7.32676622   -3.01723934   5.00839486
H   -6.49667781   -3.24825694   3.55162596
H   2.23425882   -41.82115813   0.41422073
C   -7.78640201   -0.70870367   4.12249804
H   -7.64821924   0.03165829   3.29945250
H   -8.15904923   -0.30842062   5.13648867
H   -6.76976223   -1.02366581   4.25722094
N   5.43423745   -4.05701067   1.20419920
H   4.04978038   0.50705798   5.58299256
H   5.54406148   -0.25028167   4.74799341
C   4.39755260   -3.43467472   2.05447766
H   3.41035662   -3.33127952   1.73442480
H   4.12097246   -3.88399211   2.99490428
C   4.64127400   -1.88710033   2.46356343
H   5.62470912   -1.76929085   2.76546507
H   4.46204528   -1.24918032   1.60303992
C   5.83255972   -0.66350905   6.66824881
H   6.40656997   -1.52898272   6.24979274
H   6.40697525   0.33822459   6.63589918
C   4.73222032   -0.39808095   5.54351773
C   4.03210586   -1.71721808   4.98411546
H   3.00003278   -1.84442992   5.36411111
H   4.59587927   -2.54363733   4.87937889
C   3.70937205   -1.37589736   3.42833838
H   2.72183699   -1.53694031   2.98863905
H   3.86467817   -0.25260484   3.42110334
C   4.75388007   -5.47038709   0.64412151
H   5.44557785   -6.25397955   0.14586429
H   3.90234675   -5.21493143   0.01751797
H   4.55299423   -5.99084092   1.56717837
C   6.58935676   -4.37852563   2.16469494
H   7.48779894   -4.34842158   1.66060764
H   6.54426396   -5.39261213   2.22850924
H   6.35711781   -3.91315957   3.11189807
C   5.99329695   -3.19279914   -0.13444240
H   5.40665734   -3.51798483   -1.01576106
H   5.38542678   -9.29490842   -3.21977265
H   5.69745668   -2.15566064   0.17722415
O   11.37156369   6.27660149   5.03590418
H   0.54629611   3.54307441   -4.52176802
H   9.20066837   3.41546706   3.42820455
O   27.36207577   15.47854093   -5.03919866
H   27.37813886   15.81664430   -4.08819239
H   -12.88571228   -22.00766278   2.49248139
O   10.24585834   -21.61740704   -4.91273455
H   10.11434537   -20.74942799   -5.10079911
H   39.69697588   -21.94316225   -4.99721265
O   9.06862446   -47.41217742   -2.67966174
H   8.44463568   -47.93169782   -3.32645643
H   10.00526152   -47.44883454   -2.75520747
O   4.32675513   -17.03000599   -3.16385991
H   -37.16862003   -28.02654664   -0.01432117
H   -30.23292606   -20.77453391   -4.62997004
O   -21.44981398   4.32555137   -0.04330144
H   -30.65966509   -20.12890076   -2.94168098
H   -20.73646124   3.77630819   0.39524301
O   -37.28823091   -27.55224209   -0.80156624
H   9.39352463   4.94131684   3.30634842
H   -36.51941779   -27.43020691   -1.10954008
O   25.69761279   0.63161982   -3.07809686
H   26.48777972   0.25208019   -3.54290027
H   -36.45293201   9.30951576   -2.55722659
O   -21.15678105   -11.03523924   -3.13990718
H   -20.58878646   -10.24980249   -3.35166463
H   15.04985874   25.97436571   -2.18454964
O   -12.25377867   14.19526752   5.32687942
H   10.85765289   7.11197903   4.71506992
H   -0.42322335   2.88612442   -5.79197879
O   -30.38996911   0.35597161   -1.96626360
H   -29.86860797   -0.16469718   -2.78648670
H   -31.36426843   0.24051662   -1.60451875
O   14.49001571   25.03404053   -1.80491717
H   16.55845837   20.86683320   -0.74970190
H   3.56615457   -17.34544185   -3.69342716
O   -4.25704116   3.08493675   2.28327936
H   -3.97396929   3.39915991   3.09846578
H   -4.83804122   3.72914170   1.57850442
O   5.09437689   -21.99005586   -2.60258942
H   12.31939182   -40.61880990   -5.33185526
H   11.94752007   2.76028087   2.30330847
O   5.30239034   -7.85701581   3.84731057
H   28.10842643   37.42862817   1.89192138
H   -21.07220575   5.25551141   -0.10893204
O   -5.71367508   47.35416570   2.61519310
H   -5.29793555   48.12282552   2.96676159
H   19.12828258   -4.65974757   -4.42431269
O   -35.95494559   22.84050886   1.48108293
H   -36.79454611   23.25590088   1.68379211
H   -36.22072398   22.08620495   1.15157777
O   -18.95605182   -4.48853876   3.37853910
H   -19.32545201   -4.34635430   2.54211674
H   -18.09081219   -4.31934003   3.17603297
O   28.29050808   37.85103918   1.02932047
H   -39.26424327   5.55841997   0.36880646
H   29.19769700   38.06679309   0.76378399
O   -12.93360798   -8.05310466   -4.45645480
H   7.29180832   -1.39824437   -3.70405916
H   -12.78359590   -8.84232152   -4.98950583
O   38.08457152   7.06070244   -0.28073622
H   38.52448979   7.03709418   0.55650690
H   38.45472144   6.31727380   -0.85935990
O   -30.43134142   9.61859314   -2.45690266
H   -30.39780064   9.81165539   -3.30034877
H   -29.97555908   8.77470737   -2.45785867
O   -15.57583253   31.45162519   4.28626830
H   53.70352866   -20.40913390   -3.05424247
H   -14.71701982   31.87625392   4.39316643
O   17.33304549   2.78319040   -3.08028892
H   18.31635083   2.74277331   -3.21379661
H   17.05708125   2.81547252   -2.20190190
O   4.11911238   -0.85291765   -2.56062828
H   11.26838340   47.46382553   -2.89086494
H   -16.04945393   32.15410808   4.71382979
O   1.78699827   -42.51988473   -0.20806269
H   -37.75327969   -36.76478962   -0.75761475
H   2.22990270   -43.28741364   -0.32021299
O   6.88645796   -12.13528904   -4.20730580
H   7.36497082   -12.56142047   -4.89642905
H   44.70869852   5.12652579   2.46509868
O   11.61123239   47.18690070   -3.78293003
H   17.38947094   -23.93873370   0.40188512
H   3.70165674   -0.77225078   -1.66214474
O   45.17410098   5.19255703   1.39832882
H   31.88460578   -18.18924597   -6.09080697
H   45.69943083   4.34914880   1.41301387
O   -13.84839481   -54.98336589   -4.97527667
H   -13.72588022   -53.99356174   -5.15977860
H   17.62454474   -25.19249688   0.41036290
O   10.46332288   -28.45700023   -0.48356644
H   10.20976176   -29.33769616   -1.12734070
H   10.06901004   -27.91259181   -1.23918352
O   6.48348395   -41.55232302   -4.28891213
H   5.82582263   -41.47186523   -3.68775025
H   6.08952691   -38.39387986   -0.41003582
O   31.54128466   -17.78243037   -5.34817940
H   32.14697342   -17.88864376   -4.44417200
H   6.35930640   -12.80885847   -3.52262153
O   -69.29550364   8.16249368   -3.97519377
H   -69.87809188   7.53329664   -4.27864628
H   -38.31322759   8.24041421   -4.91328859
O   38.12300251   0.27127466   0.51951059
H   -12.40067633   18.52532712   0.16956288
H   38.41282514   1.11979305   0.18535701
O   -14.83038346   -19.15999661   -4.15621333
H   -15.10280682   -19.06708979   -3.31664134
H   -14.88223358   -20.17119732   -4.09152542
O   7.96634982   2.33288079   4.27976091
H   -2.51693037   -20.46619122   -5.63875770
H   7.46482839   2.19320201   5.10872334
O   19.02910208   -5.47649257   -4.60749760
H   16.93686337   33.43065492   0.37165523
H   11.13169967   15.61546064   1.15954354
O   -37.69183278   -50.94531838   -0.14079649
H   -37.08118842   -51.41833228   -0.63181086
H   -47.24381132   4.36056826   -2.08854008
O   0.65851262   0.77698027   0.93849680
H   0.62124970   -0.13284752   0.80959084
H   0.49176875   1.25899672   0.05348959
O   -9.54581166   -7.95455518   -0.40335045
H   3.58950787   -14.95541854   -2.93183459
H   -9.15063962   5.48786870   -1.25348784
O   -19.10090843   -33.68642287   0.33536991
H   -18.61122431   -32.86194748   0.32708205
H   -18.28946293   -34.27164934   0.21676350
O   -12.01432160   17.81648896   0.47605366
H   -26.82762295   15.12518339   -3.36054613
H   -11.17855368   18.41754937   0.32551965
O   -30.15039875   -19.96853944   -3.83118434
H   11.92436438   6.13594906   4.26224158
H   14.20279441   24.79500412   -2.71739737
O   28.71142574   16.92922724   -0.24677593
H   27.76509414   16.45572625   -0.07614309
H   28.76025192   17.42262671   -1.05555551
O   -32.39792445   -20.20420380   0.40387306
H   -32.61644318   -19.40349382   0.91284651
H   -32.17703869   -19.86328770   -0.35767812
O   7.91608783   -41.21383980   -2.10953800
H   8.34761476   -40.47434679   -2.55406442
H   8.47297147   -41.48832250   -1.18067287
O   -47.95033904   18.39051328   -2.39797463
H   -48.28175709   18.04954347   -3.24421729
H   -13.17662471   -8.38356582   -3.61731521
O   0.44235727   -21.05882086   -0.56497369
H   0.24028424   -21.99295064   -0.26588016
H   0.47413232   -20.35011893   0.28533102
O   2.94034506   28.94326123   3.44456507
H   2.57403793   28.74182891   2.53808169
H   2.66784087   29.85954712   3.72980529
O   -8.82979665   -12.88523237   -3.47741294
H   -8.42380670   -13.58388555   -3.93250926
H   -9.85525901   -13.13773105   -3.54298148
O   -2.01796246   -20.95655538   -4.98057700
H   -1.68235666   -21.73005472   -5.55540641
H   7.60953751   1.43962806   3.83699447
O   25.05287915   12.74549066   1.49491716
H   4.53272599   -7.36969969   3.94060067
H   25.20213191   12.66291807   2.44506579
O   5.82490765   16.10089662   -0.21079380
H   -6.27672432   60.28140459   3.16391496
H   6.27017422   16.80284248   -0.58629470
O   11.91047472   15.54286089   1.64605183
H   18.60641209   -6.14848541   -3.98319026
H   12.36665110   46.54874462   -3.75384279
O   0.92955413   8.36631231   0.24009114
H   0.98648710   7.75506626   -0.58625488
H   1.34953492   7.71648295   0.91266407
O   9.87412354   -42.92308840   -3.38751514
H   9.15374776   -43.37865255   -3.14057270
H   10.55162103   -43.54395308   -3.76789003
O   14.93030514   10.13646606   1.12484942
H   37.24399791   0.60634276   0.70079475
H   16.03779458   10.27369159   1.60913860
O   12.45129472   -54.52602478   -4.58849285
H   35.85458085   -21.34331712   2.90853447
H   -13.21555165   -68.78716377   -5.43221990
O   40.15748809   -18.18715148   0.13396962
H   40.93592802   -17.47069856   0.27094063
H   39.51305100   -17.54682594   -0.20061120
O   53.26678467   -21.26457267   -3.21483710
H   11.59442246   -28.28663362   -4.45242866
H   53.88247750   -21.77331870   -3.93579825
O   16.96219316   -24.63979505   0.14303682
H   45.17795469   -11.99148589   2.86991487
H   32.44380599   -3.43377002   4.00913100
O   31.49905103   -3.47958694   3.88386433
H   4.30126615   -22.29107727   -2.24870154
H   31.11269449   -2.65970822   3.99574426
O   17.90952783   -15.96021398   -2.04770525
H   17.10683083   -16.48761483   -1.80514374
H   18.65240596   -16.34816991   -1.56701469
O   -21.64147500   -41.57758321   4.09615999
H   -11.98535015   15.02491570   5.51977905
H   -22.13926543   -42.26557879   4.27894136
O   -0.42245080   3.23218334   -4.88803307
H   25.07144928   -0.06734618   -2.64706896
H   -11.45924904   13.69417142   5.68251175
O   -15.48688941   -50.36153086   -1.76473951
H   -14.66175229   -49.72961844   -1.35096644
H   -15.35171790   -37.94495685   -1.44762578
O   -26.65759124   15.94375372   -3.52769228
H   -25.87928072   15.95929418   -3.28276969
H   14.59952629   10.77961516   0.47529726
O   61.25709692   32.20998887   4.20863707
H   61.36235465   33.13481156   4.53820225
H   60.53828327   32.50036091   3.60099185
O   -36.52295954   8.38574039   -1.93259238
H   -21.58009308   -11.04006816   -2.20157224
H   4.95323502   -16.49473746   -3.47259605
O   17.13570379   20.87292532   0.00475052
H   -20.95854313   -42.13589138   3.65832479
H   -35.83523478   8.39531848   -1.27396475
O   -12.79074437   -21.30391402   3.28177306
H   -13.51610931   -20.85059417   2.81470232
H   24.14790965   12.65858220   1.28439697
O   9.60147148   4.02068196   2.86100226
H   26.56733299   15.31415809   -5.46154020
O   45.72819456   -12.81770203   2.69848447
H   45.33499611   -13.00888078   1.88771750
