850

C        -10.80240       -5.93683       -8.69032
C         -8.26389       -5.94975       -8.63618
C         -9.51929       -5.20166       -9.14648
H         -8.28690       -5.97079       -7.52115
H         -8.21153       -2.98825      -10.19124
C         -8.23869       -3.00986       -9.07627
C         -9.52385       -3.74490       -8.62462
H         -9.49454       -5.18220      -10.26152
C        -10.77619       -2.99644       -9.14093
C        -12.06332       -3.72849       -8.68856
C        -12.05841       -5.19162       -9.20458
H        -12.03106       -5.17583      -10.31963
H        -10.82747       -5.95445       -7.57535
H         -9.55134       -3.76440       -7.50969
H        -10.74759       -2.97846      -10.25584
H        -12.09047       -3.74437       -7.57353
C        -10.77826       -1.53933       -8.61967
C         -8.24202       -1.55409       -8.55087
C         -9.49091       -0.80465       -9.06822
C        -12.02502       -0.78888       -9.14094
H        -10.81002       -1.55752       -7.50483
H         -8.27171       -1.57556       -7.43600
H        -11.99101       -0.77221      -10.25604
H         -9.45958       -0.78508      -10.18328
C        -13.32054       -1.51616       -8.69490
C        -13.31935       -2.97886       -9.20486
C        -13.34596       -5.92789       -8.75051
C        -14.54850       -0.74490       -9.21677
C        -14.58849       -3.72519       -8.75231
C        -14.58342       -5.16852       -9.26498
H        -14.56200       -0.74380      -10.32893
H        -13.36221       -1.52845       -7.58139
H        -13.29929       -2.96644      -10.31898
H        -14.66431       -3.72663       -7.64273
H        -14.60449       -5.16665      -10.37693
H        -13.38073       -5.93998       -7.63681
C        -14.54080        0.70025       -8.70621
C        -13.25898        1.42054       -9.13775
C        -12.02086        0.67208       -8.62217
C        -10.73687        1.39676       -9.06126
C         -9.49340        0.65380       -8.54606
C         -8.20970        1.38258       -8.98326
H        -14.62226        0.70777       -7.59801
H        -12.05494        0.66781       -7.50922
H         -9.52683        0.64693       -7.43319
H        -13.23539        1.49129      -10.24766
H        -10.70268        1.46555      -10.17208
H         -8.17649        1.45525      -10.09380
C         -8.25887        5.85218       -9.16075
C         -9.53788        5.11621       -8.70111
C        -10.79472        5.86381       -9.21085
H         -8.23829        5.87305      -10.27588
C         -9.53107        3.65725       -9.22191
H         -9.55896        5.09757       -7.58587
C        -10.80531        2.92788       -8.76631
C        -12.05877        3.66539       -9.26796
C        -12.07303        5.12678       -8.75061
H         -9.51210        3.66317      -10.33516
H        -10.77272        5.88153      -10.32596
H        -12.09364        5.11070       -7.63517
H        -12.03832        3.66899      -10.38128
H        -10.82542        2.86017       -7.65510
C         -8.27663        2.91594       -8.72481
H         -8.29431        2.84511       -7.61385
C        -13.33744        5.86721       -9.25987
C        -13.32845        2.93033       -8.81371
C        -14.59760        5.10913       -8.79904
C        -14.57981        3.66359       -9.30825
H        -13.32422        5.87921      -10.37412
H        -14.66593        5.10899       -7.68893
H        -14.60656        3.65603      -10.41913
H        -13.36028        2.86032       -7.70395
C         -3.20340       -5.93683       -8.69032
C         -0.66489       -5.94975       -8.63618
C         -1.92029       -5.20166       -9.14648
H         -0.68790       -5.97079       -7.52115
H         -0.61253       -2.98825      -10.19124
C         -0.63969       -3.00986       -9.07627
C         -1.92485       -3.74490       -8.62462
H         -1.89554       -5.18220      -10.26152
C         -3.17719       -2.99644       -9.14093
C         -4.46432       -3.72849       -8.68856
C         -4.45941       -5.19162       -9.20458
H         -4.43206       -5.17583      -10.31963
H         -3.22847       -5.95445       -7.57535
H         -1.95234       -3.76440       -7.50969
H         -3.14859       -2.97846      -10.25584
H         -4.49147       -3.74437       -7.57353
C         -3.17926       -1.53933       -8.61967
C         -0.64302       -1.55409       -8.55087
C         -1.89191       -0.80465       -9.06822
C         -4.42602       -0.78888       -9.14094
H         -3.21102       -1.55752       -7.50483
H         -0.67271       -1.57556       -7.43600
H         -4.39201       -0.77221      -10.25604
H         -1.86058       -0.78508      -10.18328
C         -5.72154       -1.51616       -8.69490
C         -5.72035       -2.97886       -9.20486
C         -5.74696       -5.92789       -8.75051
C         -6.94950       -0.74490       -9.21677
C         -6.98949       -3.72519       -8.75231
C         -6.98442       -5.16852       -9.26498
H         -6.96300       -0.74380      -10.32893
H         -5.76321       -1.52845       -7.58139
H         -5.70029       -2.96644      -10.31898
H         -7.06531       -3.72663       -7.64273
H         -7.00549       -5.16665      -10.37693
H         -5.78173       -5.93998       -7.63681
C         -6.94180        0.70025       -8.70621
C         -5.65998        1.42054       -9.13775
C         -4.42186        0.67208       -8.62217
C         -3.13787        1.39676       -9.06126
C         -1.89440        0.65380       -8.54606
C         -0.61070        1.38258       -8.98326
H         -7.02326        0.70777       -7.59801
H         -4.45594        0.66781       -7.50922
H         -1.92783        0.64693       -7.43319
H         -5.63639        1.49129      -10.24766
H         -3.10368        1.46555      -10.17208
H         -0.57749        1.45525      -10.09380
C         -0.65987        5.85218       -9.16075
C         -1.93888        5.11621       -8.70111
C         -3.19572        5.86381       -9.21085
H         -0.63929        5.87305      -10.27588
C         -1.93207        3.65725       -9.22191
H         -1.95996        5.09757       -7.58587
C         -3.20631        2.92788       -8.76631
C         -4.45977        3.66539       -9.26796
C         -4.47403        5.12678       -8.75061
H         -1.91310        3.66317      -10.33516
H         -3.17372        5.88153      -10.32596
H         -4.49464        5.11070       -7.63517
H         -4.43932        3.66899      -10.38128
H         -3.22642        2.86017       -7.65510
C         -0.67763        2.91594       -8.72481
H         -0.69531        2.84511       -7.61385
C         -5.73844        5.86721       -9.25987
C         -5.72945        2.93033       -8.81371
C         -6.99860        5.10913       -8.79904
C         -6.98081        3.66359       -9.30825
H         -5.72522        5.87921      -10.37412
H         -7.06693        5.10899       -7.68893
H         -7.00756        3.65603      -10.41913
H         -5.76128        2.86032       -7.70395
C          4.39560       -5.93683       -8.69032
C          6.93411       -5.94975       -8.63618
C          5.67871       -5.20166       -9.14648
H          6.91110       -5.97079       -7.52115
H          6.98647       -2.98825      -10.19124
C          6.95931       -3.00986       -9.07627
C          5.67415       -3.74490       -8.62462
H          5.70346       -5.18220      -10.26152
C          4.42181       -2.99644       -9.14093
C          3.13468       -3.72849       -8.68856
C          3.13959       -5.19162       -9.20458
H          3.16694       -5.17583      -10.31963
H          4.37053       -5.95445       -7.57535
H          5.64666       -3.76440       -7.50969
H          4.45041       -2.97846      -10.25584
H          3.10753       -3.74437       -7.57353
C          4.41974       -1.53933       -8.61967
C          6.95598       -1.55409       -8.55087
C          5.70709       -0.80465       -9.06822
C          3.17298       -0.78888       -9.14094
H          4.38798       -1.55752       -7.50483
H          6.92629       -1.57556       -7.43600
H          3.20699       -0.77221      -10.25604
H          5.73842       -0.78508      -10.18328
C          1.87746       -1.51616       -8.69490
C          1.87865       -2.97886       -9.20486
C          1.85204       -5.92789       -8.75051
C          0.64950       -0.74490       -9.21677
C          0.60951       -3.72519       -8.75231
C          0.61458       -5.16852       -9.26498
H          0.63600       -0.74380      -10.32893
H          1.83579       -1.52845       -7.58139
H          1.89871       -2.96644      -10.31898
H          0.53369       -3.72663       -7.64273
H          0.59351       -5.16665      -10.37693
H          1.81727       -5.93998       -7.63681
C          0.65720        0.70025       -8.70621
C          1.93902        1.42054       -9.13775
C          3.17714        0.67208       -8.62217
C          4.46113        1.39676       -9.06126
C          5.70460        0.65380       -8.54606
C          6.98830        1.38258       -8.98326
H          0.57574        0.70777       -7.59801
H          3.14306        0.66781       -7.50922
H          5.67117        0.64693       -7.43319
H          1.96261        1.49129      -10.24766
H          4.49532        1.46555      -10.17208
H          7.02151        1.45525      -10.09380
C          6.93913        5.85218       -9.16075
C          5.66012        5.11621       -8.70111
C          4.40328        5.86381       -9.21085
H          6.95971        5.87305      -10.27588
C          5.66693        3.65725       -9.22191
H          5.63904        5.09757       -7.58587
C          4.39269        2.92788       -8.76631
C          3.13923        3.66539       -9.26796
C          3.12497        5.12678       -8.75061
H          5.68590        3.66317      -10.33516
H          4.42528        5.88153      -10.32596
H          3.10436        5.11070       -7.63517
H          3.15968        3.66899      -10.38128
H          4.37258        2.86017       -7.65510
C          6.92137        2.91594       -8.72481
H          6.90369        2.84511       -7.61385
C          1.86056        5.86721       -9.25987
C          1.86955        2.93033       -8.81371
C          0.60040        5.10913       -8.79904
C          0.61819        3.66359       -9.30825
H          1.87378        5.87921      -10.37412
H          0.53207        5.10899       -7.68893
H          0.59144        3.65603      -10.41913
H          1.83772        2.86032       -7.70395
C         11.99460       -5.93683       -8.69032
C         14.53311       -5.94975       -8.63618
C         13.27771       -5.20166       -9.14648
H         14.51010       -5.97079       -7.52115
H         14.58547       -2.98825      -10.19124
C         14.55831       -3.00986       -9.07627
C         13.27315       -3.74490       -8.62462
H         13.30246       -5.18220      -10.26152
C         12.02081       -2.99644       -9.14093
C         10.73368       -3.72849       -8.68856
C         10.73859       -5.19162       -9.20458
H         10.76594       -5.17583      -10.31963
H         11.96953       -5.95445       -7.57535
H         13.24566       -3.76440       -7.50969
H         12.04941       -2.97846      -10.25584
H         10.70653       -3.74437       -7.57353
C         12.01874       -1.53933       -8.61967
C         14.55498       -1.55409       -8.55087
C         13.30609       -0.80465       -9.06822
C         10.77198       -0.78888       -9.14094
H         11.98698       -1.55752       -7.50483
H         14.52529       -1.57556       -7.43600
H         10.80599       -0.77221      -10.25604
H         13.33742       -0.78508      -10.18328
C          9.47646       -1.51616       -8.69490
C          9.47765       -2.97886       -9.20486
C          9.45104       -5.92789       -8.75051
C          8.24850       -0.74490       -9.21677
C          8.20851       -3.72519       -8.75231
C          8.21358       -5.16852       -9.26498
H          8.23500       -0.74380      -10.32893
H          9.43479       -1.52845       -7.58139
H          9.49771       -2.96644      -10.31898
H          8.13269       -3.72663       -7.64273
H          8.19251       -5.16665      -10.37693
H          9.41627       -5.93998       -7.63681
C          8.25620        0.70025       -8.70621
C          9.53802        1.42054       -9.13775
C         10.77614        0.67208       -8.62217
C         12.06013        1.39676       -9.06126
C         13.30360        0.65380       -8.54606
C         14.58730        1.38258       -8.98326
H          8.17474        0.70777       -7.59801
H         10.74206        0.66781       -7.50922
H         13.27017        0.64693       -7.43319
H          9.56161        1.49129      -10.24766
H         12.09432        1.46555      -10.17208
H         14.62051        1.45525      -10.09380
C         14.53813        5.85218       -9.16075
C         13.25912        5.11621       -8.70111
C         12.00228        5.86381       -9.21085
H         14.55871        5.87305      -10.27588
C         13.26593        3.65725       -9.22191
H         13.23804        5.09757       -7.58587
C         11.99169        2.92788       -8.76631
C         10.73823        3.66539       -9.26796
C         10.72397        5.12678       -8.75061
H         13.28490        3.66317      -10.33516
H         12.02428        5.88153      -10.32596
H         10.70336        5.11070       -7.63517
H         10.75868        3.66899      -10.38128
H         11.97158        2.86017       -7.65510
C         14.52037        2.91594       -8.72481
H         14.50269        2.84511       -7.61385
C          9.45956        5.86721       -9.25987
C          9.46855        2.93033       -8.81371
C          8.19940        5.10913       -8.79904
C          8.21719        3.66359       -9.30825
H          9.47278        5.87921      -10.37412
H          8.13107        5.10899       -7.68893
H          8.19044        3.65603      -10.41913
H          9.43672        2.86032       -7.70395
C        -10.80240       -5.93683        8.80968
C         -8.26389       -5.94975        8.86382
C         -9.51929       -5.20166        8.35352
H         -8.28690       -5.97079        9.97885
H         -8.21153       -2.98825        7.30876
C         -8.23869       -3.00986        8.42373
C         -9.52385       -3.74490        8.87538
H         -9.49454       -5.18220        7.23848
C        -10.77619       -2.99644        8.35907
C        -12.06332       -3.72849        8.81144
C        -12.05841       -5.19162        8.29542
H        -12.03106       -5.17583        7.18037
H        -10.82747       -5.95445        9.92465
H         -9.55134       -3.76440        9.99031
H        -10.74759       -2.97846        7.24416
H        -12.09047       -3.74437        9.92647
C        -10.77826       -1.53933        8.88033
C         -8.24202       -1.55409        8.94913
C         -9.49091       -0.80465        8.43178
C        -12.02502       -0.78888        8.35906
H        -10.81002       -1.55752        9.99517
H         -8.27171       -1.57556       10.06400
H        -11.99101       -0.77221        7.24396
H         -9.45958       -0.78508        7.31672
C        -13.32054       -1.51616        8.80510
C        -13.31935       -2.97886        8.29514
C        -13.34596       -5.92789        8.74949
C        -14.54850       -0.74490        8.28323
C        -14.58849       -3.72519        8.74769
C        -14.58342       -5.16852        8.23502
H        -14.56200       -0.74380        7.17107
H        -13.36221       -1.52845        9.91861
H        -13.29929       -2.96644        7.18102
H        -14.66431       -3.72663        9.85727
H        -14.60449       -5.16665        7.12307
H        -13.38073       -5.93998        9.86319
C        -14.54080        0.70025        8.79379
C        -13.25898        1.42054        8.36225
C        -12.02086        0.67208        8.87783
C        -10.73687        1.39676        8.43874
C         -9.49340        0.65380        8.95394
C         -8.20970        1.38258        8.51674
H        -14.62226        0.70777        9.90199
H        -12.05494        0.66781        9.99078
H         -9.52683        0.64693       10.06681
H        -13.23539        1.49129        7.25234
H        -10.70268        1.46555        7.32792
H         -8.17649        1.45525        7.40620
C         -8.25887        5.85218        8.33925
C         -9.53788        5.11621        8.79889
C        -10.79472        5.86381        8.28915
H         -8.23829        5.87305        7.22412
C         -9.53107        3.65725        8.27809
H         -9.55896        5.09757        9.91413
C        -10.80531        2.92788        8.73369
C        -12.05877        3.66539        8.23204
C        -12.07303        5.12678        8.74939
H         -9.51210        3.66317        7.16484
H        -10.77272        5.88153        7.17404
H        -12.09364        5.11070        9.86483
H        -12.03832        3.66899        7.11872
H        -10.82542        2.86017        9.84490
C         -8.27663        2.91594        8.77519
H         -8.29431        2.84511        9.88615
C        -13.33744        5.86721        8.24013
C        -13.32845        2.93033        8.68629
C        -14.59760        5.10913        8.70096
C        -14.57981        3.66359        8.19175
H        -13.32422        5.87921        7.12588
H        -14.66593        5.10899        9.81107
H        -14.60656        3.65603        7.08087
H        -13.36028        2.86032        9.79605
C         -3.20340       -5.93683        8.80968
C         -0.66489       -5.94975        8.86382
C         -1.92029       -5.20166        8.35352
H         -0.68790       -5.97079        9.97885
H         -0.61253       -2.98825        7.30876
C         -0.63969       -3.00986        8.42373
C         -1.92485       -3.74490        8.87538
H         -1.89554       -5.18220        7.23848
C         -3.17719       -2.99644        8.35907
C         -4.46432       -3.72849        8.81144
C         -4.45941       -5.19162        8.29542
H         -4.43206       -5.17583        7.18037
H         -3.22847       -5.95445        9.92465
H         -1.95234       -3.76440        9.99031
H         -3.14859       -2.97846        7.24416
H         -4.49147       -3.74437        9.92647
C         -3.17926       -1.53933        8.88033
C         -0.64302       -1.55409        8.94913
C         -1.89191       -0.80465        8.43178
C         -4.42602       -0.78888        8.35906
H         -3.21102       -1.55752        9.99517
H         -0.67271       -1.57556       10.06400
H         -1.86058       -0.78508        7.31672
C         -5.72154       -1.51616        8.80510
C         -5.72035       -2.97886        8.29514
C         -5.74696       -5.92789        8.74949
C         -6.94950       -0.74490        8.28323
C         -6.98949       -3.72519        8.74769
C         -6.98442       -5.16852        8.23502
H         -6.96300       -0.74380        7.17107
H         -5.76321       -1.52845        9.91861
H         -5.70029       -2.96644        7.18102
H         -7.06531       -3.72663        9.85727
H         -7.00549       -5.16665        7.12307
H         -5.78173       -5.93998        9.86319
C         -6.94180        0.70025        8.79379
C         -5.65998        1.42054        8.36225
C         -4.42186        0.67208        8.87783
C         -3.13787        1.39676        8.43874
C         -1.89440        0.65380        8.95394
C         -0.61070        1.38258        8.51674
H         -7.02326        0.70777        9.90199
H         -4.45594        0.66781        9.99078
H         -1.92783        0.64693       10.06681
H         -5.63639        1.49129        7.25234
H         -3.10368        1.46555        7.32792
H         -0.57749        1.45525        7.40620
C         -0.65987        5.85218        8.33925
C         -1.93888        5.11621        8.79889
C         -3.19572        5.86381        8.28915
H         -0.63929        5.87305        7.22412
C         -1.93207        3.65725        8.27809
H         -1.95996        5.09757        9.91413
C         -3.20631        2.92788        8.73369
C         -4.45977        3.66539        8.23204
C         -4.47403        5.12678        8.74939
H         -1.91310        3.66317        7.16484
H         -3.17372        5.88153        7.17404
H         -4.49464        5.11070        9.86483
H         -4.43932        3.66899        7.11872
H         -3.22642        2.86017        9.84490
C         -0.67763        2.91594        8.77519
H         -0.69531        2.84511        9.88615
C         -5.73844        5.86721        8.24013
C         -5.72945        2.93033        8.68629
C         -6.99860        5.10913        8.70096
C         -6.98081        3.66359        8.19175
H         -5.72522        5.87921        7.12588
H         -7.06693        5.10899        9.81107
H         -7.00756        3.65603        7.08087
H         -5.76128        2.86032        9.79605
C          4.39560       -5.93683        8.80968
C          6.93411       -5.94975        8.86382
C          5.67871       -5.20166        8.35352
H          6.91110       -5.97079        9.97885
H          6.98647       -2.98825        7.30876
C          6.95931       -3.00986        8.42373
C          5.67415       -3.74490        8.87538
H          5.70346       -5.18220        7.23848
C          4.42181       -2.99644        8.35907
C          3.13468       -3.72849        8.81144
C          3.13959       -5.19162        8.29542
H          3.16694       -5.17583        7.18037
H          4.37053       -5.95445        9.92465
H          5.64666       -3.76440        9.99031
H          4.45041       -2.97846        7.24416
H          3.10753       -3.74437        9.92647
C          4.41974       -1.53933        8.88033
C          6.95598       -1.55409        8.94913
C          5.70709       -0.80465        8.43178
C          3.17298       -0.78888        8.35906
H          4.38798       -1.55752        9.99517
H          6.92629       -1.57556       10.06400
H          3.20699       -0.77221        7.24396
C          1.87746       -1.51616        8.80510
C          1.87865       -2.97886        8.29514
C          1.85204       -5.92789        8.74949
C          0.64950       -0.74490        8.28323
C          0.60951       -3.72519        8.74769
C          0.61458       -5.16852        8.23502
H          0.63600       -0.74380        7.17107
H          1.83579       -1.52845        9.91861
H          1.89871       -2.96644        7.18102
H          0.53369       -3.72663        9.85727
H          0.59351       -5.16665        7.12307
H          1.81727       -5.93998        9.86319
C          0.65720        0.70025        8.79379
C          1.93902        1.42054        8.36225
C          3.17714        0.67208        8.87783
C          4.46113        1.39676        8.43874
C          5.70460        0.65380        8.95394
C          6.98830        1.38258        8.51674
H          0.57574        0.70777        9.90199
H          3.14306        0.66781        9.99078
H          5.67117        0.64693       10.06681
H          1.96261        1.49129        7.25234
H          4.49532        1.46555        7.32792
H          7.02151        1.45525        7.40620
C          6.93913        5.85218        8.33925
C          5.66012        5.11621        8.79889
C          4.40328        5.86381        8.28915
H          6.95971        5.87305        7.22412
C          5.66693        3.65725        8.27809
H          5.63904        5.09757        9.91413
C          4.39269        2.92788        8.73369
C          3.13923        3.66539        8.23204
C          3.12497        5.12678        8.74939
H          5.68590        3.66317        7.16484
H          4.42528        5.88153        7.17404
H          3.10436        5.11070        9.86483
H          3.15968        3.66899        7.11872
H          4.37258        2.86017        9.84490
C          6.92137        2.91594        8.77519
H          6.90369        2.84511        9.88615
C          1.86056        5.86721        8.24013
C          1.86955        2.93033        8.68629
C          0.60040        5.10913        8.70096
C          0.61819        3.66359        8.19175
H          1.87378        5.87921        7.12588
H          0.53207        5.10899        9.81107
H          0.59144        3.65603        7.08087
H          1.83772        2.86032        9.79605
C         11.99460       -5.93683        8.80968
C         14.53311       -5.94975        8.86382
C         13.27771       -5.20166        8.35352
H         14.51010       -5.97079        9.97885
H         14.58547       -2.98825        7.30876
C         14.55831       -3.00986        8.42373
C         13.27315       -3.74490        8.87538
H         13.30246       -5.18220        7.23848
C         12.02081       -2.99644        8.35907
C         10.73368       -3.72849        8.81144
C         10.73859       -5.19162        8.29542
H         10.76594       -5.17583        7.18037
H         11.96953       -5.95445        9.92465
H         13.24566       -3.76440        9.99031
H         12.04941       -2.97846        7.24416
H         10.70653       -3.74437        9.92647
C         12.01874       -1.53933        8.88033
C         14.55498       -1.55409        8.94913
C         13.30609       -0.80465        8.43178
C         10.77198       -0.78888        8.35906
H         11.98698       -1.55752        9.99517
H         14.52529       -1.57556       10.06400
H         10.80599       -0.77221        7.24396
H         13.33742       -0.78508        7.31672
C          9.47646       -1.51616        8.80510
C          9.47765       -2.97886        8.29514
C          9.45104       -5.92789        8.74949
C          8.24850       -0.74490        8.28323
C          8.20851       -3.72519        8.74769
C          8.21358       -5.16852        8.23502
H          8.23500       -0.74380        7.17107
H          9.43479       -1.52845        9.91861
H          9.49771       -2.96644        7.18102
H          8.13269       -3.72663        9.85727
H          8.19251       -5.16665        7.12307
H          9.41627       -5.93998        9.86319
C          8.25620        0.70025        8.79379
C          9.53802        1.42054        8.36225
C         10.77614        0.67208        8.87783
C         12.06013        1.39676        8.43874
C         13.30360        0.65380        8.95394
C         14.58730        1.38258        8.51674
H          8.17474        0.70777        9.90199
H         10.74206        0.66781        9.99078
H         13.27017        0.64693       10.06681
H          9.56161        1.49129        7.25234
H         12.09432        1.46555        7.32792
H         14.62051        1.45525        7.40620
C         14.53813        5.85218        8.33925
C         13.25912        5.11621        8.79889
C         12.00228        5.86381        8.28915
H         14.55871        5.87305        7.22412
C         13.26593        3.65725        8.27809
H         13.23804        5.09757        9.91413
C         11.99169        2.92788        8.73369
C         10.73823        3.66539        8.23204
C         10.72397        5.12678        8.74939
H         13.28490        3.66317        7.16484
H         12.02428        5.88153        7.17404
H         10.70336        5.11070        9.86483
H         10.75868        3.66899        7.11872
H         11.97158        2.86017        9.84490
C         14.52037        2.91594        8.77519
H         14.50269        2.84511        9.88615
C          9.45956        5.86721        8.24013
C          9.46855        2.93033        8.68629
C          8.19940        5.10913        8.70096
C          8.21719        3.66359        8.19175
H          9.47278        5.87921        7.12588
H          8.13107        5.10899        9.81107
H          8.19044        3.65603        7.08087
H          9.43672        2.86032        9.79605
N         -5.63337       -1.58895        4.61047
C         -5.68898       -1.40917        6.09498
H         -6.53974       -0.75745        6.32448
H         -5.85040       -2.43585        6.44296
C         -4.42602       -0.78888        6.73906
H         -3.54256       -1.43366        6.55378
H         -4.23603        0.22167        6.32305
C         -6.91355       -2.20077        4.17711
H         -7.07011       -3.19056        4.66253
H         -7.77853       -1.55068        4.43972
H         -6.93412       -2.35962        3.07513
C         -4.52873       -2.49519        4.21456
H         -4.60134       -3.46966        4.74708
H         -4.55318       -2.69925        3.12033
H         -3.53476       -2.04934        4.42864
C         -5.48098       -0.28942        3.91311
H         -5.53379       -0.42104        2.80879
H         -6.28372        0.42096        4.21227
H         -4.49783        0.17941        4.12741
N          2.17307       -3.11213        0.52635
C          2.11840       -2.93536        1.98567
H          1.30011       -2.25224        2.24054
H          1.94684       -3.90591        2.46508
C          3.44428       -2.34987        2.47882
H          4.26259       -3.03297        2.22396
H          3.61585       -1.37930        1.99947
C          5.70709       -0.80465        6.81178
H          6.59497       -1.45101        6.64459
H          5.90427        0.21276        6.41179
C          4.46974       -1.40996        6.15929
H          4.29997       -2.44944        6.46240
H          3.60776       -0.76348        6.35996
C          4.65034       -1.54564        4.64174
H          5.53380       -2.19042        4.45646
H          4.84033       -0.53509        4.22573
C          3.38738       -2.16593        3.99766
H          3.21284       -3.15373        4.48412
H          2.52042       -1.51574        4.25935
C          2.40340       -1.80950       -0.11703
H          3.35256       -1.39039        0.23607
H          1.58509       -1.12640        0.13782
H          2.44417       -1.94120       -1.20433
C          0.89914       -3.67465        0.05253
H          0.93989       -3.80637       -1.03477
H          0.08088       -2.99148        0.30737
H          0.72755       -4.64517        0.53196
C          3.27136       -4.02900        0.18433
H          4.22050       -3.60985        0.53741
H          3.31210       -4.16070       -0.90296
H          3.09972       -4.99952        0.66374
O         -5.95921        0.12805       -0.93309
H         -5.96919        1.05334       -0.68509
H         -5.94776        0.12821       -1.89102
O         -6.36995        1.46023       -4.10378
H         -5.60539        1.83946       -3.66858
H         -6.20098        1.56825       -5.04056
O        -13.63912        0.17012       -3.44194
H        -13.64910        1.09541       -3.19394
H        -13.62767        0.17028       -4.39987
O        -13.57280       -2.31339        0.11895
H        -12.82070       -1.72562        0.03761
H        -13.29549       -3.13007       -0.29806
O        -12.94644        0.57236        1.92775
H        -12.95642        1.49765        2.17575
H        -12.93499        0.57252        0.96982
O        -11.45142       -0.53278       -3.18355
H        -11.46140        0.39251       -2.93555
H        -11.43997       -0.53262       -4.14148
O        -11.01869        0.67280       -0.76008
H        -10.06710        0.64972       -0.86828
H        -11.30634       -0.22990       -0.90200
O        -10.71961        1.14773        1.88980
H        -11.12344        1.38062        1.05288
H        -10.61604        0.19585        1.85876
O        -13.13767        1.38981        4.13010
H        -12.18181        1.32589        4.13357
H        -13.44546        0.49512        3.97991
O        -10.18907        0.99643        4.14144
H        -10.45551        1.78953        3.67478
H        -10.98390        0.46495        4.20100
O         -8.99533        1.91952       -4.70064
H         -8.49453        1.44082       -5.36232
H         -9.73063        1.34537       -4.48281
O         -8.44085        1.91426       -2.22671
H         -7.59113        2.01371       -1.79560
H         -8.36136        1.11588       -2.75019
O         -9.00291        1.90289        3.53260
H         -9.01290        2.82818        3.78060
H         -8.99146        1.90305        2.57467
O         -3.93253        0.82347       -1.06793
H         -3.24805        1.41889       -1.37569
H         -4.09242        0.22895       -1.80192
O         -2.83317        0.93029        1.09859
H         -2.26382        1.65827        0.84628
H         -3.05205        0.49019        0.27630
O         -1.54166        1.02319        3.61209
H         -1.29283        1.94816        3.59554
H         -1.85921        0.83599        2.72785
O          0.75866        0.89769        3.26283
H          0.74868        1.82298        3.51083
H          0.77011        0.89785        2.30490
O         -0.34505        0.72032        1.34669
H         -0.35503        1.64561        1.59469
H         -0.33360        0.72048        0.38876
O         -1.36192        0.51787       -0.80507
H         -1.37190        1.44316       -0.55707
H         -1.35047        0.51803       -1.76300
O         -1.70935        0.57372       -3.35901
H         -1.43339        1.31139       -3.90440
H         -1.49560       -0.20704       -3.87134
O          0.09228        0.66403       -4.73889
H          0.92172        0.58164       -5.21112
H         -0.46069       -0.03769       -5.08470
O          2.47627        0.64963       -4.37921
H          3.38903        0.85144       -4.58878
H          2.35606       -0.26218       -4.64736
O          5.60118        0.50408       -4.22372
H          6.36855        0.68466       -4.76805
H          5.06170       -0.09137       -4.74542
O          5.63959        0.30896       -1.85661
H          5.62961        1.23425       -1.60861
H          5.65104        0.30912       -2.81454
O          5.95002        0.83833        0.41559
H          6.74019        1.16494       -0.01653
H          5.41264        0.47704       -0.29042
O          7.23112        1.02224        2.46186
H          8.13508        1.33226        2.52901
H          7.14177        0.71196        1.55991
O         10.15002        1.01746        3.53224
H          9.31226        1.47262        3.62577
H         10.20913        0.79552        2.60218
O          8.96207        0.81282        0.02905
H          9.80472        1.07006        0.40526
H          9.17940        0.40417       -0.80972
O          8.31601        0.43757       -2.02666
H          7.53804        0.99652       -2.01703
H          8.46609        0.23743       -2.95143
O          8.80042        0.32644       -4.25643
H          9.65533        0.75644       -4.30104
H          8.70615       -0.12562       -5.09579
O         11.36919       -0.01459       -4.22760
H         11.35921        0.91070       -3.97960
H         11.38064       -0.01443       -5.18553
O         10.81221        0.62758       -1.75482
H         11.69364        0.83257       -1.44044
H         10.94436        0.19856       -2.60113
O         11.76836        1.01583        0.94540
H         12.67737        0.72106        1.01303
H         11.46069        0.67955        0.10277
O         12.08755        1.03073        3.96386
H         11.67910        1.31370        3.14480
H         13.02013        0.94884        3.76051
O         14.16448        0.79021        2.13283
H         14.04409        0.74304        1.18359
H         13.35374        1.17620        2.46671
O         13.42119        0.01423       -3.82001
H         12.94108        0.66291       -3.30381
H         13.29261        0.27848       -4.73182
O         13.48185        0.24232       -0.87831
H         14.09791        0.90574       -0.56509
H         12.94410        0.69194       -1.53132
O          1.07360        4.04383       -3.52747
H          1.06362        4.96912       -3.27947
H          1.08505        4.04399       -4.48540
O          1.29707        5.26011       -1.44202
H          0.98689        5.23701       -0.53592
H          1.03372        4.41827       -1.81579
O          1.10559        3.86317        1.15236
H          0.52479        4.60612        1.32103
H          1.29753        3.90636        0.21478
O          0.61569        5.14772        3.29590
H          1.15595        4.37023        3.44214
H          0.75183        5.37465        2.37517
O          1.33183       -4.87409       -4.15096
H          1.32185       -3.94880       -3.90296
H          1.34328       -4.87393       -5.10889
O          0.83412       -5.56015        3.97675
H          0.82414       -4.63486        4.22475
H          0.84557       -5.56000        3.01882
O          8.70422        3.36202       -2.46855
H          8.69424        4.28731       -2.22055
H          8.71567        3.36218       -3.42648
O        -10.72459       -4.65868       -3.43323
H        -10.73457       -3.73339       -3.18523
H        -10.71314       -4.65852       -4.39116
O          4.56978        4.45446        0.06092
H          3.88189        3.78836        0.09064
H          4.54609        4.79561       -0.83396
O          3.25060        2.68561        3.23799
H          2.56248        2.03596        3.38701
H          3.40664        2.66918        2.29293
O         -3.19775       -4.76881       -4.01167
H         -3.20773       -3.84352       -3.76367
H         -3.18630       -4.76865       -4.96960
O         -2.03379       -2.85749       -2.82623
H         -2.02876       -2.12904       -3.44840
H         -1.64102       -3.59136       -3.30050
O         -5.96745       -4.81153        2.93703
H         -5.97743       -3.88624        3.18503
H         -5.95600       -4.81137        1.97910
O         -8.18154        4.37485        3.41384
H         -8.67318        3.57346        3.22991
H         -7.77584        4.22613        4.26886
O        -10.74222        4.25865        0.89169
H        -10.60208        3.93206        0.00205
H        -10.50764        3.52721        1.46416
O         -3.14156        2.73886       -3.69199
H         -3.15154        3.66415       -3.44399
H         -3.13011        2.73902       -4.64992
O         -5.39900        4.37931        1.69966
H         -5.40898        5.30460        1.94766
H         -5.38755        4.37947        0.74173
O         -2.65688        4.63731        0.72201
H         -2.66686        5.56260        0.97001
H         -2.64543        4.63747       -0.23592
O          6.77690        3.39361        2.37775
H          6.76692        4.31890        2.62575
H          6.78835        3.39377        1.41982
O          0.99598        0.16285       -1.64837
H          0.98599        1.08814       -1.40037
H          1.00743        0.16300       -2.60630
O         11.95991        3.80531       -2.32819
H         11.94750        4.73091       -2.08145
H         11.98087        3.80429       -3.28596
O          8.76074        4.25168        3.57007
H          8.83999        5.17487        3.81341
H          8.67187        4.25344        2.61620
O          5.55329       -4.45883        3.43212
H          5.54331       -3.53354        3.68012
H          5.56474       -4.45867        2.47419
O          7.29214       -3.24250        1.56252
H          7.28216       -2.31721        1.81052
H          7.30359       -3.24234        0.60459
O          9.38737       -1.61462        3.30190
H          9.91510       -2.40866        3.39544
H          9.43899       -1.18072        4.15444
O         12.48544       -2.27842        0.38497
H         12.39670       -3.17071        0.04774
H         12.90689       -2.37713        1.23961
O         12.98461       -4.64206       -1.51050
H         12.97463       -3.71677       -1.26250
H         12.99606       -4.64191       -2.46843
O         -9.04548       -4.52760        4.20557
H         -9.33928       -3.61709        4.25468
H         -9.00433       -4.72469        3.26896
O         -7.81572       -5.03637        1.04810
H         -7.72948       -4.12852        1.34160
H         -7.77679       -4.99258        0.09190
O        -12.96647       -5.84014        1.69621
H        -12.97645       -4.91485        1.94421
H        -12.95502       -5.83998        0.73828
O          9.29558       -5.12277       -1.74984
H          9.28559       -4.19748       -1.50184
H          9.30703       -5.12262       -2.70777
O        -13.04715       -4.49997       -2.34322
H        -13.05713       -3.57468       -2.09522
H        -13.03570       -4.49982       -3.30115
O        -13.18265        3.89851        2.49155
H        -13.19263        4.82380        2.73955
H        -13.17120        3.89866        1.53362
O         -8.13578        2.63605        0.09876
H         -8.12433        2.63621       -0.85918
H         -8.14576        3.56134        0.34676
O         -5.33214        4.50869       -2.22225
H         -5.34212        5.43398       -1.97426
H         -5.32069        4.50885       -3.18019
O          7.59274        1.76605        4.23587
H          7.40840        2.41379        3.55455
H          7.73914        0.94506        3.76437
O         13.25426        3.96472        3.27609
H         13.67972        3.63881        4.07015
H         13.44371        3.30722        2.60559
O         -9.58822       -0.30917       -2.18860
H         -9.59821        0.61612       -1.94060
O         10.95584       -4.75246        2.33310
H         10.94586       -3.82717        2.58110
