846

C -10.78492 -5.89278 -8.50935
C -8.24641 -5.9057 -8.45521
C -9.50181 -5.15761 -8.96551
H -8.26942 -5.92674 -7.34018
H -8.19405 -2.9442 -10.01027
C -8.22121 -2.96581 -8.8953
C -9.50637 -3.70085 -8.44365
H -9.47706 -5.13815 -10.08055
C -10.75871 -2.95239 -8.95996
C -12.04584 -3.68444 -8.50759
C -12.04093 -5.14757 -9.02361
H -12.01358 -5.13178 -10.13866
H -10.80999 -5.9104 -7.39438
H -9.53386 -3.72035 -7.32872
H -10.73011 -2.93441 -10.07487
H -12.07299 -3.70032 -7.39256
C -10.76078 -1.49528 -8.4387
C -8.22454 -1.51004 -8.3699
C -9.47343 -0.7606 -8.88725
C -12.00754 -0.74483 -8.95997
H -10.79254 -1.51347 -7.32386
H -8.25423 -1.53151 -7.25503
H -11.97353 -0.72816 -10.07507
H -9.4421 -0.74103 -10.00231
C -13.30306 -1.47211 -8.51393
C -13.30187 -2.93481 -9.02389
C -13.32848 -5.88384 -8.56954
C -14.53102 -0.70085 -9.0358
C -14.57101 -3.68114 -8.57134
C -14.56594 -5.12447 -9.08401
H -14.54452 -0.69975 -10.14796
H -13.34473 -1.4844 -7.40042
H -13.28181 -2.92239 -10.13801
H -14.64683 -3.68258 -7.46176
H -14.58701 -5.1226 -10.19596
H -13.36325 -5.89593 -7.45584
C -14.52332 0.7443 -8.52524
C -13.2415 1.46459 -8.95678
C -12.00338 0.71613 -8.4412
C -10.71939 1.44081 -8.88029
C -9.47592 0.69785 -8.36509
C -8.19222 1.42663 -8.80229
H -14.60478 0.75182 -7.41704
H -12.03746 0.71186 -7.32825
H -9.50935 0.69098 -7.25222
H -13.21791 1.53534 -10.06669
H -10.6852 1.5096 -9.99111
H -8.15901 1.4993 -9.91283
C -8.24139 5.89623 -8.97978
C -9.5204 5.16026 -8.52014
C -10.77724 5.90786 -9.02988
H -8.22081 5.9171 -10.09491
C -9.51359 3.7013 -9.04094
H -9.54148 5.14162 -7.4049
C -10.78783 2.97193 -8.58534
C -12.04129 3.70944 -9.08699
C -12.05555 5.17083 -8.56964
H -9.49462 3.70722 -10.15419
H -10.75524 5.92558 -10.14499
H -12.07616 5.15475 -7.4542
H -12.02084 3.71304 -10.20031
H -10.80794 2.90422 -7.47413
C -8.25915 2.95999 -8.54384
H -8.27683 2.88916 -7.43288
C -13.31996 5.91126 -9.0789
C -13.31097 2.97438 -8.63274
C -14.58012 5.15318 -8.61807
C -14.56233 3.70764 -9.12728
H -13.30674 5.92326 -10.19315
H -14.64845 5.15304 -7.50796
H -14.58908 3.70008 -10.23816
H -13.3428 2.90437 -7.52298
C -3.18592 -5.89278 -8.50935
C -0.64741 -5.9057 -8.45521
C -1.90281 -5.15761 -8.96551
H -0.67042 -5.92674 -7.34018
H -0.59505 -2.9442 -10.01027
C -0.62221 -2.96581 -8.8953
C -1.90737 -3.70085 -8.44365
H -1.87806 -5.13815 -10.08055
C -3.15971 -2.95239 -8.95996
C -4.44684 -3.68444 -8.50759
C -4.44193 -5.14757 -9.02361
H -4.41458 -5.13178 -10.13866
H -3.21099 -5.9104 -7.39438
H -1.93486 -3.72035 -7.32872
H -3.13111 -2.93441 -10.07487
H -4.47399 -3.70032 -7.39256
C -3.16178 -1.49528 -8.4387
C -0.62554 -1.51004 -8.3699
C -1.87443 -0.7606 -8.88725
C -4.40854 -0.74483 -8.95997
H -3.19354 -1.51347 -7.32386
H -0.65523 -1.53151 -7.25503
H -4.37453 -0.72816 -10.07507
H -1.8431 -0.74103 -10.00231
C -5.70406 -1.47211 -8.51393
C -5.70287 -2.93481 -9.02389
C -5.72948 -5.88384 -8.56954
C -6.93202 -0.70085 -9.0358
C -6.97201 -3.68114 -8.57134
C -6.96694 -5.12447 -9.08401
H -6.94552 -0.69975 -10.14796
H -5.74573 -1.4844 -7.40042
H -5.68281 -2.92239 -10.13801
H -7.04783 -3.68258 -7.46176
H -6.98801 -5.1226 -10.19596
H -5.76425 -5.89593 -7.45584
C -6.92432 0.7443 -8.52524
C -5.6425 1.46459 -8.95678
C -4.40438 0.71613 -8.4412
C -3.12039 1.44081 -8.88029
C -1.87692 0.69785 -8.36509
C -0.59322 1.42663 -8.80229
H -7.00578 0.75182 -7.41704
H -4.43846 0.71186 -7.32825
H -1.91035 0.69098 -7.25222
H -5.61891 1.53534 -10.06669
H -3.0862 1.5096 -9.99111
H -0.56001 1.4993 -9.91283
C -0.64239 5.89623 -8.97978
C -1.9214 5.16026 -8.52014
C -3.17824 5.90786 -9.02988
H -0.62181 5.9171 -10.09491
C -1.91459 3.7013 -9.04094
H -1.94248 5.14162 -7.4049
C -3.18883 2.97193 -8.58534
C -4.44229 3.70944 -9.08699
C -4.45655 5.17083 -8.56964
H -1.89562 3.70722 -10.15419
H -3.15624 5.92558 -10.14499
H -4.47716 5.15475 -7.4542
H -4.42184 3.71304 -10.20031
H -3.20894 2.90422 -7.47413
C -0.66015 2.95999 -8.54384
H -0.67783 2.88916 -7.43288
C -5.72096 5.91126 -9.0789
C -5.71197 2.97438 -8.63274
C -6.98112 5.15318 -8.61807
C -6.96333 3.70764 -9.12728
H -5.70774 5.92326 -10.19315
H -7.04945 5.15304 -7.50796
H -6.99008 3.70008 -10.23816
H -5.7438 2.90437 -7.52298
C 4.41308 -5.89278 -8.50935
C 6.95159 -5.9057 -8.45521
C 5.69619 -5.15761 -8.96551
H 6.92858 -5.92674 -7.34018
H 7.00395 -2.9442 -10.01027
C 6.97679 -2.96581 -8.8953
C 5.69163 -3.70085 -8.44365
H 5.72094 -5.13815 -10.08055
C 4.43929 -2.95239 -8.95996
C 3.15216 -3.68444 -8.50759
C 3.15707 -5.14757 -9.02361
H 3.18442 -5.13178 -10.13866
H 4.38801 -5.9104 -7.39438
H 5.66414 -3.72035 -7.32872
H 4.46789 -2.93441 -10.07487
H 3.12501 -3.70032 -7.39256
C 4.43722 -1.49528 -8.4387
C 6.97346 -1.51004 -8.3699
C 5.72457 -0.7606 -8.88725
C 3.19046 -0.74483 -8.95997
H 4.40546 -1.51347 -7.32386
H 6.94377 -1.53151 -7.25503
H 3.22447 -0.72816 -10.07507
H 5.7559 -0.74103 -10.00231
C 1.89494 -1.47211 -8.51393
C 1.89613 -2.93481 -9.02389
C 1.86952 -5.88384 -8.56954
C 0.66698 -0.70085 -9.0358
C 0.62699 -3.68114 -8.57134
C 0.63206 -5.12447 -9.08401
H 0.65348 -0.69975 -10.14796
H 1.85327 -1.4844 -7.40042
H 1.91619 -2.92239 -10.13801
H 0.55117 -3.68258 -7.46176
H 0.61099 -5.1226 -10.19596
H 1.83475 -5.89593 -7.45584
C 0.67468 0.7443 -8.52524
C 1.9565 1.46459 -8.95678
C 3.19462 0.71613 -8.4412
C 4.47861 1.44081 -8.88029
C 5.72208 0.69785 -8.36509
C 7.00578 1.42663 -8.80229
H 0.59322 0.75182 -7.41704
H 3.16054 0.71186 -7.32825
H 5.68865 0.69098 -7.25222
H 1.98009 1.53534 -10.06669
H 4.5128 1.5096 -9.99111
H 7.03899 1.4993 -9.91283
C 6.95661 5.89623 -8.97978
C 5.6776 5.16026 -8.52014
C 4.42076 5.90786 -9.02988
H 6.97719 5.9171 -10.09491
C 5.68441 3.7013 -9.04094
H 5.65652 5.14162 -7.4049
C 4.41017 2.97193 -8.58534
C 3.15671 3.70944 -9.08699
C 3.14245 5.17083 -8.56964
H 5.70338 3.70722 -10.15419
H 4.44276 5.92558 -10.14499
H 3.12184 5.15475 -7.4542
H 3.17716 3.71304 -10.20031
H 4.39006 2.90422 -7.47413
C 6.93885 2.95999 -8.54384
H 6.92117 2.88916 -7.43288
C 1.87804 5.91126 -9.0789
C 1.88703 2.97438 -8.63274
C 0.61788 5.15318 -8.61807
C 0.63567 3.70764 -9.12728
H 1.89126 5.92326 -10.19315
H 0.54955 5.15304 -7.50796
H 0.60892 3.70008 -10.23816
H 1.8552 2.90437 -7.52298
C 12.01208 -5.89278 -8.50935
C 14.55059 -5.9057 -8.45521
C 13.29519 -5.15761 -8.96551
H 14.52758 -5.92674 -7.34018
H 14.60295 -2.9442 -10.01027
C 14.57579 -2.96581 -8.8953
C 13.29063 -3.70085 -8.44365
H 13.31994 -5.13815 -10.08055
C 12.03829 -2.95239 -8.95996
C 10.75116 -3.68444 -8.50759
C 10.75607 -5.14757 -9.02361
H 10.78342 -5.13178 -10.13866
H 11.98701 -5.9104 -7.39438
H 13.26314 -3.72035 -7.32872
H 12.06689 -2.93441 -10.07487
H 10.72401 -3.70032 -7.39256
C 12.03622 -1.49528 -8.4387
C 14.57246 -1.51004 -8.3699
C 13.32357 -0.7606 -8.88725
C 10.78946 -0.74483 -8.95997
H 12.00446 -1.51347 -7.32386
H 14.54277 -1.53151 -7.25503
H 10.82347 -0.72816 -10.07507
H 13.3549 -0.74103 -10.00231
C 9.49394 -1.47211 -8.51393
C 9.49513 -2.93481 -9.02389
C 9.46852 -5.88384 -8.56954
C 8.26598 -0.70085 -9.0358
C 8.22599 -3.68114 -8.57134
C 8.23106 -5.12447 -9.08401
H 8.25248 -0.69975 -10.14796
H 9.45227 -1.4844 -7.40042
H 9.51519 -2.92239 -10.13801
H 8.15017 -3.68258 -7.46176
H 8.20999 -5.1226 -10.19596
H 9.43375 -5.89593 -7.45584
C 8.27368 0.7443 -8.52524
C 9.5555 1.46459 -8.95678
C 10.79362 0.71613 -8.4412
C 12.07761 1.44081 -8.88029
C 13.32108 0.69785 -8.36509
C 14.60478 1.42663 -8.80229
H 8.19222 0.75182 -7.41704
H 10.75954 0.71186 -7.32825
H 13.28765 0.69098 -7.25222
H 9.57909 1.53534 -10.06669
H 12.1118 1.5096 -9.99111
H 14.63799 1.4993 -9.91283
C 14.55561 5.89623 -8.97978
C 13.2766 5.16026 -8.52014
C 12.01976 5.90786 -9.02988
H 14.57619 5.9171 -10.09491
C 13.28341 3.7013 -9.04094
H 13.25552 5.14162 -7.4049
C 12.00917 2.97193 -8.58534
C 10.75571 3.70944 -9.08699
C 10.74145 5.17083 -8.56964
H 13.30238 3.70722 -10.15419
H 12.04176 5.92558 -10.14499
H 10.72084 5.15475 -7.4542
H 10.77616 3.71304 -10.20031
H 11.98906 2.90422 -7.47413
C 14.53785 2.95999 -8.54384
H 14.52017 2.88916 -7.43288
C 9.47704 5.91126 -9.0789
C 9.48603 2.97438 -8.63274
C 8.21688 5.15318 -8.61807
C 8.23467 3.70764 -9.12728
H 9.49026 5.92326 -10.19315
H 8.14855 5.15304 -7.50796
H 8.20792 3.70008 -10.23816
H 9.4542 2.90437 -7.52298
C -10.78492 -5.89278 8.99065
C -8.24641 -5.9057 9.04479
C -9.50181 -5.15761 8.53449
H -8.26942 -5.92674 10.15982
H -8.19405 -2.9442 7.48973
C -8.22121 -2.96581 8.6047
C -9.50637 -3.70085 9.05635
H -9.47706 -5.13815 7.41945
C -10.75871 -2.95239 8.54004
C -12.04584 -3.68444 8.99241
C -12.04093 -5.14757 8.47639
H -12.01358 -5.13178 7.36134
H -10.80999 -5.9104 10.10562
H -9.53386 -3.72035 10.17128
H -10.73011 -2.93441 7.42513
H -12.07299 -3.70032 10.10744
C -10.76078 -1.49528 9.0613
C -8.22454 -1.51004 9.1301
C -9.47343 -0.7606 8.61275
C -12.00754 -0.74483 8.54003
H -10.79254 -1.51347 10.17614
H -8.25423 -1.53151 10.24497
H -11.97353 -0.72816 7.42493
H -9.4421 -0.74103 7.49769
C -13.30306 -1.47211 8.98607
C -13.30187 -2.93481 8.47611
C -13.32848 -5.88384 8.93046
C -14.53102 -0.70085 8.4642
C -14.57101 -3.68114 8.92866
C -14.56594 -5.12447 8.41599
H -14.54452 -0.69975 7.35204
H -13.34473 -1.4844 10.09958
H -13.28181 -2.92239 7.36199
H -14.64683 -3.68258 10.03824
H -14.58701 -5.1226 7.30404
H -13.36325 -5.89593 10.04416
C -14.52332 0.7443 8.97476
C -13.2415 1.46459 8.54322
C -12.00338 0.71613 9.0588
C -10.71939 1.44081 8.61971
C -9.47592 0.69785 9.13491
C -8.19222 1.42663 8.69771
H -14.60478 0.75182 10.08296
H -12.03746 0.71186 10.17175
H -9.50935 0.69098 10.24778
H -13.21791 1.53534 7.43331
H -10.6852 1.5096 7.50889
H -8.15901 1.4993 7.58717
C -8.24139 5.89623 8.52022
C -9.5204 5.16026 8.97986
C -10.77724 5.90786 8.47012
H -8.22081 5.9171 7.40509
C -9.51359 3.7013 8.45906
H -9.54148 5.14162 10.0951
C -10.78783 2.97193 8.91466
C -12.04129 3.70944 8.41301
C -12.05555 5.17083 8.93036
H -9.49462 3.70722 7.34581
H -10.75524 5.92558 7.35501
H -12.07616 5.15475 10.0458
H -12.02084 3.71304 7.29969
H -10.80794 2.90422 10.02587
C -8.25915 2.95999 8.95616
H -8.27683 2.88916 10.06712
C -13.31996 5.91126 8.4211
C -13.31097 2.97438 8.86726
C -14.58012 5.15318 8.88193
C -14.56233 3.70764 8.37272
H -13.30674 5.92326 7.30685
H -14.64845 5.15304 9.99204
H -14.58908 3.70008 7.26184
H -13.3428 2.90437 9.97702
C -3.18592 -5.89278 8.99065
C -0.64741 -5.9057 9.04479
C -1.90281 -5.15761 8.53449
H -0.67042 -5.92674 10.15982
H -0.59505 -2.9442 7.48973
C -0.62221 -2.96581 8.6047
C -1.90737 -3.70085 9.05635
H -1.87806 -5.13815 7.41945
C -3.15971 -2.95239 8.54004
C -4.44684 -3.68444 8.99241
C -4.44193 -5.14757 8.47639
H -4.41458 -5.13178 7.36134
H -3.21099 -5.9104 10.10562
H -1.93486 -3.72035 10.17128
H -3.13111 -2.93441 7.42513
H -4.47399 -3.70032 10.10744
C -3.16178 -1.49528 9.0613
C -0.62554 -1.51004 9.1301
C -1.87443 -0.7606 8.61275
C -4.40854 -0.74483 8.54003
H -3.19354 -1.51347 10.17614
H -0.65523 -1.53151 10.24497
H -1.8431 -0.74103 7.49769
C -5.70406 -1.47211 8.98607
C -5.70287 -2.93481 8.47611
C -5.72948 -5.88384 8.93046
C -6.93202 -0.70085 8.4642
C -6.97201 -3.68114 8.92866
C -6.96694 -5.12447 8.41599
H -6.94552 -0.69975 7.35204
H -5.74573 -1.4844 10.09958
H -5.68281 -2.92239 7.36199
H -7.04783 -3.68258 10.03824
H -6.98801 -5.1226 7.30404
H -5.76425 -5.89593 10.04416
C -6.92432 0.7443 8.97476
C -5.6425 1.46459 8.54322
C -4.40438 0.71613 9.0588
C -3.12039 1.44081 8.61971
C -1.87692 0.69785 9.13491
C -0.59322 1.42663 8.69771
H -7.00578 0.75182 10.08296
H -4.43846 0.71186 10.17175
H -1.91035 0.69098 10.24778
H -5.61891 1.53534 7.43331
H -3.0862 1.5096 7.50889
H -0.56001 1.4993 7.58717
C -0.64239 5.89623 8.52022
C -1.9214 5.16026 8.97986
C -3.17824 5.90786 8.47012
H -0.62181 5.9171 7.40509
C -1.91459 3.7013 8.45906
H -1.94248 5.14162 10.0951
C -3.18883 2.97193 8.91466
C -4.44229 3.70944 8.41301
C -4.45655 5.17083 8.93036
H -1.89562 3.70722 7.34581
H -3.15624 5.92558 7.35501
H -4.47716 5.15475 10.0458
H -4.42184 3.71304 7.29969
H -3.20894 2.90422 10.02587
C -0.66015 2.95999 8.95616
H -0.67783 2.88916 10.06712
C -5.72096 5.91126 8.4211
C -5.71197 2.97438 8.86726
C -6.98112 5.15318 8.88193
C -6.96333 3.70764 8.37272
H -5.70774 5.92326 7.30685
H -7.04945 5.15304 9.99204
H -6.99008 3.70008 7.26184
H -5.7438 2.90437 9.97702
C 4.41308 -5.89278 8.99065
C 6.95159 -5.9057 9.04479
C 5.69619 -5.15761 8.53449
H 6.92858 -5.92674 10.15982
H 7.00395 -2.9442 7.48973
C 6.97679 -2.96581 8.6047
C 5.69163 -3.70085 9.05635
H 5.72094 -5.13815 7.41945
C 4.43929 -2.95239 8.54004
C 3.15216 -3.68444 8.99241
C 3.15707 -5.14757 8.47639
H 3.18442 -5.13178 7.36134
H 4.38801 -5.9104 10.10562
H 5.66414 -3.72035 10.17128
H 4.46789 -2.93441 7.42513
H 3.12501 -3.70032 10.10744
C 4.43722 -1.49528 9.0613
C 6.97346 -1.51004 9.1301
C 5.72457 -0.7606 8.61275
C 3.19046 -0.74483 8.54003
H 4.40546 -1.51347 10.17614
H 6.94377 -1.53151 10.24497
H 3.22447 -0.72816 7.42493
C 1.89494 -1.47211 8.98607
C 1.89613 -2.93481 8.47611
C 1.86952 -5.88384 8.93046
C 0.66698 -0.70085 8.4642
C 0.62699 -3.68114 8.92866
C 0.63206 -5.12447 8.41599
H 0.65348 -0.69975 7.35204
H 1.85327 -1.4844 10.09958
H 1.91619 -2.92239 7.36199
H 0.55117 -3.68258 10.03824
H 0.61099 -5.1226 7.30404
H 1.83475 -5.89593 10.04416
C 0.67468 0.7443 8.97476
C 1.9565 1.46459 8.54322
C 3.19462 0.71613 9.0588
C 4.47861 1.44081 8.61971
C 5.72208 0.69785 9.13491
C 7.00578 1.42663 8.69771
H 0.59322 0.75182 10.08296
H 3.16054 0.71186 10.17175
H 5.68865 0.69098 10.24778
H 1.98009 1.53534 7.43331
H 4.5128 1.5096 7.50889
H 7.03899 1.4993 7.58717
C 6.95661 5.89623 8.52022
C 5.6776 5.16026 8.97986
C 4.42076 5.90786 8.47012
H 6.97719 5.9171 7.40509
C 5.68441 3.7013 8.45906
H 5.65652 5.14162 10.0951
C 4.41017 2.97193 8.91466
C 3.15671 3.70944 8.41301
C 3.14245 5.17083 8.93036
H 5.70338 3.70722 7.34581
H 4.44276 5.92558 7.35501
H 3.12184 5.15475 10.0458
H 3.17716 3.71304 7.29969
H 4.39006 2.90422 10.02587
C 6.93885 2.95999 8.95616
H 6.92117 2.88916 10.06712
C 1.87804 5.91126 8.4211
C 1.88703 2.97438 8.86726
C 0.61788 5.15318 8.88193
C 0.63567 3.70764 8.37272
H 1.89126 5.92326 7.30685
H 0.54955 5.15304 9.99204
H 0.60892 3.70008 7.26184
H 1.8552 2.90437 9.97702
C 12.01208 -5.89278 8.99065
C 14.55059 -5.9057 9.04479
C 13.29519 -5.15761 8.53449
H 14.52758 -5.92674 10.15982
H 14.60295 -2.9442 7.48973
C 14.57579 -2.96581 8.6047
C 13.29063 -3.70085 9.05635
H 13.31994 -5.13815 7.41945
C 12.03829 -2.95239 8.54004
C 10.75116 -3.68444 8.99241
C 10.75607 -5.14757 8.47639
H 10.78342 -5.13178 7.36134
H 11.98701 -5.9104 10.10562
H 13.26314 -3.72035 10.17128
H 12.06689 -2.93441 7.42513
H 10.72401 -3.70032 10.10744
C 12.03622 -1.49528 9.0613
C 14.57246 -1.51004 9.1301
C 13.32357 -0.7606 8.61275
C 10.78946 -0.74483 8.54003
H 12.00446 -1.51347 10.17614
H 14.54277 -1.53151 10.24497
H 10.82347 -0.72816 7.42493
H 13.3549 -0.74103 7.49769
C 9.49394 -1.47211 8.98607
C 9.49513 -2.93481 8.47611
C 9.46852 -5.88384 8.93046
C 8.26598 -0.70085 8.4642
C 8.22599 -3.68114 8.92866
C 8.23106 -5.12447 8.41599
H 8.25248 -0.69975 7.35204
H 9.45227 -1.4844 10.09958
H 9.51519 -2.92239 7.36199
H 8.15017 -3.68258 10.03824
H 8.20999 -5.1226 7.30404
H 9.43375 -5.89593 10.04416
C 8.27368 0.7443 8.97476
C 9.5555 1.46459 8.54322
C 10.79362 0.71613 9.0588
C 12.07761 1.44081 8.61971
C 13.32108 0.69785 9.13491
C 14.60478 1.42663 8.69771
H 8.19222 0.75182 10.08296
H 10.75954 0.71186 10.17175
H 13.28765 0.69098 10.24778
H 9.57909 1.53534 7.43331
H 12.1118 1.5096 7.50889
H 14.63799 1.4993 7.58717
C 14.55561 5.89623 8.52022
C 13.2766 5.16026 8.97986
C 12.01976 5.90786 8.47012
H 14.57619 5.9171 7.40509
C 13.28341 3.7013 8.45906
H 13.25552 5.14162 10.0951
C 12.00917 2.97193 8.91466
C 10.75571 3.70944 8.41301
C 10.74145 5.17083 8.93036
H 13.30238 3.70722 7.34581
H 12.04176 5.92558 7.35501
H 10.72084 5.15475 10.0458
H 10.77616 3.71304 7.29969
H 11.98906 2.90422 10.02587
C 14.53785 2.95999 8.95616
H 14.52017 2.88916 10.06712
C 9.47704 5.91126 8.4211
C 9.48603 2.97438 8.86726
C 8.21688 5.15318 8.88193
C 8.23467 3.70764 8.37272
H 9.49026 5.92326 7.30685
H 8.14855 5.15304 9.99204
H 8.20792 3.70008 7.26184
H 9.4542 2.90437 9.97702
N -5.61589 -1.54490 4.79144
C -5.67150 -1.36512 6.27595
H -5.84604 -2.35292 6.76241
H -6.53846 -0.71493 6.53764
C -4.40854 -0.74483 6.92003
H -3.52508 -1.38961 6.73475
H -4.21855 0.26572 6.50402
C -6.89607 -2.15672 4.35808
H -7.05263 -3.14651 4.84350
H -7.76105 -1.50663 4.62069
H -6.91664 -2.31557 3.25610
C -4.51125 -2.45114 4.39553
H -4.58386 -3.42561 4.92805
H -4.53570 -2.65520 3.30130
H -3.51728 -2.00529 4.60961
C -5.46350 -0.24537 4.09408
H -5.51631 -0.37699 2.98976
H -6.26624 0.46501 4.39324
H -4.48035 0.22346 4.30838
N 2.19055 -3.06808 0.70732
C 2.13588 -2.89131 2.16664
H 1.31759 -2.20819 2.42151
H 1.96432 -3.86186 2.64605
C 3.46176 -2.30582 2.65979
H 4.28007 -2.98892 2.40493
H 3.63333 -1.33525 2.18044
C 5.72457 -0.76060 6.99275
H 6.61245 -1.40696 6.82556
H 5.92175 0.25681 6.59276
C 4.48722 -1.36591 6.34026
H 4.30380 -2.36561 6.78980
H 3.61551 -0.71232 6.55959
C 4.66782 -1.50159 4.82271
H 5.55128 -2.14637 4.63743
H 4.85781 -0.49104 4.40670
C 3.40486 -2.12188 4.17863
H 3.23032 -3.10968 4.66509
H 2.53790 -1.47169 4.44032
C 2.42088 -1.76545 0.06394
H 3.37004 -1.34634 0.41704
H 1.60257 -1.08235 0.31879
H 2.46165 -1.89715 -1.02336
C 0.91662 -3.63060 0.23350
H 0.95737 -3.76232 -0.85380
H 0.09836 -2.94743 0.48834
H 0.74503 -4.60112 0.71293
C 3.28884 -3.98495 0.36530
H 4.23798 -3.56580 0.71838
H 3.32958 -4.11665 -0.72199
H 3.11720 -4.95547 0.84471
O         -5.94173        0.17210       -0.75212
H         -5.95171        1.09739       -0.50412
H         -5.93028        0.17226       -1.71005
O         -6.35247        1.50428       -3.92281
H         -5.58791        1.88351       -3.48761
H         -6.18350        1.61230       -4.85959
O        -13.62164        0.21417       -3.26097
H        -13.63162        1.13946       -3.01297
H        -13.61019        0.21433       -4.21890
O        -13.55532       -2.26934        0.29992
H        -12.80322       -1.68157        0.21858
H        -13.27801       -3.08602       -0.11709
O        -12.92896        0.61641        2.10872
H        -12.93894        1.54170        2.35672
H        -12.91751        0.61657        1.15079
O        -11.43394       -0.48873       -3.00258
H        -11.44392        0.43656       -2.75458
H        -11.42249       -0.48857       -3.96051
O        -11.00121        0.71685       -0.57911
H        -10.04962        0.69377       -0.68731
H        -11.28886       -0.18585       -0.72103
O        -10.70213        1.19178        2.07077
H        -11.10596        1.42467        1.23385
H        -10.59856        0.23990        2.03973
O        -13.12019        1.43386        4.31107
H        -12.16433        1.36994        4.31454
H        -13.42798        0.53917        4.16088
O        -10.17159        1.04048        4.32241
H        -10.43803        1.83358        3.85575
H        -10.96642        0.50900        4.38197
O         -8.97785        1.96357       -4.51967
H         -8.47705        1.48487       -5.18135
H         -9.71315        1.38942       -4.30184
O         -8.42337        1.95831       -2.04574
H         -7.57365        2.05776       -1.61463
H         -8.34388        1.15993       -2.56922
O         -8.98543        1.94694        3.71357
H         -8.99542        2.87223        3.96157
H         -8.97398        1.94710        2.75564
O         -3.91505        0.86752       -0.88696
H         -3.23057        1.46294       -1.19472
H         -4.07494        0.27300       -1.62095
O         -2.81569        0.97434        1.27956
H         -2.24634        1.70232        1.02725
H         -3.03457        0.53424        0.45727
O         -1.52418        1.06724        3.79306
H         -1.27535        1.99221        3.77651
H         -1.84173        0.88004        2.90882
O          0.77614        0.94174        3.44380
H          0.76616        1.86703        3.69180
H          0.78759        0.94190        2.48587
O         -0.32757        0.76437        1.52766
H         -0.33755        1.68966        1.77566
H         -0.31612        0.76453        0.56973
O         -1.34444        0.56192       -0.62410
H         -1.35442        1.48721       -0.37610
H         -1.33299        0.56208       -1.58203
O         -1.69187        0.61777       -3.17804
H         -1.41591        1.35544       -3.72343
H         -1.47812       -0.16299       -3.69037
O          0.10976        0.70808       -4.55792
H          0.93920        0.62569       -5.03015
H         -0.44321        0.00636       -4.90373
O          2.49375        0.69368       -4.19824
H          3.40651        0.89549       -4.40781
H          2.37354       -0.21813       -4.46639
O          5.61866        0.54813       -4.04275
H          6.38603        0.72871       -4.58708
H          5.07918       -0.04732       -4.56445
O          5.65707        0.35301       -1.67564
H          5.64709        1.27830       -1.42764
H          5.66852        0.35317       -2.63357
O          5.96750        0.88238        0.59656
H          6.75767        1.20899        0.16444
H          5.43012        0.52109       -0.10945
O          7.24860        1.06629        2.64283
H          8.15256        1.37631        2.70998
H          7.15925        0.75601        1.74088
O         10.16750        1.06151        3.71321
H          9.32974        1.51667        3.80674
H         10.22661        0.83957        2.78315
O          8.97955        0.85687        0.21002
H          9.82220        1.11411        0.58623
H          9.19688        0.44822       -0.62875
O          8.33349        0.48162       -1.84569
H          7.55552        1.04057       -1.83606
H          8.48357        0.28148       -2.77046
O          8.81790        0.37049       -4.07546
H          9.67281        0.80049       -4.12007
H          8.72363       -0.08157       -4.91482
O         11.38667        0.02946       -4.04663
H         11.37669        0.95475       -3.79863
H         11.39812        0.02962       -5.00456
O         10.82969        0.67163       -1.57385
H         11.71112        0.87662       -1.25947
H         10.96184        0.24261       -2.42016
O         11.78584        1.05988        1.12637
H         12.69485        0.76511        1.19400
H         11.47817        0.72360        0.28374
O         12.10503        1.07478        4.14483
H         11.69658        1.35775        3.32577
H         13.03761        0.99289        3.94148
O         14.18196        0.83426        2.31380
H         14.06157        0.78709        1.36456
H         13.37122        1.22025        2.64768
O         13.43867        0.05828       -3.63904
H         12.95856        0.70696       -3.12284
H         13.31009        0.32253       -4.55085
O         13.49933        0.28637       -0.69734
H         14.11539        0.94979       -0.38412
H         12.96158        0.73599       -1.35035
O          1.09108        4.08788       -3.34650
H          1.08110        5.01317       -3.09850
H          1.10253        4.08804       -4.30443
O          1.31455        5.30416       -1.26105
H          1.00437        5.28106       -0.35495
H          1.05120        4.46232       -1.63482
O          1.12307        3.90722        1.33333
H          0.54227        4.65017        1.50200
H          1.31501        3.95041        0.39575
O          0.63317        5.19177        3.47687
H          1.17343        4.41428        3.62311
H          0.76931        5.41870        2.55614
O          1.34931       -4.83004       -3.96999
H          1.33933       -3.90475       -3.72199
H          1.36076       -4.82988       -4.92792
O          0.85160       -5.51610        4.15772
H          0.84162       -4.59081        4.40572
H          0.86305       -5.51595        3.19979
O          1.08770       -5.04094        1.25655
H          0.95151       -5.91620        0.89167
H          1.07719       -4.45272        0.50047
O          8.72170        3.40607       -2.28758
H          8.71172        4.33136       -2.03958
H          8.73315        3.40623       -3.24551
O        -10.70711       -4.61463       -3.25226
H        -10.71709       -3.68934       -3.00426
H        -10.69566       -4.61447       -4.21019
O          4.58726        4.49851        0.24189
H          3.89937        3.83241        0.27161
H          4.56357        4.83966       -0.65299
O          3.26808        2.72966        3.41896
H          2.57996        2.08001        3.56798
H          3.42412        2.71323        2.47390
O         -3.18027       -4.72476       -3.83070
H         -3.19025       -3.79947       -3.58270
H         -3.16882       -4.72460       -4.78863
O         -2.01631       -2.81344       -2.64526
H         -2.01128       -2.08499       -3.26743
H         -1.62354       -3.54731       -3.11953
O         -5.94997       -4.76748        3.11800
H         -5.95995       -3.84219        3.36600
H         -5.93852       -4.76732        2.16007
O         -8.16406        4.41890        3.59481
H         -8.65570        3.61751        3.41088
H         -7.75836        4.27018        4.44983
O        -10.72474        4.30270        1.07266
H        -10.58460        3.97611        0.18302
H        -10.49016        3.57126        1.64513
O         -3.12408        2.78291       -3.51102
H         -3.13406        3.70820       -3.26302
H         -3.11263        2.78307       -4.46895
O         -5.38152        4.42336        1.88063
H         -5.39150        5.34865        2.12863
H         -5.37007        4.42352        0.92270
O         -2.63940        4.68136        0.90298
H         -2.64938        5.60665        1.15098
H         -2.62795        4.68152       -0.05495
O          6.79438        3.43766        2.55872
H          6.78440        4.36295        2.80672
H          6.80583        3.43782        1.60079
O          1.71746       -0.14241        1.05092
H          1.70748        0.78288        1.29892
H          1.72891       -0.14225        0.09299
O          1.01346        0.20690       -1.46740
H          1.00347        1.13219       -1.21940
H          1.02491        0.20705       -2.42533
O         11.97739        3.84936       -2.14722
H         11.96498        4.77496       -1.90048
H         11.99835        3.84834       -3.10499
O          8.77822        4.29573        3.75104
H          8.85747        5.21892        3.99438
H          8.68935        4.29749        2.79717
O          5.57077       -4.41478        3.61309
H          5.56079       -3.48949        3.86109
H          5.58222       -4.41462        2.65516
O          7.30962       -3.19845        1.74349
H          7.29964       -2.27316        1.99149
H          7.32107       -3.19829        0.78556
O          9.40485       -1.57057        3.48287
H          9.93258       -2.36461        3.57641
H          9.45647       -1.13667        4.33541
O         12.50292       -2.23437        0.56594
H         12.41418       -3.12666        0.22871
H         12.92437       -2.33308        1.42058
O         13.00209       -4.59801       -1.32953
H         12.99211       -3.67272       -1.08153
H         13.01354       -4.59786       -2.28746
O         -9.02800       -4.48355        4.38654
H         -9.32180       -3.57304        4.43565
H         -8.98685       -4.68064        3.44993
O         -7.79824       -4.99232        1.22907
H         -7.71200       -4.08447        1.52257
H         -7.75931       -4.94853        0.27287
O        -12.94899       -5.79609        1.87718
H        -12.95897       -4.87080        2.12518
H        -12.93754       -5.79593        0.91925
O          9.31306       -5.07872       -1.56887
H          9.30307       -4.15343       -1.32087
H          9.32451       -5.07857       -2.52680
O        -13.02967       -4.45592       -2.16225
H        -13.03965       -3.53063       -1.91425
H        -13.01822       -4.45577       -3.12018
O        -13.16517        3.94256        2.67252
H        -13.17515        4.86785        2.92052
H        -13.15372        3.94271        1.71459
O         -8.11830        2.68010        0.27973
H         -8.10685        2.68026       -0.67821
H         -8.12828        3.60539        0.52773
O         -5.31466        4.55274       -2.04128
H         -5.32464        5.47803       -1.79329
H         -5.30321        4.55290       -2.99922