910

C        -10.84826       -5.89725       -8.72973
C         -8.30975       -5.91017       -8.67559
C         -9.56515       -5.16208       -9.18589
H         -8.33276       -5.93121       -7.56056
H         -8.25739       -2.94867      -10.23065
C         -8.28455       -2.97028       -9.11568
C         -9.56971       -3.70532       -8.66403
H         -9.54040       -5.14262      -10.30093
C        -10.82205       -2.95686       -9.18034
C        -12.10918       -3.68891       -8.72797
C        -12.10427       -5.15204       -9.24399
H        -12.07692       -5.13625      -10.35904
H        -10.87333       -5.91487       -7.61476
H         -9.59720       -3.72482       -7.54910
H        -10.79345       -2.93888      -10.29525
H        -12.13633       -3.70479       -7.61294
C        -10.82412       -1.49975       -8.65908
C         -8.28788       -1.51451       -8.59028
C         -9.53677       -0.76507       -9.10763
C        -12.07088       -0.74930       -9.18035
H        -10.85588       -1.51794       -7.54424
H         -8.31757       -1.53598       -7.47541
H        -12.03687       -0.73263      -10.29545
H         -9.50544       -0.74550      -10.22269
C        -13.36640       -1.47658       -8.73431
C        -13.36521       -2.93928       -9.24427
C        -13.39182       -5.88831       -8.78992
C        -14.59436       -0.70532       -9.25618
C        -14.63435       -3.68561       -8.79172
C        -14.62928       -5.12894       -9.30439
H        -14.60786       -0.70422      -10.36834
H        -13.40807       -1.48887       -7.62080
H        -13.34515       -2.92686      -10.35839
H        -14.71017       -3.68705       -7.68214
H        -14.65035       -5.12707      -10.41634
H        -13.42659       -5.90040       -7.67622
C        -14.58666        0.73983       -8.74562
C        -13.30484        1.46012       -9.17716
C        -12.06672        0.71166       -8.66158
C        -10.78273        1.43634       -9.10067
C         -9.53926        0.69338       -8.58547
C         -8.25556        1.42216       -9.02267
H        -14.66812        0.74735       -7.63742
H        -12.10080        0.70739       -7.54863
H         -9.57269        0.68651       -7.47260
H        -13.28125        1.53087      -10.28707
H        -10.74854        1.50513      -10.21149
H         -8.22235        1.49483      -10.13321
C         -8.30473        5.89176       -9.20016
C         -9.58374        5.15579       -8.74052
C        -10.84058        5.90339       -9.25026
H         -8.28415        5.91263      -10.31529
C         -9.57693        3.69683       -9.26132
H         -9.60482        5.13715       -7.62528
C        -10.85117        2.96746       -8.80572
C        -12.10463        3.70497       -9.30737
C        -12.11889        5.16636       -8.79002
H         -9.55796        3.70275      -10.37457
H        -10.81858        5.92111      -10.36537
H        -12.13950        5.15028       -7.67458
H        -12.08418        3.70857      -10.42069
H        -10.87128        2.89975       -7.69451
C         -8.32249        2.95552       -8.76422
H         -8.34017        2.88469       -7.65326
C        -13.38330        5.90679       -9.29928
C        -13.37431        2.96991       -8.85312
C        -14.64346        5.14871       -8.83845
C        -14.62567        3.70317       -9.34766
H        -13.37008        5.91879      -10.41353
H        -14.71179        5.14857       -7.72834
H        -14.65242        3.69561      -10.45854
H        -13.40614        2.89990       -7.74336
C         -3.24926       -5.89725       -8.72973
C         -0.71075       -5.91017       -8.67559
C         -1.96615       -5.16208       -9.18589
H         -0.73376       -5.93121       -7.56056
H         -0.65839       -2.94867      -10.23065
C         -0.68555       -2.97028       -9.11568
C         -1.97071       -3.70532       -8.66403
H         -1.94140       -5.14262      -10.30093
C         -3.22305       -2.95686       -9.18034
C         -4.51018       -3.68891       -8.72797
C         -4.50527       -5.15204       -9.24399
H         -4.47792       -5.13625      -10.35904
H         -3.27433       -5.91487       -7.61476
H         -1.99820       -3.72482       -7.54910
H         -3.19445       -2.93888      -10.29525
H         -4.53733       -3.70479       -7.61294
C         -3.22512       -1.49975       -8.65908
C         -0.68888       -1.51451       -8.59028
C         -1.93777       -0.76507       -9.10763
C         -4.47188       -0.74930       -9.18035
H         -3.25688       -1.51794       -7.54424
H         -0.71857       -1.53598       -7.47541
H         -4.43787       -0.73263      -10.29545
H         -1.90644       -0.74550      -10.22269
C         -5.76740       -1.47658       -8.73431
C         -5.76621       -2.93928       -9.24427
C         -5.79282       -5.88831       -8.78992
C         -6.99536       -0.70532       -9.25618
C         -7.03535       -3.68561       -8.79172
C         -7.03028       -5.12894       -9.30439
H         -7.00886       -0.70422      -10.36834
H         -5.80907       -1.48887       -7.62080
H         -5.74615       -2.92686      -10.35839
H         -7.11117       -3.68705       -7.68214
H         -7.05135       -5.12707      -10.41634
H         -5.82759       -5.90040       -7.67622
C         -6.98766        0.73983       -8.74562
C         -5.70584        1.46012       -9.17716
C         -4.46772        0.71166       -8.66158
C         -3.18373        1.43634       -9.10067
C         -1.94026        0.69338       -8.58547
C         -0.65656        1.42216       -9.02267
H         -7.06912        0.74735       -7.63742
H         -4.50180        0.70739       -7.54863
H         -1.97369        0.68651       -7.47260
H         -5.68225        1.53087      -10.28707
H         -3.14954        1.50513      -10.21149
H         -0.62335        1.49483      -10.13321
C         -0.70573        5.89176       -9.20016
C         -1.98474        5.15579       -8.74052
C         -3.24158        5.90339       -9.25026
H         -0.68515        5.91263      -10.31529
C         -1.97793        3.69683       -9.26132
H         -2.00582        5.13715       -7.62528
C         -3.25217        2.96746       -8.80572
C         -4.50563        3.70497       -9.30737
C         -4.51989        5.16636       -8.79002
H         -1.95896        3.70275      -10.37457
H         -3.21958        5.92111      -10.36537
H         -4.54050        5.15028       -7.67458
H         -4.48518        3.70857      -10.42069
H         -3.27228        2.89975       -7.69451
C         -0.72349        2.95552       -8.76422
H         -0.74117        2.88469       -7.65326
C         -5.78430        5.90679       -9.29928
C         -5.77531        2.96991       -8.85312
C         -7.04446        5.14871       -8.83845
C         -7.02667        3.70317       -9.34766
H         -5.77108        5.91879      -10.41353
H         -7.11279        5.14857       -7.72834
H         -7.05342        3.69561      -10.45854
H         -5.80714        2.89990       -7.74336
C          4.34974       -5.89725       -8.72973
C          6.88825       -5.91017       -8.67559
C          5.63285       -5.16208       -9.18589
H          6.86524       -5.93121       -7.56056
H          6.94061       -2.94867      -10.23065
C          6.91345       -2.97028       -9.11568
C          5.62829       -3.70532       -8.66403
H          5.65760       -5.14262      -10.30093
C          4.37595       -2.95686       -9.18034
C          3.08882       -3.68891       -8.72797
C          3.09373       -5.15204       -9.24399
H          3.12108       -5.13625      -10.35904
H          4.32467       -5.91487       -7.61476
H          5.60080       -3.72482       -7.54910
H          4.40455       -2.93888      -10.29525
H          3.06167       -3.70479       -7.61294
C          4.37388       -1.49975       -8.65908
C          6.91012       -1.51451       -8.59028
C          5.66123       -0.76507       -9.10763
C          3.12712       -0.74930       -9.18035
H          4.34212       -1.51794       -7.54424
H          6.88043       -1.53598       -7.47541
H          3.16113       -0.73263      -10.29545
H          5.69256       -0.74550      -10.22269
C          1.83160       -1.47658       -8.73431
C          1.83279       -2.93928       -9.24427
C          1.80618       -5.88831       -8.78992
C          0.60364       -0.70532       -9.25618
C          0.56365       -3.68561       -8.79172
C          0.56872       -5.12894       -9.30439
H          0.59014       -0.70422      -10.36834
H          1.78993       -1.48887       -7.62080
H          1.85285       -2.92686      -10.35839
H          0.48783       -3.68705       -7.68214
H          0.54765       -5.12707      -10.41634
H          1.77141       -5.90040       -7.67622
C          0.61134        0.73983       -8.74562
C          1.89316        1.46012       -9.17716
C          3.13128        0.71166       -8.66158
C          4.41527        1.43634       -9.10067
C          5.65874        0.69338       -8.58547
C          6.94244        1.42216       -9.02267
H          0.52988        0.74735       -7.63742
H          3.09720        0.70739       -7.54863
H          5.62531        0.68651       -7.47260
H          1.91675        1.53087      -10.28707
H          4.44946        1.50513      -10.21149
H          6.97565        1.49483      -10.13321
C          6.89327        5.89176       -9.20016
C          5.61426        5.15579       -8.74052
C          4.35742        5.90339       -9.25026
H          6.91385        5.91263      -10.31529
C          5.62107        3.69683       -9.26132
H          5.59318        5.13715       -7.62528
C          4.34683        2.96746       -8.80572
C          3.09337        3.70497       -9.30737
C          3.07911        5.16636       -8.79002
H          5.64004        3.70275      -10.37457
H          4.37942        5.92111      -10.36537
H          3.05850        5.15028       -7.67458
H          3.11382        3.70857      -10.42069
H          4.32672        2.89975       -7.69451
C          6.87551        2.95552       -8.76422
H          6.85783        2.88469       -7.65326
C          1.81470        5.90679       -9.29928
C          1.82369        2.96991       -8.85312
C          0.55454        5.14871       -8.83845
C          0.57233        3.70317       -9.34766
H          1.82792        5.91879      -10.41353
H          0.48621        5.14857       -7.72834
H          0.54558        3.69561      -10.45854
H          1.79186        2.89990       -7.74336
C         11.94874       -5.89725       -8.72973
C         14.48725       -5.91017       -8.67559
C         13.23185       -5.16208       -9.18589
H         14.46424       -5.93121       -7.56056
H         14.53961       -2.94867      -10.23065
C         14.51245       -2.97028       -9.11568
C         13.22729       -3.70532       -8.66403
H         13.25660       -5.14262      -10.30093
C         11.97495       -2.95686       -9.18034
C         10.68782       -3.68891       -8.72797
C         10.69273       -5.15204       -9.24399
H         10.72008       -5.13625      -10.35904
H         11.92367       -5.91487       -7.61476
H         13.19980       -3.72482       -7.54910
H         12.00355       -2.93888      -10.29525
H         10.66067       -3.70479       -7.61294
C         11.97288       -1.49975       -8.65908
C         14.50912       -1.51451       -8.59028
C         13.26023       -0.76507       -9.10763
C         10.72612       -0.74930       -9.18035
H         11.94112       -1.51794       -7.54424
H         14.47943       -1.53598       -7.47541
H         10.76013       -0.73263      -10.29545
H         13.29156       -0.74550      -10.22269
C          9.43060       -1.47658       -8.73431
C          9.43179       -2.93928       -9.24427
C          9.40518       -5.88831       -8.78992
C          8.20264       -0.70532       -9.25618
C          8.16265       -3.68561       -8.79172
C          8.16772       -5.12894       -9.30439
H          8.18914       -0.70422      -10.36834
H          9.38893       -1.48887       -7.62080
H          9.45185       -2.92686      -10.35839
H          8.08683       -3.68705       -7.68214
H          8.14665       -5.12707      -10.41634
H          9.37041       -5.90040       -7.67622
C          8.21034        0.73983       -8.74562
C          9.49216        1.46012       -9.17716
C         10.73028        0.71166       -8.66158
C         12.01427        1.43634       -9.10067
C         13.25774        0.69338       -8.58547
C         14.54144        1.42216       -9.02267
H          8.12888        0.74735       -7.63742
H         10.69620        0.70739       -7.54863
H         13.22431        0.68651       -7.47260
H          9.51575        1.53087      -10.28707
H         12.04846        1.50513      -10.21149
H         14.57465        1.49483      -10.13321
C         14.49227        5.89176       -9.20016
C         13.21326        5.15579       -8.74052
C         11.95642        5.90339       -9.25026
H         14.51285        5.91263      -10.31529
C         13.22007        3.69683       -9.26132
H         13.19218        5.13715       -7.62528
C         11.94583        2.96746       -8.80572
C         10.69237        3.70497       -9.30737
C         10.67811        5.16636       -8.79002
H         13.23904        3.70275      -10.37457
H         11.97842        5.92111      -10.36537
H         10.65750        5.15028       -7.67458
H         10.71282        3.70857      -10.42069
H         11.92572        2.89975       -7.69451
C         14.47451        2.95552       -8.76422
H         14.45683        2.88469       -7.65326
C          9.41370        5.90679       -9.29928
C          9.42269        2.96991       -8.85312
C          8.15354        5.14871       -8.83845
C          8.17133        3.70317       -9.34766
H          9.42692        5.91879      -10.41353
H          8.08521        5.14857       -7.72834
H          8.14458        3.69561      -10.45854
H          9.39086        2.89990       -7.74336
C        -10.84826       -5.89725        8.77027
C         -8.30975       -5.91017        8.82441
C         -9.56515       -5.16208        8.31411
H         -8.33276       -5.93121        9.93944
H         -8.25739       -2.94867        7.26935
C         -8.28455       -2.97028        8.38432
C         -9.56971       -3.70532        8.83597
H         -9.54040       -5.14262        7.19907
C        -10.82205       -2.95686        8.31966
C        -12.10918       -3.68891        8.77203
C        -12.10427       -5.15204        8.25601
H        -12.07692       -5.13625        7.14096
H        -10.87333       -5.91487        9.88524
H         -9.59720       -3.72482        9.95090
H        -10.79345       -2.93888        7.20475
H        -12.13633       -3.70479        9.88706
C        -10.82412       -1.49975        8.84092
C         -8.28788       -1.51451        8.90972
C         -9.53677       -0.76507        8.39237
C        -12.07088       -0.74930        8.31965
H        -10.85588       -1.51794        9.95576
H         -8.31757       -1.53598       10.02459
H        -12.03687       -0.73263        7.20455
H         -9.50544       -0.74550        7.27731
C        -13.36640       -1.47658        8.76569
C        -13.36521       -2.93928        8.25573
C        -13.39182       -5.88831        8.71008
C        -14.59436       -0.70532        8.24382
C        -14.63435       -3.68561        8.70828
C        -14.62928       -5.12894        8.19561
H        -14.60786       -0.70422        7.13166
H        -13.40807       -1.48887        9.87920
H        -13.34515       -2.92686        7.14161
H        -14.71017       -3.68705        9.81786
H        -14.65035       -5.12707        7.08366
H        -13.42659       -5.90040        9.82378
C        -14.58666        0.73983        8.75438
C        -13.30484        1.46012        8.32284
C        -12.06672        0.71166        8.83842
C        -10.78273        1.43634        8.39933
C         -9.53926        0.69338        8.91453
C         -8.25556        1.42216        8.47733
H        -14.66812        0.74735        9.86258
H        -12.10080        0.70739        9.95137
H         -9.57269        0.68651       10.02740
H        -13.28125        1.53087        7.21293
H        -10.74854        1.50513        7.28851
H         -8.22235        1.49483        7.36679
C         -8.30473        5.89176        8.29984
C         -9.58374        5.15579        8.75948
C        -10.84058        5.90339        8.24974
H         -8.28415        5.91263        7.18471
C         -9.57693        3.69683        8.23868
H         -9.60482        5.13715        9.87472
C        -10.85117        2.96746        8.69428
C        -12.10463        3.70497        8.19263
C        -12.11889        5.16636        8.70998
H         -9.55796        3.70275        7.12543
H        -10.81858        5.92111        7.13463
H        -12.13950        5.15028        9.82542
H        -12.08418        3.70857        7.07931
H        -10.87128        2.89975        9.80549
C         -8.32249        2.95552        8.73578
H         -8.34017        2.88469        9.84674
C        -13.38330        5.90679        8.20072
C        -13.37431        2.96991        8.64688
C        -14.64346        5.14871        8.66155
C        -14.62567        3.70317        8.15234
H        -13.37008        5.91879        7.08647
H        -14.71179        5.14857        9.77166
H        -14.65242        3.69561        7.04146
H        -13.40614        2.89990        9.75664
C         -3.24926       -5.89725        8.77027
C         -0.71075       -5.91017        8.82441
C         -1.96615       -5.16208        8.31411
H         -0.73376       -5.93121        9.93944
H         -0.65839       -2.94867        7.26935
C         -0.68555       -2.97028        8.38432
C         -1.97071       -3.70532        8.83597
H         -1.94140       -5.14262        7.19907
C         -3.22305       -2.95686        8.31966
C         -4.51018       -3.68891        8.77203
C         -4.50527       -5.15204        8.25601
H         -4.47792       -5.13625        7.14096
H         -3.27433       -5.91487        9.88524
H         -1.99820       -3.72482        9.95090
H         -3.19445       -2.93888        7.20475
H         -4.53733       -3.70479        9.88706
C         -3.22512       -1.49975        8.84092
C         -0.68888       -1.51451        8.90972
C         -1.93777       -0.76507        8.39237
C         -4.47188       -0.74930        8.31965
H         -3.25688       -1.51794        9.95576
H         -0.71857       -1.53598       10.02459
H         -1.90644       -0.74550        7.27731
C         -5.76740       -1.47658        8.76569
C         -5.76621       -2.93928        8.25573
C         -5.79282       -5.88831        8.71008
C         -6.99536       -0.70532        8.24382
C         -7.03535       -3.68561        8.70828
C         -7.03028       -5.12894        8.19561
H         -7.00886       -0.70422        7.13166
H         -5.80907       -1.48887        9.87920
H         -5.74615       -2.92686        7.14161
H         -7.11117       -3.68705        9.81786
H         -7.05135       -5.12707        7.08366
H         -5.82759       -5.90040        9.82378
C         -6.98766        0.73983        8.75438
C         -5.70584        1.46012        8.32284
C         -4.46772        0.71166        8.83842
C         -3.18373        1.43634        8.39933
C         -1.94026        0.69338        8.91453
C         -0.65656        1.42216        8.47733
H         -7.06912        0.74735        9.86258
H         -4.50180        0.70739        9.95137
H         -1.97369        0.68651       10.02740
H         -5.68225        1.53087        7.21293
H         -3.14954        1.50513        7.28851
H         -0.62335        1.49483        7.36679
C         -0.70573        5.89176        8.29984
C         -1.98474        5.15579        8.75948
C         -3.24158        5.90339        8.24974
H         -0.68515        5.91263        7.18471
C         -1.97793        3.69683        8.23868
H         -2.00582        5.13715        9.87472
C         -3.25217        2.96746        8.69428
C         -4.50563        3.70497        8.19263
C         -4.51989        5.16636        8.70998
H         -1.95896        3.70275        7.12543
H         -3.21958        5.92111        7.13463
H         -4.54050        5.15028        9.82542
H         -4.48518        3.70857        7.07931
H         -3.27228        2.89975        9.80549
C         -0.72349        2.95552        8.73578
H         -0.74117        2.88469        9.84674
C         -5.78430        5.90679        8.20072
C         -5.77531        2.96991        8.64688
C         -7.04446        5.14871        8.66155
C         -7.02667        3.70317        8.15234
H         -5.77108        5.91879        7.08647
H         -7.11279        5.14857        9.77166
H         -7.05342        3.69561        7.04146
H         -5.80714        2.89990        9.75664
C          4.34974       -5.89725        8.77027
C          6.88825       -5.91017        8.82441
C          5.63285       -5.16208        8.31411
H          6.86524       -5.93121        9.93944
H          6.94061       -2.94867        7.26935
C          6.91345       -2.97028        8.38432
C          5.62829       -3.70532        8.83597
H          5.65760       -5.14262        7.19907
C          4.37595       -2.95686        8.31966
C          3.08882       -3.68891        8.77203
C          3.09373       -5.15204        8.25601
H          3.12108       -5.13625        7.14096
H          4.32467       -5.91487        9.88524
H          5.60080       -3.72482        9.95090
H          4.40455       -2.93888        7.20475
H          3.06167       -3.70479        9.88706
C          4.37388       -1.49975        8.84092
C          6.91012       -1.51451        8.90972
C          5.66123       -0.76507        8.39237
C          3.12712       -0.74930        8.31965
H          4.34212       -1.51794        9.95576
H          6.88043       -1.53598       10.02459
H          3.16113       -0.73263        7.20455
C          1.83160       -1.47658        8.76569
C          1.83279       -2.93928        8.25573
C          1.80618       -5.88831        8.71008
C          0.60364       -0.70532        8.24382
C          0.56365       -3.68561        8.70828
C          0.56872       -5.12894        8.19561
H          0.59014       -0.70422        7.13166
H          1.78993       -1.48887        9.87920
H          1.85285       -2.92686        7.14161
H          0.48783       -3.68705        9.81786
H          0.54765       -5.12707        7.08366
H          1.77141       -5.90040        9.82378
C          0.61134        0.73983        8.75438
C          1.89316        1.46012        8.32284
C          3.13128        0.71166        8.83842
C          4.41527        1.43634        8.39933
C          5.65874        0.69338        8.91453
C          6.94244        1.42216        8.47733
H          0.52988        0.74735        9.86258
H          3.09720        0.70739        9.95137
H          5.62531        0.68651       10.02740
H          1.91675        1.53087        7.21293
H          4.44946        1.50513        7.28851
H          6.97565        1.49483        7.36679
C          6.89327        5.89176        8.29984
C          5.61426        5.15579        8.75948
C          4.35742        5.90339        8.24974
H          6.91385        5.91263        7.18471
C          5.62107        3.69683        8.23868
H          5.59318        5.13715        9.87472
C          4.34683        2.96746        8.69428
C          3.09337        3.70497        8.19263
C          3.07911        5.16636        8.70998
H          5.64004        3.70275        7.12543
H          4.37942        5.92111        7.13463
H          3.05850        5.15028        9.82542
H          3.11382        3.70857        7.07931
H          4.32672        2.89975        9.80549
C          6.87551        2.95552        8.73578
H          6.85783        2.88469        9.84674
C          1.81470        5.90679        8.20072
C          1.82369        2.96991        8.64688
C          0.55454        5.14871        8.66155
C          0.57233        3.70317        8.15234
H          1.82792        5.91879        7.08647
H          0.48621        5.14857        9.77166
H          0.54558        3.69561        7.04146
H          1.79186        2.89990        9.75664
C         11.94874       -5.89725        8.77027
C         14.48725       -5.91017        8.82441
C         13.23185       -5.16208        8.31411
H         14.46424       -5.93121        9.93944
H         14.53961       -2.94867        7.26935
C         14.51245       -2.97028        8.38432
C         13.22729       -3.70532        8.83597
H         13.25660       -5.14262        7.19907
C         11.97495       -2.95686        8.31966
C         10.68782       -3.68891        8.77203
C         10.69273       -5.15204        8.25601
H         10.72008       -5.13625        7.14096
H         11.92367       -5.91487        9.88524
H         13.19980       -3.72482        9.95090
H         12.00355       -2.93888        7.20475
H         10.66067       -3.70479        9.88706
C         11.97288       -1.49975        8.84092
C         14.50912       -1.51451        8.90972
C         13.26023       -0.76507        8.39237
C         10.72612       -0.74930        8.31965
H         11.94112       -1.51794        9.95576
H         14.47943       -1.53598       10.02459
H         10.76013       -0.73263        7.20455
H         13.29156       -0.74550        7.27731
C          9.43060       -1.47658        8.76569
C          9.43179       -2.93928        8.25573
C          9.40518       -5.88831        8.71008
C          8.20264       -0.70532        8.24382
C          8.16265       -3.68561        8.70828
C          8.16772       -5.12894        8.19561
H          8.18914       -0.70422        7.13166
H          9.38893       -1.48887        9.87920
H          9.45185       -2.92686        7.14161
H          8.08683       -3.68705        9.81786
H          8.14665       -5.12707        7.08366
H          9.37041       -5.90040        9.82378
C          8.21034        0.73983        8.75438
C          9.49216        1.46012        8.32284
C         10.73028        0.71166        8.83842
C         12.01427        1.43634        8.39933
C         13.25774        0.69338        8.91453
C         14.54144        1.42216        8.47733
H          8.12888        0.74735        9.86258
H         10.69620        0.70739        9.95137
H         13.22431        0.68651       10.02740
H          9.51575        1.53087        7.21293
H         12.04846        1.50513        7.28851
H         14.57465        1.49483        7.36679
C         14.49227        5.89176        8.29984
C         13.21326        5.15579        8.75948
C         11.95642        5.90339        8.24974
H         14.51285        5.91263        7.18471
C         13.22007        3.69683        8.23868
H         13.19218        5.13715        9.87472
C         11.94583        2.96746        8.69428
C         10.69237        3.70497        8.19263
C         10.67811        5.16636        8.70998
H         13.23904        3.70275        7.12543
H         11.97842        5.92111        7.13463
H         10.65750        5.15028        9.82542
H         10.71282        3.70857        7.07931
H         11.92572        2.89975        9.80549
C         14.47451        2.95552        8.73578
H         14.45683        2.88469        9.84674
C          9.41370        5.90679        8.20072
C          9.42269        2.96991        8.64688
C          8.15354        5.14871        8.66155
C          8.17133        3.70317        8.15234
H          9.42692        5.91879        7.08647
H          8.08521        5.14857        9.77166
H          8.14458        3.69561        7.04146
H          9.39086        2.89990        9.75664
N         -5.67923       -1.54937        4.57106
C         -5.73484       -1.36959        6.05557
H         -6.58560       -0.71787        6.28507
H         -5.89626       -2.39627        6.40355
C         -4.47188       -0.74930        6.69965
H         -3.58842       -1.39408        6.51437
H         -4.28189        0.26125        6.28364
C         -6.95941       -2.16119        4.13770
H         -7.11597       -3.15098        4.62312
H         -7.82439       -1.51110        4.40031
H         -6.97998       -2.32004        3.03572
C         -4.57459       -2.45561        4.17515
H         -4.64720       -3.43008        4.70767
H         -4.59904       -2.65967        3.08092
H         -3.58062       -2.00976        4.38923
C         -5.52684       -0.24984        3.87370
H         -5.57965       -0.38146        2.76938
H         -6.32958        0.46054        4.17286
H         -4.54369        0.21899        4.08800
N          2.12721       -3.07255        0.48694
C          2.07254       -2.89578        1.94626
H          1.25425       -2.21266        2.20113
H          1.90098       -3.86633        2.42567
C          3.39842       -2.31029        2.43941
H          4.21673       -2.99339        2.18455
H          3.56999       -1.33972        1.96006
C          5.66123       -0.76507        6.77237
H          6.54911       -1.41143        6.60518
H          5.85841        0.25234        6.37238
C          4.42388       -1.37038        6.11988
H          4.25411       -2.40986        6.42299
H          3.56190       -0.72390        6.32055
C          4.60448       -1.50606        4.60233
H          5.48794       -2.15084        4.41705
H          4.79447       -0.49551        4.18632
C          3.34152       -2.12635        3.95825
H          3.16698       -3.11415        4.44471
H          2.47456       -1.47616        4.21994
C          2.35754       -1.76992       -0.15644
H          3.30670       -1.35081        0.19666
H          1.53923       -1.08682        0.09841
H          2.39831       -1.90162       -1.24374
C          0.85328       -3.63507        0.01312
H          0.89403       -3.76679       -1.07418
H          0.03502       -2.95190        0.26796
H          0.68169       -4.60559        0.49255
C          3.22550       -3.98942        0.14492
H          4.17464       -3.57027        0.49800
H          3.26624       -4.12112       -0.94237
H          3.05386       -4.95994        0.62433
O         -6.00507        0.16763       -0.97250
H         -6.01505        1.09292       -0.72450
H         -5.99362        0.16779       -1.93043
O         -6.41581        1.49981       -4.14319
H         -5.65125        1.87904       -3.70799
H         -6.24684        1.60783       -5.07997
O        -13.68498        0.20970       -3.48135
H        -13.69496        1.13499       -3.23335
H        -13.67353        0.20986       -4.43928
O        -13.61866       -2.27381        0.07954
H        -12.86656       -1.68604       -0.00180
H        -13.34135       -3.09049       -0.33747
O        -12.99230        0.61194        1.88834
H        -13.00228        1.53723        2.13634
H        -12.98085        0.61210        0.93041
O        -11.49728       -0.49320       -3.22296
H        -11.50726        0.43209       -2.97496
H        -11.48583       -0.49304       -4.18089
O        -11.06455        0.71238       -0.79949
H        -10.11296        0.68930       -0.90769
H        -11.35220       -0.19032       -0.94141
O        -10.76547        1.18731        1.85039
H        -11.16930        1.42020        1.01347
H        -10.66190        0.23543        1.81935
O        -13.18353        1.42939        4.09069
H        -12.22767        1.36547        4.09416
H        -13.49132        0.53470        3.94050
O        -10.23493        1.03601        4.10203
H        -10.50137        1.82911        3.63537
H        -11.02976        0.50453        4.16159
O         -9.04119        1.95910       -4.74005
H         -8.54039        1.48040       -5.40173
H         -9.77649        1.38495       -4.52222
O         -8.48671        1.95384       -2.26612
H         -7.63699        2.05329       -1.83501
H         -8.40722        1.15546       -2.78960
O         -9.04877        1.94247        3.49319
H         -9.05876        2.86776        3.74119
H         -9.03732        1.94263        2.53526
O         -3.97839        0.86305       -1.10734
H         -3.29391        1.45847       -1.41510
H         -4.13828        0.26853       -1.84133
O         -2.87903        0.96987        1.05918
H         -2.30968        1.69785        0.80687
H         -3.09791        0.52977        0.23689
O         -1.58752        1.06277        3.57268
H         -1.33869        1.98774        3.55613
H         -1.90507        0.87557        2.68844
O          0.71280        0.93727        3.22342
H          0.70282        1.86256        3.47142
H          0.72425        0.93743        2.26549
O         -0.39091        0.75990        1.30728
H         -0.40089        1.68519        1.55528
H         -0.37946        0.76006        0.34935
O         -1.40778        0.55745       -0.84448
H         -1.41776        1.48274       -0.59648
H         -1.39633        0.55761       -1.80241
O         -1.75521        0.61330       -3.39842
H         -1.47925        1.35097       -3.94381
H         -1.54146       -0.16746       -3.91075
O          0.04642        0.70361       -4.77830
H          0.87586        0.62122       -5.25053
H         -0.50655        0.00189       -5.12411
O          2.43041        0.68921       -4.41862
H          3.34317        0.89102       -4.62819
H          2.31020       -0.22260       -4.68677
O          5.55532        0.54366       -4.26313
H          6.32269        0.72424       -4.80746
H          5.01584       -0.05179       -4.78483
O          5.59373        0.34854       -1.89602
H          5.58375        1.27383       -1.64802
H          5.60518        0.34870       -2.85395
O          5.90416        0.87791        0.37618
H          6.69433        1.20452       -0.05594
H          5.36678        0.51662       -0.32983
O          7.18526        1.06182        2.42245
H          8.08922        1.37184        2.48960
H          7.09591        0.75154        1.52050
O         10.10416        1.05704        3.49283
H          9.26640        1.51220        3.58636
H         10.16327        0.83510        2.56277
O          8.91621        0.85240       -0.01036
H          9.75886        1.10964        0.36585
H          9.13354        0.44375       -0.84913
O          8.27015        0.47715       -2.06607
H          7.49218        1.03610       -2.05644
H          8.42023        0.27701       -2.99084
O          8.75456        0.36602       -4.29584
H          9.60947        0.79602       -4.34045
H          8.66029       -0.08604       -5.13520
O         11.32333        0.02499       -4.26701
H         11.31335        0.95028       -4.01901
H         11.33478        0.02515       -5.22494
O         10.76635        0.66716       -1.79423
H         11.64778        0.87215       -1.47985
H         10.89850        0.23814       -2.64054
O         11.72250        1.05541        0.90599
H         12.63151        0.76064        0.97362
H         11.41483        0.71913        0.06336
O         12.04169        1.07031        3.92445
H         11.63324        1.35328        3.10539
H         12.97427        0.98842        3.72110
O         14.11862        0.82979        2.09342
H         13.99823        0.78262        1.14418
H         13.30788        1.21578        2.42730
O         13.37533        0.05381       -3.85942
H         12.89522        0.70249       -3.34322
H         13.24675        0.31806       -4.77123
O         13.43599        0.28190       -0.91772
H         14.05205        0.94532       -0.60450
H         12.89824        0.73152       -1.57073
O          1.02774        4.08341       -3.56688
H          1.01776        5.00870       -3.31888
H          1.03919        4.08357       -4.52481
O          1.25121        5.29969       -1.48143
H          0.94103        5.27659       -0.57533
H          0.98786        4.45785       -1.85520
O          1.05973        3.90275        1.11295
H          0.47893        4.64570        1.28162
H          1.25167        3.94594        0.17537
O          0.56983        5.18730        3.25649
H          1.11009        4.40981        3.40273
H          0.70597        5.41423        2.33576
O          1.28597       -4.83451       -4.19037
H          1.27599       -3.90922       -3.94237
H          1.29742       -4.83435       -5.14830
O          0.78826       -5.52057        3.93734
H          0.77828       -4.59528        4.18534
H          0.79971       -5.52042        2.97941
O          8.65836        3.40160       -2.50796
H          8.64838        4.32689       -2.25996
H          8.66981        3.40176       -3.46589
O        -10.77045       -4.61910       -3.47264
H        -10.78043       -3.69381       -3.22464
H        -10.75900       -4.61894       -4.43057
O          4.52392        4.49404        0.02151
H          3.83603        3.82794        0.05123
H          4.50023        4.83519       -0.87337
O          3.20474        2.72519        3.19858
H          2.51662        2.07554        3.34760
H          3.36078        2.70876        2.25352
O         -3.24361       -4.72923       -4.05108
H         -3.25359       -3.80394       -3.80308
H         -3.23216       -4.72907       -5.00901
O         -2.07965       -2.81791       -2.86564
H         -2.07462       -2.08946       -3.48781
H         -1.68688       -3.55178       -3.33991
O         -6.01331       -4.77195        2.89762
H         -6.02329       -3.84666        3.14562
H         -6.00186       -4.77179        1.93969
O         -8.22740        4.41443        3.37443
H         -8.71904        3.61304        3.19050
H         -7.82170        4.26571        4.22945
O        -10.78808        4.29823        0.85228
H        -10.64794        3.97164       -0.03736
H        -10.55350        3.56679        1.42475
O         -3.18742        2.77844       -3.73140
H         -3.19740        3.70373       -3.48340
H         -3.17597        2.77860       -4.68933
O         -5.44486        4.41889        1.66025
H         -5.45484        5.34418        1.90825
H         -5.43341        4.41905        0.70232
O         -2.70274        4.67689        0.68260
H         -2.71272        5.60218        0.93060
H         -2.69129        4.67705       -0.27533
O          6.73104        3.43319        2.33834
H          6.72106        4.35848        2.58634
H          6.74249        3.43335        1.38041
O          0.95012        0.20243       -1.68778
H          0.94013        1.12772       -1.43978
H          0.96157        0.20258       -2.64571
O         11.91405        3.84489       -2.36760
H         11.90164        4.77049       -2.12086
H         11.93501        3.84387       -3.32537
O          8.71488        4.29126        3.53066
H          8.79413        5.21445        3.77400
H          8.62601        4.29302        2.57679
O          5.50743       -4.41925        3.39271
H          5.49745       -3.49396        3.64071
H          5.51888       -4.41909        2.43478
O          7.24628       -3.20292        1.52311
H          7.23630       -2.27763        1.77111
H          7.25773       -3.20276        0.56518
O          9.34151       -1.57504        3.26249
H          9.86924       -2.36908        3.35603
H          9.39313       -1.14114        4.11503
O         12.43958       -2.23884        0.34556
H         12.35084       -3.13113        0.00833
H         12.86103       -2.33755        1.20020
O         12.93875       -4.60248       -1.54991
H         12.92877       -3.67719       -1.30191
H         12.95020       -4.60233       -2.50784
O         -9.09134       -4.48802        4.16616
H         -9.38514       -3.57751        4.21527
H         -9.05019       -4.68511        3.22955
O         -7.86158       -4.99679        1.00869
H         -7.77534       -4.08894        1.30219
H         -7.82265       -4.95300        0.05249
O        -13.01233       -5.80056        1.65680
H        -13.02231       -4.87527        1.90480
H        -13.00088       -5.80040        0.69887
O          9.24972       -5.08319       -1.78925
H          9.23973       -4.15790       -1.54125
H          9.26117       -5.08304       -2.74718
O        -13.09301       -4.46039       -2.38263
H        -13.10299       -3.53510       -2.13463
H        -13.08156       -4.46024       -3.34056
O        -13.22851        3.93809        2.45214
H        -13.23849        4.86338        2.70014
H        -13.21706        3.93824        1.49421
O         -8.18164        2.67563        0.05935
H         -8.17019        2.67579       -0.89859
H         -8.19162        3.60092        0.30735
O         -5.37800        4.54827       -2.26166
H         -5.38798        5.47356       -2.01367
H         -5.36655        4.54843       -3.21960
O          7.54688        1.80563        4.19646
H          7.36254        2.45337        3.51514
H          7.69328        0.98464        3.72496
O         13.20840        4.00430        3.23668
H         13.63386        3.67839        4.03074
H         13.39785        3.34680        2.56618
O        -12.89845       -3.47651        3.96172
H        -12.32292       -3.66640        4.70366
H        -12.60714       -4.06573        3.26479
O         -8.55949       -3.36468       -1.71489
H         -8.56947       -2.43939       -1.46689
H         -8.54804       -3.36452       -2.67282
O         -6.75036        1.87525        0.54688
H         -6.29960        1.03311        0.47354
H         -6.08625        2.48448        0.87176
O         -5.98990       -1.97762        0.90158
H         -6.17830       -1.24938        0.30833
H         -5.11735       -2.28290        0.65012
O          3.69637        1.82496       -1.96542
H          3.71847        1.33571       -2.78876
H          4.02280        2.69797       -2.18693
O         -2.50432       -2.43302        2.38564
H         -2.53703       -1.75712        3.06377
H         -3.28324       -2.28316        1.84843
O         -0.59746        0.47076        4.99937
H         -1.35811        1.04730        5.08169
H          0.15286        1.06057        4.91625
O         10.99052        3.66661        4.40083
H         10.39453        4.40301        4.25845
H         10.50354        3.05750        4.95724
O        -14.40407        0.22466       -0.71110
H        -14.55171       -0.14748       -1.58143
H        -14.35287        1.17094       -0.85147
O         12.79151       -2.20521        4.06638
H         13.53879       -1.75374        4.46073
H         12.90976       -3.12771        4.29608
O          5.46638        0.38138        2.81866
H          5.11763        1.24696        3.03526
H          5.63144        0.40950        1.87541
O        -10.64525        4.14477       -5.23424
H        -11.40163        3.71115       -4.83720
H         -9.96433        3.47186       -5.27022
O         10.89351       -3.75275       -4.59256
H         10.08649       -3.50991       -4.13702
H         11.55943       -3.15305       -4.25396
O          8.16378        4.91895        0.89580
H          8.97924        5.01184        1.38992
H          7.86738        4.02521        1.07225
O         10.69971        3.73460        0.21522
H          9.85163        4.06596        0.51311
H         10.63063        3.69937       -0.73963
O          6.44477       -3.33221       -3.50722
H          7.22736       -2.78013       -3.53004
H          6.27614       -3.56124       -4.42202
O         -3.85379       -4.57186       -0.71268
H         -3.71802       -4.54968        0.23539
H         -4.49586       -3.88267       -0.88739
O         -1.57655       -4.09524        4.17011
H         -2.04933       -3.27274        4.03695
H         -0.67591       -3.83452        4.36664
O          5.85742        4.04924       -3.00713
H          5.07686        4.55964       -3.22618
H          5.94609        3.41405       -3.71877
O         -2.93991       -4.29548        3.01768
H         -3.65933       -4.26607        3.64961
H         -3.19033       -3.67950        2.32803
O         -9.63408       -0.26959       -2.22801
H         -9.64407        0.65570       -1.98001
O         10.90998       -4.71288        2.29369
H         10.90000       -3.78759        2.54169
