850

C   -10.80240000   -5.93683000   -8.69032000
C   -8.26389000   -5.94975000   -8.63618000
C   -9.51929000   -5.20166000   -9.14648000
H   -8.28690000   -5.97079000   -7.52115000
H   -8.21153000   -2.98825000   -10.19124000
C   -8.23869000   -3.00986000   -9.07627000
C   -9.52385000   -3.74490000   -8.62462000
H   -9.49454000   -5.18220000   -10.26152000
C   -10.77619000   -2.99644000   -9.14093000
C   -12.06332000   -3.72849000   -8.68856000
C   -12.05841000   -5.19162000   -9.20458000
H   -12.03106000   -5.17583000   -10.31963000
H   -10.82747000   -5.95445000   -7.57535000
H   -9.55134000   -3.76440000   -7.50969000
H   -10.74759000   -2.97846000   -10.25584000
H   -12.09047000   -3.74437000   -7.57353000
C   -10.77826000   -1.53933000   -8.61967000
C   -8.24202000   -1.55409000   -8.55087000
C   -9.49091000   -0.80465000   -9.06822000
C   -12.02502000   -0.78888000   -9.14094000
H   -10.81002000   -1.55752000   -7.50483000
H   -8.27171000   -1.57556000   -7.43600000
H   -11.99101000   -0.77221000   -10.25604000
H   -9.45958000   -0.78508000   -10.18328000
C   -13.32054000   -1.51616000   -8.69490000
C   -13.31935000   -2.97886000   -9.20486000
C   -13.34596000   -5.92789000   -8.75051000
C   -14.54850000   -0.74490000   -9.21677000
C   -14.58849000   -3.72519000   -8.75231000
C   -14.58342000   -5.16852000   -9.26498000
H   -14.56200000   -0.74380000   -10.32893000
H   -13.36221000   -1.52845000   -7.58139000
H   -13.29929000   -2.96644000   -10.31898000
H   -14.66431000   -3.72663000   -7.64273000
H   -14.60449000   -5.16665000   -10.37693000
H   -13.38073000   -5.93998000   -7.63681000
C   -14.54080000   0.70025000   -8.70621000
C   -13.25898000   1.42054000   -9.13775000
C   -12.02086000   0.67208000   -8.62217000
C   -10.73687000   1.39676000   -9.06126000
C   -9.49340000   0.65380000   -8.54606000
C   -8.20970000   1.38258000   -8.98326000
H   -14.62226000   0.70777000   -7.59801000
H   -12.05494000   0.66781000   -7.50922000
H   -9.52683000   0.64693000   -7.43319000
H   -13.23539000   1.49129000   -10.24766000
H   -10.70268000   1.46555000   -10.17208000
H   -8.17649000   1.45525000   -10.09380000
C   -8.25887000   5.85218000   -9.16075000
C   -9.53788000   5.11621000   -8.70111000
C   -10.79472000   5.86381000   -9.21085000
H   -8.23829000   5.87305000   -10.27588000
C   -9.53107000   3.65725000   -9.22191000
H   -9.55896000   5.09757000   -7.58587000
C   -10.80531000   2.92788000   -8.76631000
C   -12.05877000   3.66539000   -9.26796000
C   -12.07303000   5.12678000   -8.75061000
H   -9.51210000   3.66317000   -10.33516000
H   -10.77272000   5.88153000   -10.32596000
H   -12.09364000   5.11070000   -7.63517000
H   -12.03832000   3.66899000   -10.38128000
H   -10.82542000   2.86017000   -7.65510000
C   -8.27663000   2.91594000   -8.72481000
H   -8.29431000   2.84511000   -7.61385000
C   -13.33744000   5.86721000   -9.25987000
C   -13.32845000   2.93033000   -8.81371000
C   -14.59760000   5.10913000   -8.79904000
C   -14.57981000   3.66359000   -9.30825000
H   -13.32422000   5.87921000   -10.37412000
H   -14.66593000   5.10899000   -7.68893000
H   -14.60656000   3.65603000   -10.41913000
H   -13.36028000   2.86032000   -7.70395000
C   -3.20340000   -5.93683000   -8.69032000
C   -0.66489000   -5.94975000   -8.63618000
C   -1.92029000   -5.20166000   -9.14648000
H   -0.68790000   -5.97079000   -7.52115000
H   -0.61253000   -2.98825000   -10.19124000
C   -0.63969000   -3.00986000   -9.07627000
C   -1.92485000   -3.74490000   -8.62462000
H   -1.89554000   -5.18220000   -10.26152000
C   -3.17719000   -2.99644000   -9.14093000
C   -4.46432000   -3.72849000   -8.68856000
C   -4.45941000   -5.19162000   -9.20458000
H   -4.43206000   -5.17583000   -10.31963000
H   -3.22847000   -5.95445000   -7.57535000
H   -1.95234000   -3.76440000   -7.50969000
H   -3.14859000   -2.97846000   -10.25584000
H   -4.49147000   -3.74437000   -7.57353000
C   -3.17926000   -1.53933000   -8.61967000
C   -0.64302000   -1.55409000   -8.55087000
C   -1.89191000   -0.80465000   -9.06822000
C   -4.42602000   -0.78888000   -9.14094000
H   -3.21102000   -1.55752000   -7.50483000
H   -0.67271000   -1.57556000   -7.43600000
H   -4.39201000   -0.77221000   -10.25604000
H   -1.86058000   -0.78508000   -10.18328000
C   -5.72154000   -1.51616000   -8.69490000
C   -5.72035000   -2.97886000   -9.20486000
C   -5.74696000   -5.92789000   -8.75051000
C   -6.94950000   -0.74490000   -9.21677000
C   -6.98949000   -3.72519000   -8.75231000
C   -6.98442000   -5.16852000   -9.26498000
H   -6.96300000   -0.74380000   -10.32893000
H   -5.76321000   -1.52845000   -7.58139000
H   -5.70029000   -2.96644000   -10.31898000
H   -7.06531000   -3.72663000   -7.64273000
H   -7.00549000   -5.16665000   -10.37693000
H   -5.78173000   -5.93998000   -7.63681000
C   -6.94180000   0.70025000   -8.70621000
C   -5.65998000   1.42054000   -9.13775000
C   -4.42186000   0.67208000   -8.62217000
C   -3.13787000   1.39676000   -9.06126000
C   -1.89440000   0.65380000   -8.54606000
C   -0.61070000   1.38258000   -8.98326000
H   -7.02326000   0.70777000   -7.59801000
H   -4.45594000   0.66781000   -7.50922000
H   -1.92783000   0.64693000   -7.43319000
H   -5.63639000   1.49129000   -10.24766000
H   -3.10368000   1.46555000   -10.17208000
H   -0.57749000   1.45525000   -10.09380000
C   -0.65987000   5.85218000   -9.16075000
C   -1.93888000   5.11621000   -8.70111000
C   -3.19572000   5.86381000   -9.21085000
H   -0.63929000   5.87305000   -10.27588000
C   -1.93207000   3.65725000   -9.22191000
H   -1.95996000   5.09757000   -7.58587000
C   -3.20631000   2.92788000   -8.76631000
C   -4.45977000   3.66539000   -9.26796000
C   -4.47403000   5.12678000   -8.75061000
H   -1.91310000   3.66317000   -10.33516000
H   -3.17372000   5.88153000   -10.32596000
H   -4.49464000   5.11070000   -7.63517000
H   -4.43932000   3.66899000   -10.38128000
H   -3.22642000   2.86017000   -7.65510000
C   -0.67763000   2.91594000   -8.72481000
H   -0.69531000   2.84511000   -7.61385000
C   -5.73844000   5.86721000   -9.25987000
C   -5.72945000   2.93033000   -8.81371000
C   -6.99860000   5.10913000   -8.79904000
C   -6.98081000   3.66359000   -9.30825000
H   -5.72522000   5.87921000   -10.37412000
H   -7.06693000   5.10899000   -7.68893000
H   -7.00756000   3.65603000   -10.41913000
H   -5.76128000   2.86032000   -7.70395000
C   4.39560000   -5.93683000   -8.69032000
C   6.93411000   -5.94975000   -8.63618000
C   5.67871000   -5.20166000   -9.14648000
H   6.91110000   -5.97079000   -7.52115000
H   6.98647000   -2.98825000   -10.19124000
C   6.95931000   -3.00986000   -9.07627000
C   5.67415000   -3.74490000   -8.62462000
H   5.70346000   -5.18220000   -10.26152000
C   4.42181000   -2.99644000   -9.14093000
C   3.13468000   -3.72849000   -8.68856000
C   3.13959000   -5.19162000   -9.20458000
H   3.16694000   -5.17583000   -10.31963000
H   4.37053000   -5.95445000   -7.57535000
H   5.64666000   -3.76440000   -7.50969000
H   4.45041000   -2.97846000   -10.25584000
H   3.10753000   -3.74437000   -7.57353000
C   4.41974000   -1.53933000   -8.61967000
C   6.95598000   -1.55409000   -8.55087000
C   5.70709000   -0.80465000   -9.06822000
C   3.17298000   -0.78888000   -9.14094000
H   4.38798000   -1.55752000   -7.50483000
H   6.92629000   -1.57556000   -7.43600000
H   3.20699000   -0.77221000   -10.25604000
H   5.73842000   -0.78508000   -10.18328000
C   1.87746000   -1.51616000   -8.69490000
C   1.87865000   -2.97886000   -9.20486000
C   1.85204000   -5.92789000   -8.75051000
C   0.64950000   -0.74490000   -9.21677000
C   0.60951000   -3.72519000   -8.75231000
C   0.61458000   -5.16852000   -9.26498000
H   0.63600000   -0.74380000   -10.32893000
H   1.83579000   -1.52845000   -7.58139000
H   1.89871000   -2.96644000   -10.31898000
H   0.53369000   -3.72663000   -7.64273000
H   0.59351000   -5.16665000   -10.37693000
H   1.81727000   -5.93998000   -7.63681000
C   0.65720000   0.70025000   -8.70621000
C   1.93902000   1.42054000   -9.13775000
C   3.17714000   0.67208000   -8.62217000
C   4.46113000   1.39676000   -9.06126000
C   5.70460000   0.65380000   -8.54606000
C   6.98830000   1.38258000   -8.98326000
H   0.57574000   0.70777000   -7.59801000
H   3.14306000   0.66781000   -7.50922000
H   5.67117000   0.64693000   -7.43319000
H   1.96261000   1.49129000   -10.24766000
H   4.49532000   1.46555000   -10.17208000
H   7.02151000   1.45525000   -10.09380000
C   6.93913000   5.85218000   -9.16075000
C   5.66012000   5.11621000   -8.70111000
C   4.40328000   5.86381000   -9.21085000
H   6.95971000   5.87305000   -10.27588000
C   5.66693000   3.65725000   -9.22191000
H   5.63904000   5.09757000   -7.58587000
C   4.39269000   2.92788000   -8.76631000
C   3.13923000   3.66539000   -9.26796000
C   3.12497000   5.12678000   -8.75061000
H   5.68590000   3.66317000   -10.33516000
H   4.42528000   5.88153000   -10.32596000
H   3.10436000   5.11070000   -7.63517000
H   3.15968000   3.66899000   -10.38128000
H   4.37258000   2.86017000   -7.65510000
C   6.92137000   2.91594000   -8.72481000
H   6.90369000   2.84511000   -7.61385000
C   1.86056000   5.86721000   -9.25987000
C   1.86955000   2.93033000   -8.81371000
C   0.60040000   5.10913000   -8.79904000
C   0.61819000   3.66359000   -9.30825000
H   1.87378000   5.87921000   -10.37412000
H   0.53207000   5.10899000   -7.68893000
H   0.59144000   3.65603000   -10.41913000
H   1.83772000   2.86032000   -7.70395000
C   11.99460000   -5.93683000   -8.69032000
C   14.53311000   -5.94975000   -8.63618000
C   13.27771000   -5.20166000   -9.14648000
H   14.51010000   -5.97079000   -7.52115000
H   14.58547000   -2.98825000   -10.19124000
C   14.55831000   -3.00986000   -9.07627000
C   13.27315000   -3.74490000   -8.62462000
H   13.30246000   -5.18220000   -10.26152000
C   12.02081000   -2.99644000   -9.14093000
C   10.73368000   -3.72849000   -8.68856000
C   10.73859000   -5.19162000   -9.20458000
H   10.76594000   -5.17583000   -10.31963000
H   11.96953000   -5.95445000   -7.57535000
H   13.24566000   -3.76440000   -7.50969000
H   12.04941000   -2.97846000   -10.25584000
H   10.70653000   -3.74437000   -7.57353000
C   12.01874000   -1.53933000   -8.61967000
C   14.55498000   -1.55409000   -8.55087000
C   13.30609000   -0.80465000   -9.06822000
C   10.77198000   -0.78888000   -9.14094000
H   11.98698000   -1.55752000   -7.50483000
H   14.52529000   -1.57556000   -7.43600000
H   10.80599000   -0.77221000   -10.25604000
H   13.33742000   -0.78508000   -10.18328000
C   9.47646000   -1.51616000   -8.69490000
C   9.47765000   -2.97886000   -9.20486000
C   9.45104000   -5.92789000   -8.75051000
C   8.24850000   -0.74490000   -9.21677000
C   8.20851000   -3.72519000   -8.75231000
C   8.21358000   -5.16852000   -9.26498000
H   8.23500000   -0.74380000   -10.32893000
H   9.43479000   -1.52845000   -7.58139000
H   9.49771000   -2.96644000   -10.31898000
H   8.13269000   -3.72663000   -7.64273000
H   8.19251000   -5.16665000   -10.37693000
H   9.41627000   -5.93998000   -7.63681000
C   8.25620000   0.70025000   -8.70621000
C   9.53802000   1.42054000   -9.13775000
C   10.77614000   0.67208000   -8.62217000
C   12.06013000   1.39676000   -9.06126000
C   13.30360000   0.65380000   -8.54606000
C   14.58730000   1.38258000   -8.98326000
H   8.17474000   0.70777000   -7.59801000
H   10.74206000   0.66781000   -7.50922000
H   13.27017000   0.64693000   -7.43319000
H   9.56161000   1.49129000   -10.24766000
H   12.09432000   1.46555000   -10.17208000
H   14.62051000   1.45525000   -10.09380000
C   14.53813000   5.85218000   -9.16075000
C   13.25912000   5.11621000   -8.70111000
C   12.00228000   5.86381000   -9.21085000
H   14.55871000   5.87305000   -10.27588000
C   13.26593000   3.65725000   -9.22191000
H   13.23804000   5.09757000   -7.58587000
C   11.99169000   2.92788000   -8.76631000
C   10.73823000   3.66539000   -9.26796000
C   10.72397000   5.12678000   -8.75061000
H   13.28490000   3.66317000   -10.33516000
H   12.02428000   5.88153000   -10.32596000
H   10.70336000   5.11070000   -7.63517000
H   10.75868000   3.66899000   -10.38128000
H   11.97158000   2.86017000   -7.65510000
C   14.52037000   2.91594000   -8.72481000
H   14.50269000   2.84511000   -7.61385000
C   9.45956000   5.86721000   -9.25987000
C   9.46855000   2.93033000   -8.81371000
C   8.19940000   5.10913000   -8.79904000
C   8.21719000   3.66359000   -9.30825000
H   9.47278000   5.87921000   -10.37412000
H   8.13107000   5.10899000   -7.68893000
H   8.19044000   3.65603000   -10.41913000
H   9.43672000   2.86032000   -7.70395000
C   -10.80240000   -5.93683000   8.80968000
C   -8.26389000   -5.94975000   8.86382000
C   -9.51929000   -5.20166000   8.35352000
H   -8.28690000   -5.97079000   9.97885000
H   -8.21153000   -2.98825000   7.30876000
C   -8.23869000   -3.00986000   8.42373000
C   -9.52385000   -3.74490000   8.87538000
H   -9.49454000   -5.18220000   7.23848000
C   -10.77619000   -2.99644000   8.35907000
C   -12.06332000   -3.72849000   8.81144000
C   -12.05841000   -5.19162000   8.29542000
H   -12.03106000   -5.17583000   7.18037000
H   -10.82747000   -5.95445000   9.92465000
H   -9.55134000   -3.76440000   9.99031000
H   -10.74759000   -2.97846000   7.24416000
H   -12.09047000   -3.74437000   9.92647000
C   -10.77826000   -1.53933000   8.88033000
C   -8.24202000   -1.55409000   8.94913000
C   -9.49091000   -0.80465000   8.43178000
C   -12.02502000   -0.78888000   8.35906000
H   -10.81002000   -1.55752000   9.99517000
H   -8.27171000   -1.57556000   10.06400000
H   -11.99101000   -0.77221000   7.24396000
H   -9.45958000   -0.78508000   7.31672000
C   -13.32054000   -1.51616000   8.80510000
C   -13.31935000   -2.97886000   8.29514000
C   -13.34596000   -5.92789000   8.74949000
C   -14.54850000   -0.74490000   8.28323000
C   -14.58849000   -3.72519000   8.74769000
C   -14.58342000   -5.16852000   8.23502000
H   -14.56200000   -0.74380000   7.17107000
H   -13.36221000   -1.52845000   9.91861000
H   -13.29929000   -2.96644000   7.18102000
H   -14.66431000   -3.72663000   9.85727000
H   -14.60449000   -5.16665000   7.12307000
H   -13.38073000   -5.93998000   9.86319000
C   -14.54080000   0.70025000   8.79379000
C   -13.25898000   1.42054000   8.36225000
C   -12.02086000   0.67208000   8.87783000
C   -10.73687000   1.39676000   8.43874000
C   -9.49340000   0.65380000   8.95394000
C   -8.20970000   1.38258000   8.51674000
H   -14.62226000   0.70777000   9.90199000
H   -12.05494000   0.66781000   9.99078000
H   -9.52683000   0.64693000   10.06681000
H   -13.23539000   1.49129000   7.25234000
H   -10.70268000   1.46555000   7.32792000
H   -8.17649000   1.45525000   7.40620000
C   -8.25887000   5.85218000   8.33925000
C   -9.53788000   5.11621000   8.79889000
C   -10.79472000   5.86381000   8.28915000
H   -8.23829000   5.87305000   7.22412000
C   -9.53107000   3.65725000   8.27809000
H   -9.55896000   5.09757000   9.91413000
C   -10.80531000   2.92788000   8.73369000
C   -12.05877000   3.66539000   8.23204000
C   -12.07303000   5.12678000   8.74939000
H   -9.51210000   3.66317000   7.16484000
H   -10.77272000   5.88153000   7.17404000
H   -12.09364000   5.11070000   9.86483000
H   -12.03832000   3.66899000   7.11872000
H   -10.82542000   2.86017000   9.84490000
C   -8.27663000   2.91594000   8.77519000
H   -8.29431000   2.84511000   9.88615000
C   -13.33744000   5.86721000   8.24013000
C   -13.32845000   2.93033000   8.68629000
C   -14.59760000   5.10913000   8.70096000
C   -14.57981000   3.66359000   8.19175000
H   -13.32422000   5.87921000   7.12588000
H   -14.66593000   5.10899000   9.81107000
H   -14.60656000   3.65603000   7.08087000
H   -13.36028000   2.86032000   9.79605000
C   -3.20340000   -5.93683000   8.80968000
C   -0.66489000   -5.94975000   8.86382000
C   -1.92029000   -5.20166000   8.35352000
H   -0.68790000   -5.97079000   9.97885000
H   -0.61253000   -2.98825000   7.30876000
C   -0.63969000   -3.00986000   8.42373000
C   -1.92485000   -3.74490000   8.87538000
H   -1.89554000   -5.18220000   7.23848000
C   -3.17719000   -2.99644000   8.35907000
C   -4.46432000   -3.72849000   8.81144000
C   -4.45941000   -5.19162000   8.29542000
H   -4.43206000   -5.17583000   7.18037000
H   -3.22847000   -5.95445000   9.92465000
H   -1.95234000   -3.76440000   9.99031000
H   -3.14859000   -2.97846000   7.24416000
H   -4.49147000   -3.74437000   9.92647000
C   -3.17926000   -1.53933000   8.88033000
C   -0.64302000   -1.55409000   8.94913000
C   -1.89191000   -0.80465000   8.43178000
C   -4.42602000   -0.78888000   8.35906000
H   -3.21102000   -1.55752000   9.99517000
H   -0.67271000   -1.57556000   10.06400000
H   -1.86058000   -0.78508000   7.31672000
C   -5.72154000   -1.51616000   8.80510000
C   -5.72035000   -2.97886000   8.29514000
C   -5.74696000   -5.92789000   8.74949000
C   -6.94950000   -0.74490000   8.28323000
C   -6.98949000   -3.72519000   8.74769000
C   -6.98442000   -5.16852000   8.23502000
H   -6.96300000   -0.74380000   7.17107000
H   -5.76321000   -1.52845000   9.91861000
H   -5.70029000   -2.96644000   7.18102000
H   -7.06531000   -3.72663000   9.85727000
H   -7.00549000   -5.16665000   7.12307000
H   -5.78173000   -5.93998000   9.86319000
C   -6.94180000   0.70025000   8.79379000
C   -5.65998000   1.42054000   8.36225000
C   -4.42186000   0.67208000   8.87783000
C   -3.13787000   1.39676000   8.43874000
C   -1.89440000   0.65380000   8.95394000
C   -0.61070000   1.38258000   8.51674000
H   -7.02326000   0.70777000   9.90199000
H   -4.45594000   0.66781000   9.99078000
H   -1.92783000   0.64693000   10.06681000
H   -5.63639000   1.49129000   7.25234000
H   -3.10368000   1.46555000   7.32792000
H   -0.57749000   1.45525000   7.40620000
C   -0.65987000   5.85218000   8.33925000
C   -1.93888000   5.11621000   8.79889000
C   -3.19572000   5.86381000   8.28915000
H   -0.63929000   5.87305000   7.22412000
C   -1.93207000   3.65725000   8.27809000
H   -1.95996000   5.09757000   9.91413000
C   -3.20631000   2.92788000   8.73369000
C   -4.45977000   3.66539000   8.23204000
C   -4.47403000   5.12678000   8.74939000
H   -1.91310000   3.66317000   7.16484000
H   -3.17372000   5.88153000   7.17404000
H   -4.49464000   5.11070000   9.86483000
H   -4.43932000   3.66899000   7.11872000
H   -3.22642000   2.86017000   9.84490000
C   -0.67763000   2.91594000   8.77519000
H   -0.69531000   2.84511000   9.88615000
C   -5.73844000   5.86721000   8.24013000
C   -5.72945000   2.93033000   8.68629000
C   -6.99860000   5.10913000   8.70096000
C   -6.98081000   3.66359000   8.19175000
H   -5.72522000   5.87921000   7.12588000
H   -7.06693000   5.10899000   9.81107000
H   -7.00756000   3.65603000   7.08087000
H   -5.76128000   2.86032000   9.79605000
C   4.39560000   -5.93683000   8.80968000
C   6.93411000   -5.94975000   8.86382000
C   5.67871000   -5.20166000   8.35352000
H   6.91110000   -5.97079000   9.97885000
H   6.98647000   -2.98825000   7.30876000
C   6.95931000   -3.00986000   8.42373000
C   5.67415000   -3.74490000   8.87538000
H   5.70346000   -5.18220000   7.23848000
C   4.42181000   -2.99644000   8.35907000
C   3.13468000   -3.72849000   8.81144000
C   3.13959000   -5.19162000   8.29542000
H   3.16694000   -5.17583000   7.18037000
H   4.37053000   -5.95445000   9.92465000
H   5.64666000   -3.76440000   9.99031000
H   4.45041000   -2.97846000   7.24416000
H   3.10753000   -3.74437000   9.92647000
C   4.41974000   -1.53933000   8.88033000
C   6.95598000   -1.55409000   8.94913000
C   5.70709000   -0.80465000   8.43178000
C   3.17298000   -0.78888000   8.35906000
H   4.38798000   -1.55752000   9.99517000
H   6.92629000   -1.57556000   10.06400000
H   3.20699000   -0.77221000   7.24396000
C   1.87746000   -1.51616000   8.80510000
C   1.87865000   -2.97886000   8.29514000
C   1.85204000   -5.92789000   8.74949000
C   0.64950000   -0.74490000   8.28323000
C   0.60951000   -3.72519000   8.74769000
C   0.61458000   -5.16852000   8.23502000
H   0.63600000   -0.74380000   7.17107000
H   1.83579000   -1.52845000   9.91861000
H   1.89871000   -2.96644000   7.18102000
H   0.53369000   -3.72663000   9.85727000
H   0.59351000   -5.16665000   7.12307000
H   1.81727000   -5.93998000   9.86319000
C   0.65720000   0.70025000   8.79379000
C   1.93902000   1.42054000   8.36225000
C   3.17714000   0.67208000   8.87783000
C   4.46113000   1.39676000   8.43874000
C   5.70460000   0.65380000   8.95394000
C   6.98830000   1.38258000   8.51674000
H   0.57574000   0.70777000   9.90199000
H   3.14306000   0.66781000   9.99078000
H   5.67117000   0.64693000   10.06681000
H   1.96261000   1.49129000   7.25234000
H   4.49532000   1.46555000   7.32792000
H   7.02151000   1.45525000   7.40620000
C   6.93913000   5.85218000   8.33925000
C   5.66012000   5.11621000   8.79889000
C   4.40328000   5.86381000   8.28915000
H   6.95971000   5.87305000   7.22412000
C   5.66693000   3.65725000   8.27809000
H   5.63904000   5.09757000   9.91413000
C   4.39269000   2.92788000   8.73369000
C   3.13923000   3.66539000   8.23204000
C   3.12497000   5.12678000   8.74939000
H   5.68590000   3.66317000   7.16484000
H   4.42528000   5.88153000   7.17404000
H   3.10436000   5.11070000   9.86483000
H   3.15968000   3.66899000   7.11872000
H   4.37258000   2.86017000   9.84490000
C   6.92137000   2.91594000   8.77519000
H   6.90369000   2.84511000   9.88615000
C   1.86056000   5.86721000   8.24013000
C   1.86955000   2.93033000   8.68629000
C   0.60040000   5.10913000   8.70096000
C   0.61819000   3.66359000   8.19175000
H   1.87378000   5.87921000   7.12588000
H   0.53207000   5.10899000   9.81107000
H   0.59144000   3.65603000   7.08087000
H   1.83772000   2.86032000   9.79605000
C   11.99460000   -5.93683000   8.80968000
C   14.53311000   -5.94975000   8.86382000
C   13.27771000   -5.20166000   8.35352000
H   14.51010000   -5.97079000   9.97885000
H   14.58547000   -2.98825000   7.30876000
C   14.55831000   -3.00986000   8.42373000
C   13.27315000   -3.74490000   8.87538000
H   13.30246000   -5.18220000   7.23848000
C   12.02081000   -2.99644000   8.35907000
C   10.73368000   -3.72849000   8.81144000
C   10.73859000   -5.19162000   8.29542000
H   10.76594000   -5.17583000   7.18037000
H   11.96953000   -5.95445000   9.92465000
H   13.24566000   -3.76440000   9.99031000
H   12.04941000   -2.97846000   7.24416000
H   10.70653000   -3.74437000   9.92647000
C   12.01874000   -1.53933000   8.88033000
C   14.55498000   -1.55409000   8.94913000
C   13.30609000   -0.80465000   8.43178000
C   10.77198000   -0.78888000   8.35906000
H   11.98698000   -1.55752000   9.99517000
H   14.52529000   -1.57556000   10.06400000
H   10.80599000   -0.77221000   7.24396000
H   13.33742000   -0.78508000   7.31672000
C   9.47646000   -1.51616000   8.80510000
C   9.47765000   -2.97886000   8.29514000
C   9.45104000   -5.92789000   8.74949000
C   8.24850000   -0.74490000   8.28323000
C   8.20851000   -3.72519000   8.74769000
C   8.21358000   -5.16852000   8.23502000
H   8.23500000   -0.74380000   7.17107000
H   9.43479000   -1.52845000   9.91861000
H   9.49771000   -2.96644000   7.18102000
H   8.13269000   -3.72663000   9.85727000
H   8.19251000   -5.16665000   7.12307000
H   9.41627000   -5.93998000   9.86319000
C   8.25620000   0.70025000   8.79379000
C   9.53802000   1.42054000   8.36225000
C   10.77614000   0.67208000   8.87783000
C   12.06013000   1.39676000   8.43874000
C   13.30360000   0.65380000   8.95394000
C   14.58730000   1.38258000   8.51674000
H   8.17474000   0.70777000   9.90199000
H   10.74206000   0.66781000   9.99078000
H   13.27017000   0.64693000   10.06681000
H   9.56161000   1.49129000   7.25234000
H   12.09432000   1.46555000   7.32792000
H   14.62051000   1.45525000   7.40620000
C   14.53813000   5.85218000   8.33925000
C   13.25912000   5.11621000   8.79889000
C   12.00228000   5.86381000   8.28915000
H   14.55871000   5.87305000   7.22412000
C   13.26593000   3.65725000   8.27809000
H   13.23804000   5.09757000   9.91413000
C   11.99169000   2.92788000   8.73369000
C   10.73823000   3.66539000   8.23204000
C   10.72397000   5.12678000   8.74939000
H   13.28490000   3.66317000   7.16484000
H   12.02428000   5.88153000   7.17404000
H   10.70336000   5.11070000   9.86483000
H   10.75868000   3.66899000   7.11872000
H   11.97158000   2.86017000   9.84490000
C   14.52037000   2.91594000   8.77519000
H   14.50269000   2.84511000   9.88615000
C   9.45956000   5.86721000   8.24013000
C   9.46855000   2.93033000   8.68629000
C   8.19940000   5.10913000   8.70096000
C   8.21719000   3.66359000   8.19175000
H   9.47278000   5.87921000   7.12588000
H   8.13107000   5.10899000   9.81107000
H   8.19044000   3.65603000   7.08087000
H   9.43672000   2.86032000   9.79605000
N   -4.05926079   -1.01595888   4.18122646
C   -3.38033662   -0.96013029   5.76118870
H   -2.78138035   -1.92189591   5.83910057
H   -2.66222020   -0.11324579   5.73370775
C   -4.47831967   -0.70959523   6.69816531
H   -4.73754421   0.31744670   6.41212809
H   -5.29437437   -1.35215399   6.39697049
C   -4.88698359   -2.18279445   3.99564862
H   -5.88438884   -2.01247606   4.42501628
H   -5.10937425   -2.19905046   2.93120214
H   -4.47161006   -3.06814771   4.35789894
C   -2.89388742   -1.08239704   3.20381253
H   -2.11155763   -0.35170413   3.32836288
H   -2.39670897   -2.09907600   3.16401177
H   -3.29640211   -0.97233721   2.16218390
C   -4.86563766   0.22440445   3.91939771
H   -4.20869181   1.04453342   4.22606898
H   -5.14043585   0.31451840   2.85730112
H   -5.71198874   0.27592664   4.61878330
N   5.85107414   -2.17552247   -0.67578043
C   5.51982594   -2.65748386   0.75893953
H   4.42735110   -3.04035273   0.76821842
H   6.17293014   -3.44936765   1.04206188
C   5.62623946   -1.65995152   1.83989119
H   6.46329287   -1.01566430   1.64453116
H   4.75376893   -1.00817885   1.68038320
C   5.81354972   -0.69069009   6.81539458
H   6.57637068   0.07776173   6.53685598
H   4.93224991   -0.11198519   6.43114714
C   6.09037707   -1.80341008   5.76196570
H   7.12889362   -2.10307760   5.70702476
H   5.59962814   -2.71065249   5.89053757
C   5.73107838   -1.19564164   4.40540822
H   6.59819859   -0.51311294   4.20849800
H   4.83172807   -0.64325716   4.61583001
C   5.68511758   -2.24582067   3.28168481
H   6.60742133   -2.87371221   3.36215829
H   4.83547162   -2.94852475   3.41826426
C   5.18072318   -0.89836938   -1.07969072
H   5.53818563   -0.11164419   -0.46815422
H   4.10833094   -0.97575779   -1.07090302
H   5.34548100   -0.68512489   -2.15637515
C   5.36140927   -3.19959936   -1.61660082
H   4.24328785   -3.31254612   -1.52550777
H   5.68650418   -4.18463567   -1.32091999
H   5.66357207   -3.04722155   -2.62453214
C   7.37217681   -2.06969750   -0.89840359
H   7.76984290   -1.37447474   -0.23060093
H   7.53997852   -1.67854277   -1.90713103
H   7.74455607   -3.08987905   -0.79591501
O   -16.46833364   21.58686235   -1.58969385
H   -16.21393181   20.84001722   -1.07250515
H   -16.95821721   22.19704416   -1.04429417
O   -19.74452216   8.49593395   -2.00161510
H   -18.82634847   8.23539226   -2.01138658
H   -19.91562002   9.15165583   -1.25458353
O   -11.60523044   28.72408095   -5.34602604
H   -12.02392733   27.80265051   -5.41303711
H   -11.20897642   28.78228906   -4.45166189
O   9.46195603   15.12714318   -4.99524361
H   9.50573676   15.07091234   -5.94538983
H   9.00134488   14.46726104   -4.59394576
O   -14.65556972   44.87096396   3.11730784
H   -15.06081648   45.57669456   2.54865193
H   -14.93718175   43.94605025   2.95839212
O   -1.95146934   -24.50138755   -0.71872067
H   -1.35245844   -24.10343440   -0.09107895
H   -1.89019099   -12.07050243   -0.73472997
O   -14.36552692   7.35760155   1.28233068
H   -15.34789194   7.42507069   1.35232906
H   -14.25908087   7.40229488   0.31659444
O   30.94716570   14.00086124   -0.91932577
H   -0.30358888   13.69906710   -0.37235475
H   0.34990731   14.76940833   -1.46668173
O   14.90301068   -24.42462261   1.21794783
H   14.72674754   -23.50711182   0.95558470
H   15.65495496   -24.64096945   0.66518098
O   -31.14063753   22.57893781   -3.89499332
H   -31.82506607   22.72274549   -4.52850652
H   -31.06490539   23.33873505   -3.28837709
O   2.13990703   -1.80619804   -0.53895471
H   1.43350295   -1.32690763   -0.15131147
H   2.33896010   -1.41467585   -1.41085796
O   -33.80646551   16.41470809   3.28310610
H   -33.03804351   15.95392681   2.94863766
H   -30.16377569   43.10163363   1.58990866
O   -20.14350057   20.01555909   -4.41948230
H   -19.81708192   33.92648478   -3.68266922
H   -19.45295525   19.50511653   -4.74514263
O   -8.66399686   25.23048608   0.68181542
H   -7.75938995   25.04954240   0.98191220
H   -8.95112064   26.12215556   1.09472986
O   -0.59453937   23.39951722   3.84542021
H   -1.02624516   22.89173047   3.14646450
H   0.35392734   23.42258032   3.56505024
O   7.07629312   2.11554256   -1.55312613
H   7.91152135   1.98560015   -1.15219432
H   7.09024978   2.84360011   -2.14823487
O   19.95241581   13.64688346   2.46466213
H   19.42727079   14.15718253   1.85355572
H   19.39973391   13.07730665   2.93357919
O   -1.32448035   22.76627792   -0.28889539
H   -0.58780637   22.38093763   -0.82631795
H   -1.44782290   23.66900439   -0.53841597
O   0.72014532   19.77645402   -2.99444395
H   -0.03839146   19.16994912   -3.00391377
H   0.54108105   20.73188793   -3.20581475
O   -47.60637716   11.42852653   -0.45540945
H   -46.95369367   11.68383178   0.15250012
H   -47.62367901   10.49009065   -0.40981096
O   10.92808377   34.21678073   1.51895904
H   12.11757383   33.96073676   1.26124777
H   10.54489977   34.01098821   2.41381769
O   -2.79136327   -6.86731630   4.43540833
H   -2.83682787   -7.80641748   4.38486699
H   -2.97809890   -6.51948788   3.57376490
O   14.70249310   23.26257715   1.48554828
H   15.45320162   22.73141213   1.14990495
H   13.90980569   22.67732408   1.61028984
O   -10.35775233   -9.83950260   -0.66425983
H   -10.54172597   -9.56901870   0.19024404
H   -9.65389764   -10.49664640   -0.63354913
O   -30.60606671   -1.62915056   1.01770011
H   -30.66295850   -2.51852884   0.52264762
H   -31.28451092   -1.04708214   0.56297241
O   -2.37000852   26.58485959   -3.59438698
H   -2.07199122   27.06675408   -2.82449565
H   -15.07200161   9.69440352   4.79105562
O   2.32680023   5.80193250   3.10909810
H   3.09250571   6.39098153   3.12110545
H   2.27775789   5.36460236   3.94151660
O   -21.14561155   6.60874555   -0.23389570
H   -20.68639345   7.20886312   -0.83587249
H   -3.22409064   26.25181428   -3.35404414
O   -7.88224543   13.64631514   4.28766766
H   -8.23454378   13.64689033   5.16083066
H   -8.70935052   0.49527022   3.80953031
O   0.56328780   -0.78286272   -4.62048232
H   0.16811170   5.80502561   -0.66268968
H   0.94006565   -1.58515677   -5.02780930
O   12.70657278   41.05664015   0.81379441
H   13.60844464   41.10738047   1.15170705
H   12.59139898   41.88219963   0.33840534
O   6.18779622   21.02131752   3.54845136
H   7.03464089   20.96993113   4.08903246
H   6.43146763   21.25651349   2.63966241
O   -23.21928697   7.86664750   -2.66525515
H   -22.81695292   7.12480708   -2.20766189
H   -22.92259924   7.93551047   -3.60497501
O   27.98711804   7.13584284   1.50005119
H   28.43278407   7.95955633   1.11512717
H   28.54616964   6.38901533   1.24448789
O   -3.83164201   -15.23305910   -1.67894385
H   -4.60487600   -2.30959585   -1.98911329
H   -3.81461037   -15.54496581   -0.76839801
O   16.48791047   9.32727900   -2.26409492
H   16.19189846   9.44511786   -3.15773643
H   15.72162676   9.07804236   -1.76507259
O   7.73342615   -18.25315638   0.91327224
H   7.95492575   -19.24193576   0.74665673
H   8.52799101   -17.79705113   0.76323505
O   -27.88851148   17.42147076   -2.08043346
H   -27.20818327   17.27083723   -2.71732664
H   -28.31159300   18.30864423   -2.16378769
O   -19.10269247   44.52466660   -0.54750634
H   -19.50104096   44.09348183   -1.32730759
H   -19.55969010   45.37777309   -0.49843813
O   -1.58007673   1.41301784   2.08646295
H   -0.73707072   1.01078362   2.27214241
H   -1.90146742   1.00352082   1.26714975
O   4.12803211   -6.67527982   -1.88865549
H   4.93352566   -6.67509038   -2.41179159
H   3.30469523   -6.43097936   -2.42487957
O   -22.94251033   -21.68823518   -1.25136221
H   -23.82333603   -21.73903939   -0.90861748
H   -22.39861238   -21.23977595   -0.60736135
O   10.61683939   -10.85889826   -2.49602013
H   10.58530123   -11.59444695   -1.90187135
H   10.69088207   -11.17830839   -3.42153392
O   17.78898086   30.84881722   -3.17647866
H   18.66987200   30.87044939   -2.65213218
H   18.01445302   30.52197838   -4.05445159
O   -35.97781407   7.55042503   1.53815389
H   -36.80363264   7.37372637   1.05759487
H   -35.46497675   6.80093363   1.79211418
O   24.74031266   2.50461406   -0.51974149
H   24.62134538   2.05180005   0.30178020
H   25.63398509   2.79890213   -0.65523963
O   -2.96821209   16.24197330   -3.60837232
H   -2.58106702   15.80815392   -2.80193933
H   -3.85598446   15.96012753   -3.66564475
O   -4.31590535   23.39401446   0.84709513
H   -4.83099930   22.61161219   1.12734476
H   -3.37376226   23.05923072   0.95513976
O   -3.33432901   10.19497663   -4.67849206
H   -3.02880504   11.13229787   -4.44609856
H   -4.27061723   10.23954506   -4.56563583
O   2.31744932   36.60281010   -3.55637396
H   2.63992946   37.19878084   -2.93489291
H   1.34388980   36.52068673   -3.39857375
O   -0.99333632   31.19983203   -4.90885081
H   -0.45150393   30.70305940   -4.29723464
H   -1.88609798   30.80422833   -5.05967409
O   -15.13582818   7.61899310   4.28483275
H   -15.31278188   7.34502748   5.16535277
H   -14.34640281   7.13817033   4.06744015
O   12.30635656   18.89284220   -3.08126395
H   11.77518043   18.25891254   -2.54261215
H   13.17046782   18.52038223   -3.27160521
O   -16.33174467   17.85959305   -0.11075091
H   -17.28106935   17.57013626   -0.21766235
H   -16.47365904   18.72569883   0.37166249
O   -27.74969450   -26.64346534   -2.84841014
H   -28.25501621   -26.96829161   -3.62362271
H   -28.43638222   -26.25460261   -2.20354859
O   18.02228668   1.62927562   -0.05318590
H   17.59624849   2.01912264   0.72966547
H   17.51994494   1.96254118   -0.86553357
O   9.14719580   -0.77604918   -3.57311052
H   9.62833032   -0.77255732   -2.76540591
H   9.58357943   -1.46971657   -4.08217727
O   14.95058809   33.08196027   -5.00095694
H   14.18852548   33.66080723   -5.02054237
H   15.40602607   33.27564868   -4.22384618
O   -7.39586012   19.30166833   0.49189066
H   -7.41984040   19.35797306   -0.45478931
H   -7.92931358   18.53730978   0.74141089
O   10.23692755   -16.98198046   0.82529197
H   10.69137155   -16.23266112   1.24630314
H   10.41407682   -17.84152022   1.34340660
O   -12.50377243   11.85174511   3.07604577
H   -12.33536533   11.44037284   2.25677411
H   -13.29174223   11.48782072   3.52906826
O   -15.16837421   10.59606076   4.43767150
H   10.23793276   36.28419334   -3.86842003
H   -15.65156226   10.44093444   3.63480018
O   -1.91995611   -0.16376078   -0.05455867
H   -2.13532197   -0.95994049   -0.59966136
H   0.08956995   -0.34302910   -5.32152899
O   -28.39833320   23.31574897   1.76160842
H   -28.16121205   23.09175036   0.88315695
H   -28.82911842   24.18506764   1.73284559
O   22.41318364   -3.89312173   3.23027083
H   21.56694582   -4.28052686   3.56140551
H   23.03231304   -4.64306744   3.24122756
O   -4.44741182   13.18245331   0.72977542
H   -3.57022784   13.46651979   0.40126380
H   -4.70866851   12.36027832   0.26157897
O   -29.01596420   -5.11612966   -0.60852996
H   -29.59225924   -5.48061489   0.09304916
H   -28.27557523   -5.66636278   -0.64428659
O   -13.79995967   -7.48722837   -1.36597550
H   -14.40292754   -8.16290726   -1.07584813
H   -13.62301608   -7.71384396   -2.27618283
O   30.85286197   52.83943438   3.44815122
H   30.74743243   52.23205624   2.66675792
H   30.74306531   52.38144839   4.27376751
O   4.62932725   -22.07493083   4.74217814
H   4.46976619   -22.15786173   3.80448747
H   5.49704946   -21.56584172   4.76747956
O   -17.13296646   7.09956742   1.17174845
H   -16.84462031   20.18022988   2.06853903
H   -34.25889084   3.23751895   2.49593371
O   -19.60754008   12.62441002   -0.83002950
H   -19.20023855   13.43605208   -0.42600462
H   -18.84891681   11.98740509   -0.82555990
O   0.10944495   5.87307326   0.28952770
H   -20.68351200   6.69005646   0.68205072
H   0.99371648   5.46686265   0.54683777
O   -0.86497684   51.61001155   -2.17174183
H   -1.49227571   52.18727636   -2.63849852
H   -0.14078730   52.08626936   -1.74082659
O   -29.61407694   43.39330940   0.91902810
H   -29.28092075   42.76621373   0.22904475
O   9.83808519   36.73867785   -4.64124092
H   10.33408423   36.33339879   -5.37128610
