850

C   -10.80240000   -5.93683000   -8.69032000
C   -8.26389000   -5.94975000   -8.63618000
C   -9.51929000   -5.20166000   -9.14648000
H   -8.28690000   -5.97079000   -7.52115000
H   -8.21153000   -2.98825000   -10.19124000
C   -8.23869000   -3.00986000   -9.07627000
C   -9.52385000   -3.74490000   -8.62462000
H   -9.49454000   -5.18220000   -10.26152000
C   -10.77619000   -2.99644000   -9.14093000
C   -12.06332000   -3.72849000   -8.68856000
C   -12.05841000   -5.19162000   -9.20458000
H   -12.03106000   -5.17583000   -10.31963000
H   -10.82747000   -5.95445000   -7.57535000
H   -9.55134000   -3.76440000   -7.50969000
H   -10.74759000   -2.97846000   -10.25584000
H   -12.09047000   -3.74437000   -7.57353000
C   -10.77826000   -1.53933000   -8.61967000
C   -8.24202000   -1.55409000   -8.55087000
C   -9.49091000   -0.80465000   -9.06822000
C   -12.02502000   -0.78888000   -9.14094000
H   -10.81002000   -1.55752000   -7.50483000
H   -8.27171000   -1.57556000   -7.43600000
H   -11.99101000   -0.77221000   -10.25604000
H   -9.45958000   -0.78508000   -10.18328000
C   -13.32054000   -1.51616000   -8.69490000
C   -13.31935000   -2.97886000   -9.20486000
C   -13.34596000   -5.92789000   -8.75051000
C   -14.54850000   -0.74490000   -9.21677000
C   -14.58849000   -3.72519000   -8.75231000
C   -14.58342000   -5.16852000   -9.26498000
H   -14.56200000   -0.74380000   -10.32893000
H   -13.36221000   -1.52845000   -7.58139000
H   -13.29929000   -2.96644000   -10.31898000
H   -14.66431000   -3.72663000   -7.64273000
H   -14.60449000   -5.16665000   -10.37693000
H   -13.38073000   -5.93998000   -7.63681000
C   -14.54080000   0.70025000   -8.70621000
C   -13.25898000   1.42054000   -9.13775000
C   -12.02086000   0.67208000   -8.62217000
C   -10.73687000   1.39676000   -9.06126000
C   -9.49340000   0.65380000   -8.54606000
C   -8.20970000   1.38258000   -8.98326000
H   -14.62226000   0.70777000   -7.59801000
H   -12.05494000   0.66781000   -7.50922000
H   -9.52683000   0.64693000   -7.43319000
H   -13.23539000   1.49129000   -10.24766000
H   -10.70268000   1.46555000   -10.17208000
H   -8.17649000   1.45525000   -10.09380000
C   -8.25887000   5.85218000   -9.16075000
C   -9.53788000   5.11621000   -8.70111000
C   -10.79472000   5.86381000   -9.21085000
H   -8.23829000   5.87305000   -10.27588000
C   -9.53107000   3.65725000   -9.22191000
H   -9.55896000   5.09757000   -7.58587000
C   -10.80531000   2.92788000   -8.76631000
C   -12.05877000   3.66539000   -9.26796000
C   -12.07303000   5.12678000   -8.75061000
H   -9.51210000   3.66317000   -10.33516000
H   -10.77272000   5.88153000   -10.32596000
H   -12.09364000   5.11070000   -7.63517000
H   -12.03832000   3.66899000   -10.38128000
H   -10.82542000   2.86017000   -7.65510000
C   -8.27663000   2.91594000   -8.72481000
H   -8.29431000   2.84511000   -7.61385000
C   -13.33744000   5.86721000   -9.25987000
C   -13.32845000   2.93033000   -8.81371000
C   -14.59760000   5.10913000   -8.79904000
C   -14.57981000   3.66359000   -9.30825000
H   -13.32422000   5.87921000   -10.37412000
H   -14.66593000   5.10899000   -7.68893000
H   -14.60656000   3.65603000   -10.41913000
H   -13.36028000   2.86032000   -7.70395000
C   -3.20340000   -5.93683000   -8.69032000
C   -0.66489000   -5.94975000   -8.63618000
C   -1.92029000   -5.20166000   -9.14648000
H   -0.68790000   -5.97079000   -7.52115000
H   -0.61253000   -2.98825000   -10.19124000
C   -0.63969000   -3.00986000   -9.07627000
C   -1.92485000   -3.74490000   -8.62462000
H   -1.89554000   -5.18220000   -10.26152000
C   -3.17719000   -2.99644000   -9.14093000
C   -4.46432000   -3.72849000   -8.68856000
C   -4.45941000   -5.19162000   -9.20458000
H   -4.43206000   -5.17583000   -10.31963000
H   -3.22847000   -5.95445000   -7.57535000
H   -1.95234000   -3.76440000   -7.50969000
H   -3.14859000   -2.97846000   -10.25584000
H   -4.49147000   -3.74437000   -7.57353000
C   -3.17926000   -1.53933000   -8.61967000
C   -0.64302000   -1.55409000   -8.55087000
C   -1.89191000   -0.80465000   -9.06822000
C   -4.42602000   -0.78888000   -9.14094000
H   -3.21102000   -1.55752000   -7.50483000
H   -0.67271000   -1.57556000   -7.43600000
H   -4.39201000   -0.77221000   -10.25604000
H   -1.86058000   -0.78508000   -10.18328000
C   -5.72154000   -1.51616000   -8.69490000
C   -5.72035000   -2.97886000   -9.20486000
C   -5.74696000   -5.92789000   -8.75051000
C   -6.94950000   -0.74490000   -9.21677000
C   -6.98949000   -3.72519000   -8.75231000
C   -6.98442000   -5.16852000   -9.26498000
H   -6.96300000   -0.74380000   -10.32893000
H   -5.76321000   -1.52845000   -7.58139000
H   -5.70029000   -2.96644000   -10.31898000
H   -7.06531000   -3.72663000   -7.64273000
H   -7.00549000   -5.16665000   -10.37693000
H   -5.78173000   -5.93998000   -7.63681000
C   -6.94180000   0.70025000   -8.70621000
C   -5.65998000   1.42054000   -9.13775000
C   -4.42186000   0.67208000   -8.62217000
C   -3.13787000   1.39676000   -9.06126000
C   -1.89440000   0.65380000   -8.54606000
C   -0.61070000   1.38258000   -8.98326000
H   -7.02326000   0.70777000   -7.59801000
H   -4.45594000   0.66781000   -7.50922000
H   -1.92783000   0.64693000   -7.43319000
H   -5.63639000   1.49129000   -10.24766000
H   -3.10368000   1.46555000   -10.17208000
H   -0.57749000   1.45525000   -10.09380000
C   -0.65987000   5.85218000   -9.16075000
C   -1.93888000   5.11621000   -8.70111000
C   -3.19572000   5.86381000   -9.21085000
H   -0.63929000   5.87305000   -10.27588000
C   -1.93207000   3.65725000   -9.22191000
H   -1.95996000   5.09757000   -7.58587000
C   -3.20631000   2.92788000   -8.76631000
C   -4.45977000   3.66539000   -9.26796000
C   -4.47403000   5.12678000   -8.75061000
H   -1.91310000   3.66317000   -10.33516000
H   -3.17372000   5.88153000   -10.32596000
H   -4.49464000   5.11070000   -7.63517000
H   -4.43932000   3.66899000   -10.38128000
H   -3.22642000   2.86017000   -7.65510000
C   -0.67763000   2.91594000   -8.72481000
H   -0.69531000   2.84511000   -7.61385000
C   -5.73844000   5.86721000   -9.25987000
C   -5.72945000   2.93033000   -8.81371000
C   -6.99860000   5.10913000   -8.79904000
C   -6.98081000   3.66359000   -9.30825000
H   -5.72522000   5.87921000   -10.37412000
H   -7.06693000   5.10899000   -7.68893000
H   -7.00756000   3.65603000   -10.41913000
H   -5.76128000   2.86032000   -7.70395000
C   4.39560000   -5.93683000   -8.69032000
C   6.93411000   -5.94975000   -8.63618000
C   5.67871000   -5.20166000   -9.14648000
H   6.91110000   -5.97079000   -7.52115000
H   6.98647000   -2.98825000   -10.19124000
C   6.95931000   -3.00986000   -9.07627000
C   5.67415000   -3.74490000   -8.62462000
H   5.70346000   -5.18220000   -10.26152000
C   4.42181000   -2.99644000   -9.14093000
C   3.13468000   -3.72849000   -8.68856000
C   3.13959000   -5.19162000   -9.20458000
H   3.16694000   -5.17583000   -10.31963000
H   4.37053000   -5.95445000   -7.57535000
H   5.64666000   -3.76440000   -7.50969000
H   4.45041000   -2.97846000   -10.25584000
H   3.10753000   -3.74437000   -7.57353000
C   4.41974000   -1.53933000   -8.61967000
C   6.95598000   -1.55409000   -8.55087000
C   5.70709000   -0.80465000   -9.06822000
C   3.17298000   -0.78888000   -9.14094000
H   4.38798000   -1.55752000   -7.50483000
H   6.92629000   -1.57556000   -7.43600000
H   3.20699000   -0.77221000   -10.25604000
H   5.73842000   -0.78508000   -10.18328000
C   1.87746000   -1.51616000   -8.69490000
C   1.87865000   -2.97886000   -9.20486000
C   1.85204000   -5.92789000   -8.75051000
C   0.64950000   -0.74490000   -9.21677000
C   0.60951000   -3.72519000   -8.75231000
C   0.61458000   -5.16852000   -9.26498000
H   0.63600000   -0.74380000   -10.32893000
H   1.83579000   -1.52845000   -7.58139000
H   1.89871000   -2.96644000   -10.31898000
H   0.53369000   -3.72663000   -7.64273000
H   0.59351000   -5.16665000   -10.37693000
H   1.81727000   -5.93998000   -7.63681000
C   0.65720000   0.70025000   -8.70621000
C   1.93902000   1.42054000   -9.13775000
C   3.17714000   0.67208000   -8.62217000
C   4.46113000   1.39676000   -9.06126000
C   5.70460000   0.65380000   -8.54606000
C   6.98830000   1.38258000   -8.98326000
H   0.57574000   0.70777000   -7.59801000
H   3.14306000   0.66781000   -7.50922000
H   5.67117000   0.64693000   -7.43319000
H   1.96261000   1.49129000   -10.24766000
H   4.49532000   1.46555000   -10.17208000
H   7.02151000   1.45525000   -10.09380000
C   6.93913000   5.85218000   -9.16075000
C   5.66012000   5.11621000   -8.70111000
C   4.40328000   5.86381000   -9.21085000
H   6.95971000   5.87305000   -10.27588000
C   5.66693000   3.65725000   -9.22191000
H   5.63904000   5.09757000   -7.58587000
C   4.39269000   2.92788000   -8.76631000
C   3.13923000   3.66539000   -9.26796000
C   3.12497000   5.12678000   -8.75061000
H   5.68590000   3.66317000   -10.33516000
H   4.42528000   5.88153000   -10.32596000
H   3.10436000   5.11070000   -7.63517000
H   3.15968000   3.66899000   -10.38128000
H   4.37258000   2.86017000   -7.65510000
C   6.92137000   2.91594000   -8.72481000
H   6.90369000   2.84511000   -7.61385000
C   1.86056000   5.86721000   -9.25987000
C   1.86955000   2.93033000   -8.81371000
C   0.60040000   5.10913000   -8.79904000
C   0.61819000   3.66359000   -9.30825000
H   1.87378000   5.87921000   -10.37412000
H   0.53207000   5.10899000   -7.68893000
H   0.59144000   3.65603000   -10.41913000
H   1.83772000   2.86032000   -7.70395000
C   11.99460000   -5.93683000   -8.69032000
C   14.53311000   -5.94975000   -8.63618000
C   13.27771000   -5.20166000   -9.14648000
H   14.51010000   -5.97079000   -7.52115000
H   14.58547000   -2.98825000   -10.19124000
C   14.55831000   -3.00986000   -9.07627000
C   13.27315000   -3.74490000   -8.62462000
H   13.30246000   -5.18220000   -10.26152000
C   12.02081000   -2.99644000   -9.14093000
C   10.73368000   -3.72849000   -8.68856000
C   10.73859000   -5.19162000   -9.20458000
H   10.76594000   -5.17583000   -10.31963000
H   11.96953000   -5.95445000   -7.57535000
H   13.24566000   -3.76440000   -7.50969000
H   12.04941000   -2.97846000   -10.25584000
H   10.70653000   -3.74437000   -7.57353000
C   12.01874000   -1.53933000   -8.61967000
C   14.55498000   -1.55409000   -8.55087000
C   13.30609000   -0.80465000   -9.06822000
C   10.77198000   -0.78888000   -9.14094000
H   11.98698000   -1.55752000   -7.50483000
H   14.52529000   -1.57556000   -7.43600000
H   10.80599000   -0.77221000   -10.25604000
H   13.33742000   -0.78508000   -10.18328000
C   9.47646000   -1.51616000   -8.69490000
C   9.47765000   -2.97886000   -9.20486000
C   9.45104000   -5.92789000   -8.75051000
C   8.24850000   -0.74490000   -9.21677000
C   8.20851000   -3.72519000   -8.75231000
C   8.21358000   -5.16852000   -9.26498000
H   8.23500000   -0.74380000   -10.32893000
H   9.43479000   -1.52845000   -7.58139000
H   9.49771000   -2.96644000   -10.31898000
H   8.13269000   -3.72663000   -7.64273000
H   8.19251000   -5.16665000   -10.37693000
H   9.41627000   -5.93998000   -7.63681000
C   8.25620000   0.70025000   -8.70621000
C   9.53802000   1.42054000   -9.13775000
C   10.77614000   0.67208000   -8.62217000
C   12.06013000   1.39676000   -9.06126000
C   13.30360000   0.65380000   -8.54606000
C   14.58730000   1.38258000   -8.98326000
H   8.17474000   0.70777000   -7.59801000
H   10.74206000   0.66781000   -7.50922000
H   13.27017000   0.64693000   -7.43319000
H   9.56161000   1.49129000   -10.24766000
H   12.09432000   1.46555000   -10.17208000
H   14.62051000   1.45525000   -10.09380000
C   14.53813000   5.85218000   -9.16075000
C   13.25912000   5.11621000   -8.70111000
C   12.00228000   5.86381000   -9.21085000
H   14.55871000   5.87305000   -10.27588000
C   13.26593000   3.65725000   -9.22191000
H   13.23804000   5.09757000   -7.58587000
C   11.99169000   2.92788000   -8.76631000
C   10.73823000   3.66539000   -9.26796000
C   10.72397000   5.12678000   -8.75061000
H   13.28490000   3.66317000   -10.33516000
H   12.02428000   5.88153000   -10.32596000
H   10.70336000   5.11070000   -7.63517000
H   10.75868000   3.66899000   -10.38128000
H   11.97158000   2.86017000   -7.65510000
C   14.52037000   2.91594000   -8.72481000
H   14.50269000   2.84511000   -7.61385000
C   9.45956000   5.86721000   -9.25987000
C   9.46855000   2.93033000   -8.81371000
C   8.19940000   5.10913000   -8.79904000
C   8.21719000   3.66359000   -9.30825000
H   9.47278000   5.87921000   -10.37412000
H   8.13107000   5.10899000   -7.68893000
H   8.19044000   3.65603000   -10.41913000
H   9.43672000   2.86032000   -7.70395000
C   -10.80240000   -5.93683000   8.80968000
C   -8.26389000   -5.94975000   8.86382000
C   -9.51929000   -5.20166000   8.35352000
H   -8.28690000   -5.97079000   9.97885000
H   -8.21153000   -2.98825000   7.30876000
C   -8.23869000   -3.00986000   8.42373000
C   -9.52385000   -3.74490000   8.87538000
H   -9.49454000   -5.18220000   7.23848000
C   -10.77619000   -2.99644000   8.35907000
C   -12.06332000   -3.72849000   8.81144000
C   -12.05841000   -5.19162000   8.29542000
H   -12.03106000   -5.17583000   7.18037000
H   -10.82747000   -5.95445000   9.92465000
H   -9.55134000   -3.76440000   9.99031000
H   -10.74759000   -2.97846000   7.24416000
H   -12.09047000   -3.74437000   9.92647000
C   -10.77826000   -1.53933000   8.88033000
C   -8.24202000   -1.55409000   8.94913000
C   -9.49091000   -0.80465000   8.43178000
C   -12.02502000   -0.78888000   8.35906000
H   -10.81002000   -1.55752000   9.99517000
H   -8.27171000   -1.57556000   10.06400000
H   -11.99101000   -0.77221000   7.24396000
H   -9.45958000   -0.78508000   7.31672000
C   -13.32054000   -1.51616000   8.80510000
C   -13.31935000   -2.97886000   8.29514000
C   -13.34596000   -5.92789000   8.74949000
C   -14.54850000   -0.74490000   8.28323000
C   -14.58849000   -3.72519000   8.74769000
C   -14.58342000   -5.16852000   8.23502000
H   -14.56200000   -0.74380000   7.17107000
H   -13.36221000   -1.52845000   9.91861000
H   -13.29929000   -2.96644000   7.18102000
H   -14.66431000   -3.72663000   9.85727000
H   -14.60449000   -5.16665000   7.12307000
H   -13.38073000   -5.93998000   9.86319000
C   -14.54080000   0.70025000   8.79379000
C   -13.25898000   1.42054000   8.36225000
C   -12.02086000   0.67208000   8.87783000
C   -10.73687000   1.39676000   8.43874000
C   -9.49340000   0.65380000   8.95394000
C   -8.20970000   1.38258000   8.51674000
H   -14.62226000   0.70777000   9.90199000
H   -12.05494000   0.66781000   9.99078000
H   -9.52683000   0.64693000   10.06681000
H   -13.23539000   1.49129000   7.25234000
H   -10.70268000   1.46555000   7.32792000
H   -8.17649000   1.45525000   7.40620000
C   -8.25887000   5.85218000   8.33925000
C   -9.53788000   5.11621000   8.79889000
C   -10.79472000   5.86381000   8.28915000
H   -8.23829000   5.87305000   7.22412000
C   -9.53107000   3.65725000   8.27809000
H   -9.55896000   5.09757000   9.91413000
C   -10.80531000   2.92788000   8.73369000
C   -12.05877000   3.66539000   8.23204000
C   -12.07303000   5.12678000   8.74939000
H   -9.51210000   3.66317000   7.16484000
H   -10.77272000   5.88153000   7.17404000
H   -12.09364000   5.11070000   9.86483000
H   -12.03832000   3.66899000   7.11872000
H   -10.82542000   2.86017000   9.84490000
C   -8.27663000   2.91594000   8.77519000
H   -8.29431000   2.84511000   9.88615000
C   -13.33744000   5.86721000   8.24013000
C   -13.32845000   2.93033000   8.68629000
C   -14.59760000   5.10913000   8.70096000
C   -14.57981000   3.66359000   8.19175000
H   -13.32422000   5.87921000   7.12588000
H   -14.66593000   5.10899000   9.81107000
H   -14.60656000   3.65603000   7.08087000
H   -13.36028000   2.86032000   9.79605000
C   -3.20340000   -5.93683000   8.80968000
C   -0.66489000   -5.94975000   8.86382000
C   -1.92029000   -5.20166000   8.35352000
H   -0.68790000   -5.97079000   9.97885000
H   -0.61253000   -2.98825000   7.30876000
C   -0.63969000   -3.00986000   8.42373000
C   -1.92485000   -3.74490000   8.87538000
H   -1.89554000   -5.18220000   7.23848000
C   -3.17719000   -2.99644000   8.35907000
C   -4.46432000   -3.72849000   8.81144000
C   -4.45941000   -5.19162000   8.29542000
H   -4.43206000   -5.17583000   7.18037000
H   -3.22847000   -5.95445000   9.92465000
H   -1.95234000   -3.76440000   9.99031000
H   -3.14859000   -2.97846000   7.24416000
H   -4.49147000   -3.74437000   9.92647000
C   -3.17926000   -1.53933000   8.88033000
C   -0.64302000   -1.55409000   8.94913000
C   -1.89191000   -0.80465000   8.43178000
C   -4.42602000   -0.78888000   8.35906000
H   -3.21102000   -1.55752000   9.99517000
H   -0.67271000   -1.57556000   10.06400000
H   -1.86058000   -0.78508000   7.31672000
C   -5.72154000   -1.51616000   8.80510000
C   -5.72035000   -2.97886000   8.29514000
C   -5.74696000   -5.92789000   8.74949000
C   -6.94950000   -0.74490000   8.28323000
C   -6.98949000   -3.72519000   8.74769000
C   -6.98442000   -5.16852000   8.23502000
H   -6.96300000   -0.74380000   7.17107000
H   -5.76321000   -1.52845000   9.91861000
H   -5.70029000   -2.96644000   7.18102000
H   -7.06531000   -3.72663000   9.85727000
H   -7.00549000   -5.16665000   7.12307000
H   -5.78173000   -5.93998000   9.86319000
C   -6.94180000   0.70025000   8.79379000
C   -5.65998000   1.42054000   8.36225000
C   -4.42186000   0.67208000   8.87783000
C   -3.13787000   1.39676000   8.43874000
C   -1.89440000   0.65380000   8.95394000
C   -0.61070000   1.38258000   8.51674000
H   -7.02326000   0.70777000   9.90199000
H   -4.45594000   0.66781000   9.99078000
H   -1.92783000   0.64693000   10.06681000
H   -5.63639000   1.49129000   7.25234000
H   -3.10368000   1.46555000   7.32792000
H   -0.57749000   1.45525000   7.40620000
C   -0.65987000   5.85218000   8.33925000
C   -1.93888000   5.11621000   8.79889000
C   -3.19572000   5.86381000   8.28915000
H   -0.63929000   5.87305000   7.22412000
C   -1.93207000   3.65725000   8.27809000
H   -1.95996000   5.09757000   9.91413000
C   -3.20631000   2.92788000   8.73369000
C   -4.45977000   3.66539000   8.23204000
C   -4.47403000   5.12678000   8.74939000
H   -1.91310000   3.66317000   7.16484000
H   -3.17372000   5.88153000   7.17404000
H   -4.49464000   5.11070000   9.86483000
H   -4.43932000   3.66899000   7.11872000
H   -3.22642000   2.86017000   9.84490000
C   -0.67763000   2.91594000   8.77519000
H   -0.69531000   2.84511000   9.88615000
C   -5.73844000   5.86721000   8.24013000
C   -5.72945000   2.93033000   8.68629000
C   -6.99860000   5.10913000   8.70096000
C   -6.98081000   3.66359000   8.19175000
H   -5.72522000   5.87921000   7.12588000
H   -7.06693000   5.10899000   9.81107000
H   -7.00756000   3.65603000   7.08087000
H   -5.76128000   2.86032000   9.79605000
C   4.39560000   -5.93683000   8.80968000
C   6.93411000   -5.94975000   8.86382000
C   5.67871000   -5.20166000   8.35352000
H   6.91110000   -5.97079000   9.97885000
H   6.98647000   -2.98825000   7.30876000
C   6.95931000   -3.00986000   8.42373000
C   5.67415000   -3.74490000   8.87538000
H   5.70346000   -5.18220000   7.23848000
C   4.42181000   -2.99644000   8.35907000
C   3.13468000   -3.72849000   8.81144000
C   3.13959000   -5.19162000   8.29542000
H   3.16694000   -5.17583000   7.18037000
H   4.37053000   -5.95445000   9.92465000
H   5.64666000   -3.76440000   9.99031000
H   4.45041000   -2.97846000   7.24416000
H   3.10753000   -3.74437000   9.92647000
C   4.41974000   -1.53933000   8.88033000
C   6.95598000   -1.55409000   8.94913000
C   5.70709000   -0.80465000   8.43178000
C   3.17298000   -0.78888000   8.35906000
H   4.38798000   -1.55752000   9.99517000
H   6.92629000   -1.57556000   10.06400000
H   3.20699000   -0.77221000   7.24396000
C   1.87746000   -1.51616000   8.80510000
C   1.87865000   -2.97886000   8.29514000
C   1.85204000   -5.92789000   8.74949000
C   0.64950000   -0.74490000   8.28323000
C   0.60951000   -3.72519000   8.74769000
C   0.61458000   -5.16852000   8.23502000
H   0.63600000   -0.74380000   7.17107000
H   1.83579000   -1.52845000   9.91861000
H   1.89871000   -2.96644000   7.18102000
H   0.53369000   -3.72663000   9.85727000
H   0.59351000   -5.16665000   7.12307000
H   1.81727000   -5.93998000   9.86319000
C   0.65720000   0.70025000   8.79379000
C   1.93902000   1.42054000   8.36225000
C   3.17714000   0.67208000   8.87783000
C   4.46113000   1.39676000   8.43874000
C   5.70460000   0.65380000   8.95394000
C   6.98830000   1.38258000   8.51674000
H   0.57574000   0.70777000   9.90199000
H   3.14306000   0.66781000   9.99078000
H   5.67117000   0.64693000   10.06681000
H   1.96261000   1.49129000   7.25234000
H   4.49532000   1.46555000   7.32792000
H   7.02151000   1.45525000   7.40620000
C   6.93913000   5.85218000   8.33925000
C   5.66012000   5.11621000   8.79889000
C   4.40328000   5.86381000   8.28915000
H   6.95971000   5.87305000   7.22412000
C   5.66693000   3.65725000   8.27809000
H   5.63904000   5.09757000   9.91413000
C   4.39269000   2.92788000   8.73369000
C   3.13923000   3.66539000   8.23204000
C   3.12497000   5.12678000   8.74939000
H   5.68590000   3.66317000   7.16484000
H   4.42528000   5.88153000   7.17404000
H   3.10436000   5.11070000   9.86483000
H   3.15968000   3.66899000   7.11872000
H   4.37258000   2.86017000   9.84490000
C   6.92137000   2.91594000   8.77519000
H   6.90369000   2.84511000   9.88615000
C   1.86056000   5.86721000   8.24013000
C   1.86955000   2.93033000   8.68629000
C   0.60040000   5.10913000   8.70096000
C   0.61819000   3.66359000   8.19175000
H   1.87378000   5.87921000   7.12588000
H   0.53207000   5.10899000   9.81107000
H   0.59144000   3.65603000   7.08087000
H   1.83772000   2.86032000   9.79605000
C   11.99460000   -5.93683000   8.80968000
C   14.53311000   -5.94975000   8.86382000
C   13.27771000   -5.20166000   8.35352000
H   14.51010000   -5.97079000   9.97885000
H   14.58547000   -2.98825000   7.30876000
C   14.55831000   -3.00986000   8.42373000
C   13.27315000   -3.74490000   8.87538000
H   13.30246000   -5.18220000   7.23848000
C   12.02081000   -2.99644000   8.35907000
C   10.73368000   -3.72849000   8.81144000
C   10.73859000   -5.19162000   8.29542000
H   10.76594000   -5.17583000   7.18037000
H   11.96953000   -5.95445000   9.92465000
H   13.24566000   -3.76440000   9.99031000
H   12.04941000   -2.97846000   7.24416000
H   10.70653000   -3.74437000   9.92647000
C   12.01874000   -1.53933000   8.88033000
C   14.55498000   -1.55409000   8.94913000
C   13.30609000   -0.80465000   8.43178000
C   10.77198000   -0.78888000   8.35906000
H   11.98698000   -1.55752000   9.99517000
H   14.52529000   -1.57556000   10.06400000
H   10.80599000   -0.77221000   7.24396000
H   13.33742000   -0.78508000   7.31672000
C   9.47646000   -1.51616000   8.80510000
C   9.47765000   -2.97886000   8.29514000
C   9.45104000   -5.92789000   8.74949000
C   8.24850000   -0.74490000   8.28323000
C   8.20851000   -3.72519000   8.74769000
C   8.21358000   -5.16852000   8.23502000
H   8.23500000   -0.74380000   7.17107000
H   9.43479000   -1.52845000   9.91861000
H   9.49771000   -2.96644000   7.18102000
H   8.13269000   -3.72663000   9.85727000
H   8.19251000   -5.16665000   7.12307000
H   9.41627000   -5.93998000   9.86319000
C   8.25620000   0.70025000   8.79379000
C   9.53802000   1.42054000   8.36225000
C   10.77614000   0.67208000   8.87783000
C   12.06013000   1.39676000   8.43874000
C   13.30360000   0.65380000   8.95394000
C   14.58730000   1.38258000   8.51674000
H   8.17474000   0.70777000   9.90199000
H   10.74206000   0.66781000   9.99078000
H   13.27017000   0.64693000   10.06681000
H   9.56161000   1.49129000   7.25234000
H   12.09432000   1.46555000   7.32792000
H   14.62051000   1.45525000   7.40620000
C   14.53813000   5.85218000   8.33925000
C   13.25912000   5.11621000   8.79889000
C   12.00228000   5.86381000   8.28915000
H   14.55871000   5.87305000   7.22412000
C   13.26593000   3.65725000   8.27809000
H   13.23804000   5.09757000   9.91413000
C   11.99169000   2.92788000   8.73369000
C   10.73823000   3.66539000   8.23204000
C   10.72397000   5.12678000   8.74939000
H   13.28490000   3.66317000   7.16484000
H   12.02428000   5.88153000   7.17404000
H   10.70336000   5.11070000   9.86483000
H   10.75868000   3.66899000   7.11872000
H   11.97158000   2.86017000   9.84490000
C   14.52037000   2.91594000   8.77519000
H   14.50269000   2.84511000   9.88615000
C   9.45956000   5.86721000   8.24013000
C   9.46855000   2.93033000   8.68629000
C   8.19940000   5.10913000   8.70096000
C   8.21719000   3.66359000   8.19175000
H   9.47278000   5.87921000   7.12588000
H   8.13107000   5.10899000   9.81107000
H   8.19044000   3.65603000   7.08087000
H   9.43672000   2.86032000   9.79605000
N   -3.92560570   -0.58332460   4.21671764
C   -3.38538160   -0.52905802   5.66171818
H   -2.67002777   -1.40873114   5.67131856
H   -2.77864189   0.40038865   5.74210850
C   -4.48882046   -0.74678008   6.72854597
H   -5.30494326   -0.08129087   6.40638882
H   -4.88063806   -1.70120014   6.42310268
C   -2.74261693   -0.64714069   3.29177812
H   -2.38284446   0.36100368   3.28696105
H   -1.94440605   -1.30588750   3.63946344
H   -3.11033627   -0.96995458   2.32329392
C   -4.81494530   0.59593804   4.04567333
H   -5.72886597   0.51492357   4.64951301
H   -4.22915399   1.46551121   4.10092095
H   -5.15661931   0.58241988   2.93659006
C   -4.74177373   -1.93507773   3.97158787
H   -4.25250836   -2.79403074   4.42270599
H   -5.69956705   -1.77732531   4.51706589
H   -4.84336138   -2.09237041   2.88434607
N   8.01092047   3.95424928   3.92324517
C   7.95044723   2.41682290   4.30492130
H   8.65200934   1.93440471   3.66010401
H   8.40702798   2.27683579   5.33852301
C   6.56555501   1.73728228   4.26826888
H   5.90724702   1.94635758   5.18041381
H   5.88383130   2.23431825   3.46061758
C   5.89333065   -0.74104959   6.78914320
H   6.54327765   -1.59978431   6.55618330
H   6.48769176   0.18752348   6.62843742
C   4.78078801   -0.69373983   5.74652260
H   4.00893618   -1.52913526   5.81744259
H   4.15836051   0.19220217   5.87722562
C   5.41261999   -0.65758291   4.34526195
H   4.62622013   -0.43707027   3.58789011
H   5.77392216   -1.60331008   4.04981801
C   6.68759477   0.24951224   4.17672907
H   7.41244600   0.06241673   4.93863876
H   7.25323475   -0.00395113   3.25329214
C   8.04268136   4.07736372   2.43321970
H   8.95401918   3.70319568   1.92607074
H   7.94190899   5.09559058   2.12602266
H   7.07466931   3.62386089   2.10182049
C   9.31913478   4.47697885   4.54419792
H   9.11564180   4.47796387   5.65973124
H   9.62951959   5.47715401   4.08402833
H   10.01235461   3.71984986   4.40875498
C   6.83904230   4.68343565   4.46675703
H   5.89548696   4.48577443   3.95641524
H   7.06745264   5.76732112   4.42245829
H   6.75158134   4.37402383   5.46061711
O   -7.76360487   5.68043742   -0.91527772
H   -8.58856025   6.05026276   -1.30235903
H   -7.67091888   6.31208921   -0.22383182
O   28.72123830   -16.96875265   4.63363280
H   28.13877472   -17.72813223   4.49045290
H   29.65803173   -17.19979036   4.73521465
O   -10.14228028   -15.24469010   2.71113940
H   -10.83731468   -14.55217642   2.87808917
H   -11.83488341   -9.98260591   1.98147651
O   35.39282327   19.97134132   -2.80348248
H   5.39344823   20.72159949   -3.18264891
H   35.92776525   19.75293016   -2.07145783
O   19.67952686   2.85030514   -5.59975601
H   18.70513292   2.78044088   -5.64555339
H   20.05631668   1.94578697   -5.54384900
O   -28.22915374   -8.74144771   5.14480396
H   -29.00431615   -9.17549019   5.40739903
H   -28.39157010   -7.81140718   5.18595343
O   -16.83761690   -0.68479770   2.78392755
H   -16.34298005   -0.60737932   3.64283256
H   -16.10114229   -0.32949483   2.09585587
O   2.74313544   14.80371574   -2.71732074
H   2.13567724   14.43754248   -3.36859031
H   3.58186437   14.71086863   -3.07998399
O   14.20654308   15.71951013   2.46727004
H   14.80778767   14.92706534   2.22290008
H   13.73084192   15.40859316   3.20424970
O   0.48624480   -19.63562165   1.04131678
H   0.96482290   -19.13209653   0.40873971
H   0.48861937   -18.95118299   1.71590555
O   43.46715079   -3.08393336   5.10329654
H   43.87551168   -2.33298800   5.47805693
H   44.10181889   -3.30943422   4.41535849
O   -19.05988853   28.10583381   -0.60705407
H   -19.07603891   27.14319672   -0.57672182
H   34.02593458   -1.21730580   -0.93346600
O   -19.47119949   35.33467333   1.42890455
H   -18.55910980   35.01247775   1.51069237
H   -19.44775071   36.27897848   1.78317929
O   11.23886257   5.31765538   -0.88164562
H   11.36521368   5.94687947   -0.16933784
H   10.88671993   4.54188061   -0.41187802
O   18.84943005   17.67081058   1.80070945
H   10.15899243   38.67184230   1.72622839
H   19.79635554   17.72833604   1.71223296
O   -1.98539344   2.73735663   -2.07400223
H   -2.27543033   3.34702043   -1.35576503
H   -1.25771452   2.20541796   -1.70780337
O   -0.39495340   24.66616381   0.09535610
H   -0.02369845   24.10068527   -0.60911072
H   -0.19204529   24.19309953   0.92172872
O   33.33335381   -4.25955680   0.83208025
H   34.08169118   -4.04753509   1.47516319
H   32.44272626   -4.01511725   1.30408080
O   -7.50020721   15.05159941   3.97633887
H   -7.13330038   14.57590512   3.23556172
H   -7.37557540   15.93440350   3.70923410
O   -7.59240899   -3.02315411   2.64957530
H   -6.99978018   -3.65654625   2.23665566
H   -19.98734873   28.35661957   -0.84284935
O   0.75487089   -22.27395951   1.98790492
H   1.36558079   -21.55422576   1.89308396
H   -0.06472325   -22.03594922   1.51024465
O   -2.06567305   9.41046988   1.41012762
H   -1.22585146   9.50439306   1.95619124
H   -1.77023963   9.73347547   0.56634282
O   4.05414648   3.21131146   3.43431313
H   3.44771098   3.44896318   4.18433625
H   9.66322236   9.17238512   -1.79840027
O   21.61969515   2.83113750   0.15328681
H   20.78234116   2.80069010   -0.27215274
H   22.28291136   3.08666261   -0.51094422
O   -3.43744698   17.03601670   3.43832689
H   -2.51157419   17.35314196   3.62207144
H   -3.78892505   17.81262338   2.91891490
O   0.35476004   -25.35537507   -0.29321939
H   0.50864225   -25.63733229   0.56820018
H   9.64109745   21.54718042   3.85353785
O   23.37976182   17.31670661   2.26320260
H   22.66265992   16.95397614   1.70728502
H   24.18532402   17.43056173   1.69149079
O   11.20189407   -56.15820516   -4.13287027
H   11.93716727   -56.85923112   -3.99507988
H   1.24044375   -25.17640686   -0.68221871
O   -16.90424408   20.47156297   1.86749644
H   -16.50421879   21.17719251   2.38999522
H   -16.26534204   20.40505973   1.12420060
O   7.41498045   4.11955698   -2.91956475
H   6.71627583   4.63612589   -3.24094279
H   8.25824543   4.50112352   -3.17308893
O   6.82162886   18.22464230   -0.35753063
H   7.44532292   18.38618746   -1.09536445
H   6.06813280   17.82868691   -0.73191612
O   0.23434095   11.98816912   2.86523315
H   0.12904962   12.53369961   2.10820581
H   16.91646060   3.16701225   -1.73329503
O   -6.99421888   9.23224861   4.90150985
H   -7.20900324   8.29594914   5.09802090
H   -7.56658432   9.49195618   4.12417680
O   13.89747343   -3.50858068   1.81165599
H   14.74534102   -3.07793061   1.88153258
H   13.25812906   -2.79332178   1.65116566
O   11.81120155   45.64104731   -5.44703212
H   12.71389290   45.85854487   -5.38954234
H   11.31894779   46.21025211   -4.84660763
O   16.60752074   -14.84272130   -2.55312352
H   17.24764928   -15.41246465   -3.00339853
H   16.66127639   -14.11448570   -3.14495438
O   -19.34448475   0.86107926   3.43251765
H   -18.44897405   -12.63572687   3.07838304
H   -19.37446716   -12.87905914   4.33749280
O   -5.10609135   -31.60977589   0.99948078
H   -5.18994984   -31.93653187   0.10720676
H   -4.15868157   -31.51891131   1.27406671
O   9.48388367   25.74060320   1.17178750
H   10.51689150   -56.48965614   -4.69708726
H   9.57597482   26.63261156   1.49308311
O   -18.09380547   -8.13919306   3.75918261
H   -9.70971731   -15.10937186   1.86234970
H   -17.67694658   -7.58151015   3.10297112
O   8.06314890   -14.88540003   -1.71287426
H   8.06366083   -14.85280834   -0.74266440
H   8.76835958   -14.30387355   -2.08082048
O   16.31316398   -7.43753370   0.84618470
H   17.00343515   -6.92938755   1.22489802
H   16.60900223   -8.37290494   1.08027136
O   18.06905539   8.77341986   -0.38781156
H   18.47700614   9.09485812   -1.16239169
H   17.44057056   9.54996860   -0.13136038
O   -1.89686857   -7.50483672   1.56285820
H   -1.59362172   -6.90989230   2.31292937
H   -1.50117376   -7.07548167   0.72197743
O   -7.67282645   -20.27822379   3.84623363
H   -7.74611293   -21.26584101   3.88713772
H   -8.11108000   -20.11046564   2.97953890
O   11.39494849   -2.35492254   3.00876616
H   11.28070540   -2.70488739   3.94132411
H   12.08682065   -1.67801119   2.95963908
O   -2.45817720   -20.79166659   -1.65935369
H   -1.91283256   -21.21446493   -2.30225174
H   -3.40175196   -20.80173796   -1.98618659
O   33.33681450   11.49376794   2.98770301
H   33.80564909   11.77473168   2.16994481
H   32.48367499   -2.21583671   2.63409528
O   -6.00782624   27.00299807   0.60582406
H   -5.59655589   27.83259191   0.62444393
H   -5.68675214   26.59464192   -0.21706521
O   -9.02730361   -0.46666197   0.18355981
H   -9.82748141   0.06803258   0.22619252
H   -8.34152394   0.03288800   0.65798601
O   -34.72758775   -8.89319558   0.38743455
H   -34.07008328   -8.39377209   0.98925295
H   -34.11464830   -9.12866120   -0.34102732
O   -5.01807397   6.78425741   3.12358732
H   -5.16583686   7.75141921   3.07176397
H   -5.98307745   6.44960152   3.18138535
O   11.18258092   3.17288619   1.63231680
H   11.57281749   2.40036163   1.16471875
H   11.88899660   3.76388875   1.71758578
O   -9.91139449   -6.02379709   1.86792660
H   -10.09670487   -5.07352681   2.03308370
H   -10.73245289   -6.28970442   1.40314282
O   -2.99386015   13.10320974   0.30859941
H   -2.43564549   12.33466042   0.18415993
H   -2.31323449   13.82048847   0.09399202
O   -14.67314184   -0.79764570   4.60759454
H   -14.43059416   -1.73582234   4.82870740
H   -14.27716134   -0.56935252   3.77146112
O   17.33718590   -9.83815890   -2.53600899
H   -7.81327093   -2.56008170   1.81296799
H   18.22781703   -9.64806018   -2.25334500
O   35.81082401   -12.91453303   -3.10885271
H   36.01503815   -13.85085941   -3.09892249
H   36.69322705   -12.50582798   -3.14750846
O   9.32518663   -4.81279473   -1.13674859
H   9.61554115   -4.41948364   -0.26253021
H   3.44292250   -10.08769544   2.64169558
O   15.95374378   9.68372723   4.32672939
H   16.65325568   9.89871333   3.69499973
H   15.93167382   8.66724989   4.30888184
O   18.04575657   12.91663491   1.72779984
H   18.00822412   11.98206368   1.70239782
H   17.09796592   13.16823053   1.79614667
O   9.37282926   20.72911240   3.33130973
H   0.29193996   -12.83999697   5.61982382
H   9.94255456   20.86013472   2.52203928
O   9.11172290   -20.50150479   -2.62523050
H   8.84206961   -19.72554947   -2.06450336
H   9.99154727   -7.38153289   -2.37835480
O   29.70149148   4.04758625   4.23705696
H   30.09572386   4.04730134   3.37604859
H   30.11844992   3.30635355   4.72539260
O   -26.39246785   9.72687768   -1.75389193
H   -25.53407928   9.91744846   -1.35604127
H   -26.92834112   9.40209943   -0.95395523
O   -14.96151451   13.61000959   1.33107713
H   -17.53853940   17.85130743   3.76532119
H   -15.15785498   13.76931165   0.42032647
O   16.27533567   24.64561551   0.56434425
H   16.13279396   24.80722610   -0.40642873
H   15.73533668   25.29921905   1.00471232
O   -11.97762067   -30.61739473   2.58073559
H   -11.28453756   -29.91859865   2.58874524
H   18.21681048   -30.81009054   1.62562706
O   4.49837310   -9.30049874   -1.74669365
H   4.68722153   -8.71225440   -2.45816032
H   3.93529454   -8.95911073   -1.06110968
O   16.18513233   2.74815778   0.48668195
H   16.04334758   1.86047354   0.82808385
H   15.46302563   3.26957551   0.92752174
O   1.16949254   -5.80034448   4.24415410
H   0.54164643   -5.08656805   3.92775826
H   1.57518749   -6.26208706   3.51807913
O   0.58810266   -17.25070158   2.04664695
H   0.93079849   -17.15576360   3.00568536
H   0.17107634   -15.69533325   2.45821029
O   -19.10061644   50.89387203   -0.84754789
H   -19.71320497   51.64336089   -0.63919448
H   -19.26635270   50.49985484   -1.71587583
O   17.46071200   -12.73540524   -4.34161309
H   48.43853167   1.07648568   -4.97645733
H   17.08330965   -12.04274139   -3.74298455
O   33.84189689   -0.53239196   -0.24868946
H   33.73023164   0.25236827   -0.74027355
O   0.41039244   -11.98661810   5.14025212
H   0.76518798   -12.33855836   4.37188927
