850

C   -10.80240000   -5.93683000   -8.69032000
C   -8.26389000   -5.94975000   -8.63618000
C   -9.51929000   -5.20166000   -9.14648000
H   -8.28690000   -5.97079000   -7.52115000
H   -8.21153000   -2.98825000   -10.19124000
C   -8.23869000   -3.00986000   -9.07627000
C   -9.52385000   -3.74490000   -8.62462000
H   -9.49454000   -5.18220000   -10.26152000
C   -10.77619000   -2.99644000   -9.14093000
C   -12.06332000   -3.72849000   -8.68856000
C   -12.05841000   -5.19162000   -9.20458000
H   -12.03106000   -5.17583000   -10.31963000
H   -10.82747000   -5.95445000   -7.57535000
H   -9.55134000   -3.76440000   -7.50969000
H   -10.74759000   -2.97846000   -10.25584000
H   -12.09047000   -3.74437000   -7.57353000
C   -10.77826000   -1.53933000   -8.61967000
C   -8.24202000   -1.55409000   -8.55087000
C   -9.49091000   -0.80465000   -9.06822000
C   -12.02502000   -0.78888000   -9.14094000
H   -10.81002000   -1.55752000   -7.50483000
H   -8.27171000   -1.57556000   -7.43600000
H   -11.99101000   -0.77221000   -10.25604000
H   -9.45958000   -0.78508000   -10.18328000
C   -13.32054000   -1.51616000   -8.69490000
C   -13.31935000   -2.97886000   -9.20486000
C   -13.34596000   -5.92789000   -8.75051000
C   -14.54850000   -0.74490000   -9.21677000
C   -14.58849000   -3.72519000   -8.75231000
C   -14.58342000   -5.16852000   -9.26498000
H   -14.56200000   -0.74380000   -10.32893000
H   -13.36221000   -1.52845000   -7.58139000
H   -13.29929000   -2.96644000   -10.31898000
H   -14.66431000   -3.72663000   -7.64273000
H   -14.60449000   -5.16665000   -10.37693000
H   -13.38073000   -5.93998000   -7.63681000
C   -14.54080000   0.70025000   -8.70621000
C   -13.25898000   1.42054000   -9.13775000
C   -12.02086000   0.67208000   -8.62217000
C   -10.73687000   1.39676000   -9.06126000
C   -9.49340000   0.65380000   -8.54606000
C   -8.20970000   1.38258000   -8.98326000
H   -14.62226000   0.70777000   -7.59801000
H   -12.05494000   0.66781000   -7.50922000
H   -9.52683000   0.64693000   -7.43319000
H   -13.23539000   1.49129000   -10.24766000
H   -10.70268000   1.46555000   -10.17208000
H   -8.17649000   1.45525000   -10.09380000
C   -8.25887000   5.85218000   -9.16075000
C   -9.53788000   5.11621000   -8.70111000
C   -10.79472000   5.86381000   -9.21085000
H   -8.23829000   5.87305000   -10.27588000
C   -9.53107000   3.65725000   -9.22191000
H   -9.55896000   5.09757000   -7.58587000
C   -10.80531000   2.92788000   -8.76631000
C   -12.05877000   3.66539000   -9.26796000
C   -12.07303000   5.12678000   -8.75061000
H   -9.51210000   3.66317000   -10.33516000
H   -10.77272000   5.88153000   -10.32596000
H   -12.09364000   5.11070000   -7.63517000
H   -12.03832000   3.66899000   -10.38128000
H   -10.82542000   2.86017000   -7.65510000
C   -8.27663000   2.91594000   -8.72481000
H   -8.29431000   2.84511000   -7.61385000
C   -13.33744000   5.86721000   -9.25987000
C   -13.32845000   2.93033000   -8.81371000
C   -14.59760000   5.10913000   -8.79904000
C   -14.57981000   3.66359000   -9.30825000
H   -13.32422000   5.87921000   -10.37412000
H   -14.66593000   5.10899000   -7.68893000
H   -14.60656000   3.65603000   -10.41913000
H   -13.36028000   2.86032000   -7.70395000
C   -3.20340000   -5.93683000   -8.69032000
C   -0.66489000   -5.94975000   -8.63618000
C   -1.92029000   -5.20166000   -9.14648000
H   -0.68790000   -5.97079000   -7.52115000
H   -0.61253000   -2.98825000   -10.19124000
C   -0.63969000   -3.00986000   -9.07627000
C   -1.92485000   -3.74490000   -8.62462000
H   -1.89554000   -5.18220000   -10.26152000
C   -3.17719000   -2.99644000   -9.14093000
C   -4.46432000   -3.72849000   -8.68856000
C   -4.45941000   -5.19162000   -9.20458000
H   -4.43206000   -5.17583000   -10.31963000
H   -3.22847000   -5.95445000   -7.57535000
H   -1.95234000   -3.76440000   -7.50969000
H   -3.14859000   -2.97846000   -10.25584000
H   -4.49147000   -3.74437000   -7.57353000
C   -3.17926000   -1.53933000   -8.61967000
C   -0.64302000   -1.55409000   -8.55087000
C   -1.89191000   -0.80465000   -9.06822000
C   -4.42602000   -0.78888000   -9.14094000
H   -3.21102000   -1.55752000   -7.50483000
H   -0.67271000   -1.57556000   -7.43600000
H   -4.39201000   -0.77221000   -10.25604000
H   -1.86058000   -0.78508000   -10.18328000
C   -5.72154000   -1.51616000   -8.69490000
C   -5.72035000   -2.97886000   -9.20486000
C   -5.74696000   -5.92789000   -8.75051000
C   -6.94950000   -0.74490000   -9.21677000
C   -6.98949000   -3.72519000   -8.75231000
C   -6.98442000   -5.16852000   -9.26498000
H   -6.96300000   -0.74380000   -10.32893000
H   -5.76321000   -1.52845000   -7.58139000
H   -5.70029000   -2.96644000   -10.31898000
H   -7.06531000   -3.72663000   -7.64273000
H   -7.00549000   -5.16665000   -10.37693000
H   -5.78173000   -5.93998000   -7.63681000
C   -6.94180000   0.70025000   -8.70621000
C   -5.65998000   1.42054000   -9.13775000
C   -4.42186000   0.67208000   -8.62217000
C   -3.13787000   1.39676000   -9.06126000
C   -1.89440000   0.65380000   -8.54606000
C   -0.61070000   1.38258000   -8.98326000
H   -7.02326000   0.70777000   -7.59801000
H   -4.45594000   0.66781000   -7.50922000
H   -1.92783000   0.64693000   -7.43319000
H   -5.63639000   1.49129000   -10.24766000
H   -3.10368000   1.46555000   -10.17208000
H   -0.57749000   1.45525000   -10.09380000
C   -0.65987000   5.85218000   -9.16075000
C   -1.93888000   5.11621000   -8.70111000
C   -3.19572000   5.86381000   -9.21085000
H   -0.63929000   5.87305000   -10.27588000
C   -1.93207000   3.65725000   -9.22191000
H   -1.95996000   5.09757000   -7.58587000
C   -3.20631000   2.92788000   -8.76631000
C   -4.45977000   3.66539000   -9.26796000
C   -4.47403000   5.12678000   -8.75061000
H   -1.91310000   3.66317000   -10.33516000
H   -3.17372000   5.88153000   -10.32596000
H   -4.49464000   5.11070000   -7.63517000
H   -4.43932000   3.66899000   -10.38128000
H   -3.22642000   2.86017000   -7.65510000
C   -0.67763000   2.91594000   -8.72481000
H   -0.69531000   2.84511000   -7.61385000
C   -5.73844000   5.86721000   -9.25987000
C   -5.72945000   2.93033000   -8.81371000
C   -6.99860000   5.10913000   -8.79904000
C   -6.98081000   3.66359000   -9.30825000
H   -5.72522000   5.87921000   -10.37412000
H   -7.06693000   5.10899000   -7.68893000
H   -7.00756000   3.65603000   -10.41913000
H   -5.76128000   2.86032000   -7.70395000
C   4.39560000   -5.93683000   -8.69032000
C   6.93411000   -5.94975000   -8.63618000
C   5.67871000   -5.20166000   -9.14648000
H   6.91110000   -5.97079000   -7.52115000
H   6.98647000   -2.98825000   -10.19124000
C   6.95931000   -3.00986000   -9.07627000
C   5.67415000   -3.74490000   -8.62462000
H   5.70346000   -5.18220000   -10.26152000
C   4.42181000   -2.99644000   -9.14093000
C   3.13468000   -3.72849000   -8.68856000
C   3.13959000   -5.19162000   -9.20458000
H   3.16694000   -5.17583000   -10.31963000
H   4.37053000   -5.95445000   -7.57535000
H   5.64666000   -3.76440000   -7.50969000
H   4.45041000   -2.97846000   -10.25584000
H   3.10753000   -3.74437000   -7.57353000
C   4.41974000   -1.53933000   -8.61967000
C   6.95598000   -1.55409000   -8.55087000
C   5.70709000   -0.80465000   -9.06822000
C   3.17298000   -0.78888000   -9.14094000
H   4.38798000   -1.55752000   -7.50483000
H   6.92629000   -1.57556000   -7.43600000
H   3.20699000   -0.77221000   -10.25604000
H   5.73842000   -0.78508000   -10.18328000
C   1.87746000   -1.51616000   -8.69490000
C   1.87865000   -2.97886000   -9.20486000
C   1.85204000   -5.92789000   -8.75051000
C   0.64950000   -0.74490000   -9.21677000
C   0.60951000   -3.72519000   -8.75231000
C   0.61458000   -5.16852000   -9.26498000
H   0.63600000   -0.74380000   -10.32893000
H   1.83579000   -1.52845000   -7.58139000
H   1.89871000   -2.96644000   -10.31898000
H   0.53369000   -3.72663000   -7.64273000
H   0.59351000   -5.16665000   -10.37693000
H   1.81727000   -5.93998000   -7.63681000
C   0.65720000   0.70025000   -8.70621000
C   1.93902000   1.42054000   -9.13775000
C   3.17714000   0.67208000   -8.62217000
C   4.46113000   1.39676000   -9.06126000
C   5.70460000   0.65380000   -8.54606000
C   6.98830000   1.38258000   -8.98326000
H   0.57574000   0.70777000   -7.59801000
H   3.14306000   0.66781000   -7.50922000
H   5.67117000   0.64693000   -7.43319000
H   1.96261000   1.49129000   -10.24766000
H   4.49532000   1.46555000   -10.17208000
H   7.02151000   1.45525000   -10.09380000
C   6.93913000   5.85218000   -9.16075000
C   5.66012000   5.11621000   -8.70111000
C   4.40328000   5.86381000   -9.21085000
H   6.95971000   5.87305000   -10.27588000
C   5.66693000   3.65725000   -9.22191000
H   5.63904000   5.09757000   -7.58587000
C   4.39269000   2.92788000   -8.76631000
C   3.13923000   3.66539000   -9.26796000
C   3.12497000   5.12678000   -8.75061000
H   5.68590000   3.66317000   -10.33516000
H   4.42528000   5.88153000   -10.32596000
H   3.10436000   5.11070000   -7.63517000
H   3.15968000   3.66899000   -10.38128000
H   4.37258000   2.86017000   -7.65510000
C   6.92137000   2.91594000   -8.72481000
H   6.90369000   2.84511000   -7.61385000
C   1.86056000   5.86721000   -9.25987000
C   1.86955000   2.93033000   -8.81371000
C   0.60040000   5.10913000   -8.79904000
C   0.61819000   3.66359000   -9.30825000
H   1.87378000   5.87921000   -10.37412000
H   0.53207000   5.10899000   -7.68893000
H   0.59144000   3.65603000   -10.41913000
H   1.83772000   2.86032000   -7.70395000
C   11.99460000   -5.93683000   -8.69032000
C   14.53311000   -5.94975000   -8.63618000
C   13.27771000   -5.20166000   -9.14648000
H   14.51010000   -5.97079000   -7.52115000
H   14.58547000   -2.98825000   -10.19124000
C   14.55831000   -3.00986000   -9.07627000
C   13.27315000   -3.74490000   -8.62462000
H   13.30246000   -5.18220000   -10.26152000
C   12.02081000   -2.99644000   -9.14093000
C   10.73368000   -3.72849000   -8.68856000
C   10.73859000   -5.19162000   -9.20458000
H   10.76594000   -5.17583000   -10.31963000
H   11.96953000   -5.95445000   -7.57535000
H   13.24566000   -3.76440000   -7.50969000
H   12.04941000   -2.97846000   -10.25584000
H   10.70653000   -3.74437000   -7.57353000
C   12.01874000   -1.53933000   -8.61967000
C   14.55498000   -1.55409000   -8.55087000
C   13.30609000   -0.80465000   -9.06822000
C   10.77198000   -0.78888000   -9.14094000
H   11.98698000   -1.55752000   -7.50483000
H   14.52529000   -1.57556000   -7.43600000
H   10.80599000   -0.77221000   -10.25604000
H   13.33742000   -0.78508000   -10.18328000
C   9.47646000   -1.51616000   -8.69490000
C   9.47765000   -2.97886000   -9.20486000
C   9.45104000   -5.92789000   -8.75051000
C   8.24850000   -0.74490000   -9.21677000
C   8.20851000   -3.72519000   -8.75231000
C   8.21358000   -5.16852000   -9.26498000
H   8.23500000   -0.74380000   -10.32893000
H   9.43479000   -1.52845000   -7.58139000
H   9.49771000   -2.96644000   -10.31898000
H   8.13269000   -3.72663000   -7.64273000
H   8.19251000   -5.16665000   -10.37693000
H   9.41627000   -5.93998000   -7.63681000
C   8.25620000   0.70025000   -8.70621000
C   9.53802000   1.42054000   -9.13775000
C   10.77614000   0.67208000   -8.62217000
C   12.06013000   1.39676000   -9.06126000
C   13.30360000   0.65380000   -8.54606000
C   14.58730000   1.38258000   -8.98326000
H   8.17474000   0.70777000   -7.59801000
H   10.74206000   0.66781000   -7.50922000
H   13.27017000   0.64693000   -7.43319000
H   9.56161000   1.49129000   -10.24766000
H   12.09432000   1.46555000   -10.17208000
H   14.62051000   1.45525000   -10.09380000
C   14.53813000   5.85218000   -9.16075000
C   13.25912000   5.11621000   -8.70111000
C   12.00228000   5.86381000   -9.21085000
H   14.55871000   5.87305000   -10.27588000
C   13.26593000   3.65725000   -9.22191000
H   13.23804000   5.09757000   -7.58587000
C   11.99169000   2.92788000   -8.76631000
C   10.73823000   3.66539000   -9.26796000
C   10.72397000   5.12678000   -8.75061000
H   13.28490000   3.66317000   -10.33516000
H   12.02428000   5.88153000   -10.32596000
H   10.70336000   5.11070000   -7.63517000
H   10.75868000   3.66899000   -10.38128000
H   11.97158000   2.86017000   -7.65510000
C   14.52037000   2.91594000   -8.72481000
H   14.50269000   2.84511000   -7.61385000
C   9.45956000   5.86721000   -9.25987000
C   9.46855000   2.93033000   -8.81371000
C   8.19940000   5.10913000   -8.79904000
C   8.21719000   3.66359000   -9.30825000
H   9.47278000   5.87921000   -10.37412000
H   8.13107000   5.10899000   -7.68893000
H   8.19044000   3.65603000   -10.41913000
H   9.43672000   2.86032000   -7.70395000
C   -10.80240000   -5.93683000   8.80968000
C   -8.26389000   -5.94975000   8.86382000
C   -9.51929000   -5.20166000   8.35352000
H   -8.28690000   -5.97079000   9.97885000
H   -8.21153000   -2.98825000   7.30876000
C   -8.23869000   -3.00986000   8.42373000
C   -9.52385000   -3.74490000   8.87538000
H   -9.49454000   -5.18220000   7.23848000
C   -10.77619000   -2.99644000   8.35907000
C   -12.06332000   -3.72849000   8.81144000
C   -12.05841000   -5.19162000   8.29542000
H   -12.03106000   -5.17583000   7.18037000
H   -10.82747000   -5.95445000   9.92465000
H   -9.55134000   -3.76440000   9.99031000
H   -10.74759000   -2.97846000   7.24416000
H   -12.09047000   -3.74437000   9.92647000
C   -10.77826000   -1.53933000   8.88033000
C   -8.24202000   -1.55409000   8.94913000
C   -9.49091000   -0.80465000   8.43178000
C   -12.02502000   -0.78888000   8.35906000
H   -10.81002000   -1.55752000   9.99517000
H   -8.27171000   -1.57556000   10.06400000
H   -11.99101000   -0.77221000   7.24396000
H   -9.45958000   -0.78508000   7.31672000
C   -13.32054000   -1.51616000   8.80510000
C   -13.31935000   -2.97886000   8.29514000
C   -13.34596000   -5.92789000   8.74949000
C   -14.54850000   -0.74490000   8.28323000
C   -14.58849000   -3.72519000   8.74769000
C   -14.58342000   -5.16852000   8.23502000
H   -14.56200000   -0.74380000   7.17107000
H   -13.36221000   -1.52845000   9.91861000
H   -13.29929000   -2.96644000   7.18102000
H   -14.66431000   -3.72663000   9.85727000
H   -14.60449000   -5.16665000   7.12307000
H   -13.38073000   -5.93998000   9.86319000
C   -14.54080000   0.70025000   8.79379000
C   -13.25898000   1.42054000   8.36225000
C   -12.02086000   0.67208000   8.87783000
C   -10.73687000   1.39676000   8.43874000
C   -9.49340000   0.65380000   8.95394000
C   -8.20970000   1.38258000   8.51674000
H   -14.62226000   0.70777000   9.90199000
H   -12.05494000   0.66781000   9.99078000
H   -9.52683000   0.64693000   10.06681000
H   -13.23539000   1.49129000   7.25234000
H   -10.70268000   1.46555000   7.32792000
H   -8.17649000   1.45525000   7.40620000
C   -8.25887000   5.85218000   8.33925000
C   -9.53788000   5.11621000   8.79889000
C   -10.79472000   5.86381000   8.28915000
H   -8.23829000   5.87305000   7.22412000
C   -9.53107000   3.65725000   8.27809000
H   -9.55896000   5.09757000   9.91413000
C   -10.80531000   2.92788000   8.73369000
C   -12.05877000   3.66539000   8.23204000
C   -12.07303000   5.12678000   8.74939000
H   -9.51210000   3.66317000   7.16484000
H   -10.77272000   5.88153000   7.17404000
H   -12.09364000   5.11070000   9.86483000
H   -12.03832000   3.66899000   7.11872000
H   -10.82542000   2.86017000   9.84490000
C   -8.27663000   2.91594000   8.77519000
H   -8.29431000   2.84511000   9.88615000
C   -13.33744000   5.86721000   8.24013000
C   -13.32845000   2.93033000   8.68629000
C   -14.59760000   5.10913000   8.70096000
C   -14.57981000   3.66359000   8.19175000
H   -13.32422000   5.87921000   7.12588000
H   -14.66593000   5.10899000   9.81107000
H   -14.60656000   3.65603000   7.08087000
H   -13.36028000   2.86032000   9.79605000
C   -3.20340000   -5.93683000   8.80968000
C   -0.66489000   -5.94975000   8.86382000
C   -1.92029000   -5.20166000   8.35352000
H   -0.68790000   -5.97079000   9.97885000
H   -0.61253000   -2.98825000   7.30876000
C   -0.63969000   -3.00986000   8.42373000
C   -1.92485000   -3.74490000   8.87538000
H   -1.89554000   -5.18220000   7.23848000
C   -3.17719000   -2.99644000   8.35907000
C   -4.46432000   -3.72849000   8.81144000
C   -4.45941000   -5.19162000   8.29542000
H   -4.43206000   -5.17583000   7.18037000
H   -3.22847000   -5.95445000   9.92465000
H   -1.95234000   -3.76440000   9.99031000
H   -3.14859000   -2.97846000   7.24416000
H   -4.49147000   -3.74437000   9.92647000
C   -3.17926000   -1.53933000   8.88033000
C   -0.64302000   -1.55409000   8.94913000
C   -1.89191000   -0.80465000   8.43178000
C   -4.42602000   -0.78888000   8.35906000
H   -3.21102000   -1.55752000   9.99517000
H   -0.67271000   -1.57556000   10.06400000
H   -1.86058000   -0.78508000   7.31672000
C   -5.72154000   -1.51616000   8.80510000
C   -5.72035000   -2.97886000   8.29514000
C   -5.74696000   -5.92789000   8.74949000
C   -6.94950000   -0.74490000   8.28323000
C   -6.98949000   -3.72519000   8.74769000
C   -6.98442000   -5.16852000   8.23502000
H   -6.96300000   -0.74380000   7.17107000
H   -5.76321000   -1.52845000   9.91861000
H   -5.70029000   -2.96644000   7.18102000
H   -7.06531000   -3.72663000   9.85727000
H   -7.00549000   -5.16665000   7.12307000
H   -5.78173000   -5.93998000   9.86319000
C   -6.94180000   0.70025000   8.79379000
C   -5.65998000   1.42054000   8.36225000
C   -4.42186000   0.67208000   8.87783000
C   -3.13787000   1.39676000   8.43874000
C   -1.89440000   0.65380000   8.95394000
C   -0.61070000   1.38258000   8.51674000
H   -7.02326000   0.70777000   9.90199000
H   -4.45594000   0.66781000   9.99078000
H   -1.92783000   0.64693000   10.06681000
H   -5.63639000   1.49129000   7.25234000
H   -3.10368000   1.46555000   7.32792000
H   -0.57749000   1.45525000   7.40620000
C   -0.65987000   5.85218000   8.33925000
C   -1.93888000   5.11621000   8.79889000
C   -3.19572000   5.86381000   8.28915000
H   -0.63929000   5.87305000   7.22412000
C   -1.93207000   3.65725000   8.27809000
H   -1.95996000   5.09757000   9.91413000
C   -3.20631000   2.92788000   8.73369000
C   -4.45977000   3.66539000   8.23204000
C   -4.47403000   5.12678000   8.74939000
H   -1.91310000   3.66317000   7.16484000
H   -3.17372000   5.88153000   7.17404000
H   -4.49464000   5.11070000   9.86483000
H   -4.43932000   3.66899000   7.11872000
H   -3.22642000   2.86017000   9.84490000
C   -0.67763000   2.91594000   8.77519000
H   -0.69531000   2.84511000   9.88615000
C   -5.73844000   5.86721000   8.24013000
C   -5.72945000   2.93033000   8.68629000
C   -6.99860000   5.10913000   8.70096000
C   -6.98081000   3.66359000   8.19175000
H   -5.72522000   5.87921000   7.12588000
H   -7.06693000   5.10899000   9.81107000
H   -7.00756000   3.65603000   7.08087000
H   -5.76128000   2.86032000   9.79605000
C   4.39560000   -5.93683000   8.80968000
C   6.93411000   -5.94975000   8.86382000
C   5.67871000   -5.20166000   8.35352000
H   6.91110000   -5.97079000   9.97885000
H   6.98647000   -2.98825000   7.30876000
C   6.95931000   -3.00986000   8.42373000
C   5.67415000   -3.74490000   8.87538000
H   5.70346000   -5.18220000   7.23848000
C   4.42181000   -2.99644000   8.35907000
C   3.13468000   -3.72849000   8.81144000
C   3.13959000   -5.19162000   8.29542000
H   3.16694000   -5.17583000   7.18037000
H   4.37053000   -5.95445000   9.92465000
H   5.64666000   -3.76440000   9.99031000
H   4.45041000   -2.97846000   7.24416000
H   3.10753000   -3.74437000   9.92647000
C   4.41974000   -1.53933000   8.88033000
C   6.95598000   -1.55409000   8.94913000
C   5.70709000   -0.80465000   8.43178000
C   3.17298000   -0.78888000   8.35906000
H   4.38798000   -1.55752000   9.99517000
H   6.92629000   -1.57556000   10.06400000
H   3.20699000   -0.77221000   7.24396000
C   1.87746000   -1.51616000   8.80510000
C   1.87865000   -2.97886000   8.29514000
C   1.85204000   -5.92789000   8.74949000
C   0.64950000   -0.74490000   8.28323000
C   0.60951000   -3.72519000   8.74769000
C   0.61458000   -5.16852000   8.23502000
H   0.63600000   -0.74380000   7.17107000
H   1.83579000   -1.52845000   9.91861000
H   1.89871000   -2.96644000   7.18102000
H   0.53369000   -3.72663000   9.85727000
H   0.59351000   -5.16665000   7.12307000
H   1.81727000   -5.93998000   9.86319000
C   0.65720000   0.70025000   8.79379000
C   1.93902000   1.42054000   8.36225000
C   3.17714000   0.67208000   8.87783000
C   4.46113000   1.39676000   8.43874000
C   5.70460000   0.65380000   8.95394000
C   6.98830000   1.38258000   8.51674000
H   0.57574000   0.70777000   9.90199000
H   3.14306000   0.66781000   9.99078000
H   5.67117000   0.64693000   10.06681000
H   1.96261000   1.49129000   7.25234000
H   4.49532000   1.46555000   7.32792000
H   7.02151000   1.45525000   7.40620000
C   6.93913000   5.85218000   8.33925000
C   5.66012000   5.11621000   8.79889000
C   4.40328000   5.86381000   8.28915000
H   6.95971000   5.87305000   7.22412000
C   5.66693000   3.65725000   8.27809000
H   5.63904000   5.09757000   9.91413000
C   4.39269000   2.92788000   8.73369000
C   3.13923000   3.66539000   8.23204000
C   3.12497000   5.12678000   8.74939000
H   5.68590000   3.66317000   7.16484000
H   4.42528000   5.88153000   7.17404000
H   3.10436000   5.11070000   9.86483000
H   3.15968000   3.66899000   7.11872000
H   4.37258000   2.86017000   9.84490000
C   6.92137000   2.91594000   8.77519000
H   6.90369000   2.84511000   9.88615000
C   1.86056000   5.86721000   8.24013000
C   1.86955000   2.93033000   8.68629000
C   0.60040000   5.10913000   8.70096000
C   0.61819000   3.66359000   8.19175000
H   1.87378000   5.87921000   7.12588000
H   0.53207000   5.10899000   9.81107000
H   0.59144000   3.65603000   7.08087000
H   1.83772000   2.86032000   9.79605000
C   11.99460000   -5.93683000   8.80968000
C   14.53311000   -5.94975000   8.86382000
C   13.27771000   -5.20166000   8.35352000
H   14.51010000   -5.97079000   9.97885000
H   14.58547000   -2.98825000   7.30876000
C   14.55831000   -3.00986000   8.42373000
C   13.27315000   -3.74490000   8.87538000
H   13.30246000   -5.18220000   7.23848000
C   12.02081000   -2.99644000   8.35907000
C   10.73368000   -3.72849000   8.81144000
C   10.73859000   -5.19162000   8.29542000
H   10.76594000   -5.17583000   7.18037000
H   11.96953000   -5.95445000   9.92465000
H   13.24566000   -3.76440000   9.99031000
H   12.04941000   -2.97846000   7.24416000
H   10.70653000   -3.74437000   9.92647000
C   12.01874000   -1.53933000   8.88033000
C   14.55498000   -1.55409000   8.94913000
C   13.30609000   -0.80465000   8.43178000
C   10.77198000   -0.78888000   8.35906000
H   11.98698000   -1.55752000   9.99517000
H   14.52529000   -1.57556000   10.06400000
H   10.80599000   -0.77221000   7.24396000
H   13.33742000   -0.78508000   7.31672000
C   9.47646000   -1.51616000   8.80510000
C   9.47765000   -2.97886000   8.29514000
C   9.45104000   -5.92789000   8.74949000
C   8.24850000   -0.74490000   8.28323000
C   8.20851000   -3.72519000   8.74769000
C   8.21358000   -5.16852000   8.23502000
H   8.23500000   -0.74380000   7.17107000
H   9.43479000   -1.52845000   9.91861000
H   9.49771000   -2.96644000   7.18102000
H   8.13269000   -3.72663000   9.85727000
H   8.19251000   -5.16665000   7.12307000
H   9.41627000   -5.93998000   9.86319000
C   8.25620000   0.70025000   8.79379000
C   9.53802000   1.42054000   8.36225000
C   10.77614000   0.67208000   8.87783000
C   12.06013000   1.39676000   8.43874000
C   13.30360000   0.65380000   8.95394000
C   14.58730000   1.38258000   8.51674000
H   8.17474000   0.70777000   9.90199000
H   10.74206000   0.66781000   9.99078000
H   13.27017000   0.64693000   10.06681000
H   9.56161000   1.49129000   7.25234000
H   12.09432000   1.46555000   7.32792000
H   14.62051000   1.45525000   7.40620000
C   14.53813000   5.85218000   8.33925000
C   13.25912000   5.11621000   8.79889000
C   12.00228000   5.86381000   8.28915000
H   14.55871000   5.87305000   7.22412000
C   13.26593000   3.65725000   8.27809000
H   13.23804000   5.09757000   9.91413000
C   11.99169000   2.92788000   8.73369000
C   10.73823000   3.66539000   8.23204000
C   10.72397000   5.12678000   8.74939000
H   13.28490000   3.66317000   7.16484000
H   12.02428000   5.88153000   7.17404000
H   10.70336000   5.11070000   9.86483000
H   10.75868000   3.66899000   7.11872000
H   11.97158000   2.86017000   9.84490000
C   14.52037000   2.91594000   8.77519000
H   14.50269000   2.84511000   9.88615000
C   9.45956000   5.86721000   8.24013000
C   9.46855000   2.93033000   8.68629000
C   8.19940000   5.10913000   8.70096000
C   8.21719000   3.66359000   8.19175000
H   9.47278000   5.87921000   7.12588000
H   8.13107000   5.10899000   9.81107000
H   8.19044000   3.65603000   7.08087000
H   9.43672000   2.86032000   9.79605000
N   -4.69250974   -0.20678704   4.30202986
C   -4.85598100   0.06425250   5.75436611
H   -4.38067689   1.00355819   5.93120097
H   -5.97381240   0.20993344   5.84635849
C   -4.31269985   -1.04210369   6.74408987
H   -4.81956123   -1.91662678   6.40189901
H   -3.32176102   -1.17625637   6.34072115
C   -5.47652121   -1.37025833   3.82755933
H   -5.50123263   -1.54719383   2.71368662
H   -5.18756340   -2.33674055   4.26093045
H   -6.54833309   -1.19605968   4.16498263
C   -3.25827247   -0.29928125   3.83742981
H   -2.70140734   0.54480568   4.23779870
H   -2.94876876   -1.25104532   4.23369860
H   -3.16673530   -0.23743517   2.75208105
C   -5.21476185   1.05052374   3.62663319
H   -5.09963538   0.93022764   2.54953964
H   -6.24120469   1.12637850   3.93348043
H   -4.78109099   2.04032336   4.04619606
N   4.25674758   -1.74905132   -0.00538888
C   5.32028492   -1.32647273   1.07821302
H   5.34876020   -2.17321289   1.79383860
H   6.18026769   -1.21780349   0.50218819
C   5.01930179   0.01878484   1.86656055
H   5.12208110   0.83874740   1.19614012
H   3.91070652   -0.10931935   1.96225642
C   5.65981482   -0.94497396   6.80903188
H   4.73354052   -1.38281696   6.51182143
H   6.41402353   -1.70794305   6.56328049
C   5.95034251   0.09997256   5.65910418
H   5.55255116   1.09834698   5.58140766
H   6.98352514   0.21747845   5.67987411
C   5.57591750   -0.63568263   4.28631823
H   4.50341924   -0.82149049   4.19996942
H   6.06910156   -1.62036222   4.12183212
C   5.93698667   0.26904404   3.17409302
H   5.68789674   1.26550683   3.42400654
H   7.00549702   0.20780482   2.89243208
C   2.74396788   -1.87956838   0.57711628
H   2.50404691   -0.94252619   1.02461835
H   2.54600182   -2.69978900   1.18613441
H   2.14742168   -1.99216645   -0.34523005
C   4.71439995   -3.15622859   -0.57701149
H   5.80989966   -3.02428798   -0.82675740
H   4.23354998   -3.42421957   -1.57862338
H   4.49793894   -3.92588551   0.16807145
C   4.19231569   -0.68788240   -1.13787470
H   3.85730938   0.27849053   -0.77851383
H   3.44988938   -1.06119600   -1.85406903
H   5.15880701   -0.62925454   -1.62789891
O   -36.16812555   -12.38977379   0.20114808
H   -35.88650609   -13.21956415   -0.17304207
H   -36.49175002   -11.76156816   -0.44669399
O   8.65949907   -17.71794092   -0.19178577
H   8.46288608   -16.76068698   -0.09184565
H   9.06672741   -17.87253581   -1.03371493
O   -8.37547447   -3.22680822   4.42395432
H   -8.95327931   -3.81526324   3.89914997
H   -7.71867937   -3.66545298   4.92616273
O   -22.37753238   -26.42020741   -0.11373483
H   -22.03317635   -26.41048301   0.81355434
H   -22.07489498   -25.55625552   -0.45596426
O   -19.75744232   -8.69089045   4.68080079
H   -20.48145489   -8.88192100   5.37763483
H   -18.94346408   -8.44464384   5.05759767
O   5.78159325   -17.05173686   3.25583469
H   5.15676446   -17.59772170   2.79058238
H   6.42708088   -17.63129801   3.63870687
O   -39.85084119   21.00143194   2.79561874
H   -39.04922744   20.65607401   3.27733097
H   -39.70447849   20.79196583   1.87101905
O   -27.24698762   2.09163538   -0.97934417
H   -27.97003509   2.32762275   -0.38787334
H   -27.58960956   1.99184296   -1.83125277
O   -30.43073849   3.98329448   3.58115198
H   -29.89227767   4.55174663   2.99967885
H   -31.26184265   4.37411391   3.74843361
O   27.93287527   17.93806196   -1.64649473
H   -11.62404791   41.48080759   -4.62008256
H   28.02875469   18.90073817   -1.36016200
O   0.45586195   -7.53683720   -0.68820616
H   28.84288865   4.21314608   -1.58517999
H   -0.02152142   -6.77000349   -1.00178333
O   -11.46839651   42.18587425   -4.02702881
H   -11.78748827   43.02513818   -4.29623961
H   -3.63001589   27.21774587   -1.13980699
O   -15.77950163   -15.02563707   -2.59378044
H   -15.58638141   -2.42984268   -2.15484099
H   -16.51642030   -15.24342811   -3.15902715
O   -17.45201932   7.48690362   -3.99542015
H   -16.83237597   7.99237264   -4.56619340
H   -16.89423913   6.74987343   -3.69708986
O   -14.48263770   -6.53800165   -4.32325043
H   -14.49413682   -6.65428501   -3.39224951
H   -13.56350225   -6.81153216   -4.52148852
O   18.03368901   -54.79742979   5.09007072
H   18.73987593   -55.46027589   5.12989106
H   17.18122800   -55.15382242   5.20225883
O   -5.88130063   23.30803068   1.32876627
H   -6.45824150   22.67295552   0.87656614
H   -5.14734983   22.77535608   1.82241937
O   -0.11999193   15.05100919   -3.66855375
H   -0.84216682   14.71108259   -4.19448905
H   -0.54658233   15.30612210   -2.78392256
O   -19.40988045   -31.54800601   3.88683398
H   -19.49806508   -32.25405180   4.50519639
H   -18.48378826   -31.58778552   3.67211510
O   20.77575217   0.00461145   0.61738814
H   21.14611148   -0.82342796   0.35405608
H   20.56434419   -0.12322842   1.51985173
O   8.45436729   -10.51188692   -1.74621359
H   8.20910568   -9.58767325   -1.47433217
H   8.07472965   -10.68069298   -2.64177926
O   24.82279710   11.62914423   -3.98424355
H   24.62031152   12.27612579   -3.26127479
H   24.59437526   12.05110972   -4.80453209
O   18.66526435   -6.68008735   1.35961997
H   18.99725141   -7.29961946   0.74214384
H   19.33188743   -6.33232685   1.94993762
O   -1.77383058   7.89356131   1.27535804
H   0.12331493   -7.87581709   0.15722761
H   -1.33891617   7.38260027   2.00821475
O   -1.81318996   -6.35997562   4.56576309
H   -1.54865403   -5.54400705   4.18625794
H   -2.62710391   -6.24778146   5.12687297
O   0.24366384   11.00476023   3.61249112
H   0.36518051   11.05481644   2.67407796
H   7.74166952   -29.47172110   2.81014408
O   -2.64525805   -3.37800482   4.30273338
H   -3.17815835   -3.49266500   5.13546476
H   -3.23034356   -3.97524862   3.60797596
O   -2.68935020   1.35640541   -4.59736484
H   -3.40787794   1.58099504   -4.06202770
H   -0.68250326   10.65508990   3.68578702
O   -22.42943867   -15.63454043   -1.95875951
H   -22.22151818   -14.71582925   -2.25779193
H   -21.70349253   -16.20609616   -2.11535239
O   1.64027688   10.06072938   -3.41424981
H   1.25567828   9.29174798   -2.99540694
H   2.44982114   9.88206823   -3.86537292
O   21.79528538   0.71604041   -1.88416660
H   21.84638900   0.51531372   -0.96424367
H   21.24964062   1.54977018   -1.94708727
O   19.45376212   -11.42685045   -1.08938481
H   18.96166336   -11.81874661   -1.84092564
H   19.83223003   -12.20459357   -0.62460068
O   31.97737148   29.98352661   1.56616350
H   31.05035759   29.88110501   1.30714704
H   32.09084778   29.78900365   2.51604202
O   3.55142647   -20.13514264   4.76196061
H   3.55967866   -19.68024291   3.93218728
H   3.94812237   -19.45521453   5.31204421
O   -3.93349119   32.01807670   -4.17390993
H   -3.12831361   31.99448804   -3.66263425
H   -3.91040293   31.18496851   -4.67861045
O   -5.14250698   -10.30359293   -2.02981684
H   -4.41136055   -9.92436240   -1.56386659
H   -5.60314509   -9.63464805   -2.56359526
O   -1.13113121   15.73012936   1.22903957
H   -1.50774283   16.20372154   1.97108463
H   -1.86036189   15.30822587   0.83344062
O   0.37286766   -0.07499600   1.88718147
H   -0.10899230   0.42917858   2.56816267
H   -0.05070853   0.17982896   1.04311585
O   5.36975749   -6.63903429   2.24042303
H   6.14383003   -6.33511272   1.76299262
H   4.61610024   -6.45782559   1.70569967
O   -33.00249056   -29.26933519   1.43439759
H   -33.59808451   -16.62753961   1.62022398
H   -32.25416852   -29.42189781   2.05000617
O   2.41469315   -19.18651576   -4.58275925
H   3.23722928   -18.89807310   -4.98470625
H   2.57883581   -20.04682984   -4.20376890
O   10.86443117   7.48846459   0.69871646
H   -2.68919014   0.36431287   -4.65089888
H   11.31400239   7.53132054   1.55945375
O   3.13967119   8.62158664   2.70817410
H   2.61418294   8.18544207   1.96683855
H   2.57677355   9.40979669   2.98363417
O   -15.29782360   -7.65991583   -1.53299376
H   -14.53747057   -8.17942842   -1.59170205
H   -15.32125578   -7.32253706   -0.65818743
O   -10.21485609   -35.22107729   -1.15185000
H   -10.17711705   -36.16301799   -1.12497217
H   -9.79195978   -34.85154457   -0.36621054
O   28.62530217   5.13317892   1.38199157
H   27.95696993   4.43225534   1.20191299
H   28.14776415   5.92471397   1.21596443
O   31.93103307   -0.46942729   -2.51691861
H   31.52861774   12.22397577   -3.07059773
H   31.56658476   13.74154226   -2.79579949
O   26.90251867   -23.33099762   2.55422592
H   26.57321618   -22.80867075   3.36253421
H   26.25326310   -23.01207112   1.91538680
O   -3.98810874   22.16057967   2.64509366
H   -4.14217020   21.24988684   2.86107420
H   -2.65971872   8.21761624   1.74675895
O   9.89980266   -23.25554237   -4.85232434
H   9.51386848   -22.44642498   -4.49165076
H   10.53293630   -23.02996914   -5.50922568
O   -38.59913604   24.40918660   0.83424220
H   -38.06393697   37.67225075   0.01081762
H   -38.04421957   24.29011203   1.60102211
O   -2.60509877   -1.36830669   -3.56051517
H   -2.51473832   -2.29436926   -3.74341311
H   -3.52670623   -1.27820267   -3.30651450
O   23.98306812   -39.35621495   -3.79325961
H   24.68006945   -38.96311681   -3.26398192
H   23.20109860   -38.99819200   -3.35764959
O   0.42719477   -3.90520607   0.73125721
H   0.90587806   -17.80595787   -0.00504737
H   -0.51444299   -4.18736958   0.80868687
O   22.95116927   7.54763866   0.74467888
H   10.29299076   8.27193377   0.63403336
H   23.05076288   7.04613643   1.62931542
O   8.17478988   -25.64670097   -5.04030793
H   8.68471701   -26.32819874   -5.51936990
H   8.72891047   -24.85133931   -5.16230750
O   6.94724337   20.39022897   4.69710393
H   7.39973078   19.62513275   4.40247403
H   6.05300960   20.12655630   4.97565649
O   23.50848815   -6.87365267   3.34366052
H   22.95410925   20.20613696   0.13109529
H   24.19393870   -6.16123444   3.46134880
O   18.36463674   22.60706204   3.64029722
H   17.46799107   22.87316345   3.48535293
H   18.54224529   21.74615951   3.32839726
O   -26.39885840   18.36105775   -0.99161210
H   -26.41629567   17.48547148   -1.49441888
H   -26.41823492   18.12297347   -0.03631201
O   25.18985055   -14.94168061   -0.46359072
H   24.95417259   -15.72983196   0.12109111
H   26.17118381   -15.01248837   -0.67664689
O   8.70074443   -29.26426155   2.77982227
H   -13.44912521   19.52259346   1.67455900
H   9.11854368   -29.91228186   3.31159910
O   13.61139179   -8.12052542   3.71848422
H   13.99779354   -8.98675501   3.64171879
H   14.25351273   -7.45133728   3.44629832
O   -11.81180559   17.76589619   4.17780135
H   -11.06132745   18.09023064   4.70807449
H   -11.50294627   17.53621336   3.30475624
O   -5.43721491   17.99262125   4.58831298
H   -5.90124173   17.96021098   5.42559913
H   -6.03482705   18.65774492   4.05438269
O   -1.18092381   34.90857439   -1.32457350
H   -1.68674150   21.08214752   -0.63133869
H   -1.40047950   35.80107034   -1.43628027
O   21.20046405   -74.88941015   4.86354584
H   22.14659282   -74.77687455   4.60392389
H   20.73571503   -74.12117825   4.61828272
O   9.98101967   -30.99654955   -2.86303823
H   9.81643733   -31.90106400   -3.24137548
H   10.64163614   -31.06768132   -2.14959484
O   9.89858316   -20.34491033   -4.30748037
H   10.24680484   -19.83900753   -5.05656642
H   10.62067694   -33.76969582   -3.62917002
O   -12.13205332   -21.57561675   -3.54993941
H   -11.23561827   -21.91659685   -3.83032503
H   -12.04103583   -21.25910129   -2.69192436
O   2.50916143   -19.01703648   -0.65400562
H   1.86222482   -19.78369397   -0.77134406
H   3.27488930   -19.45142244   -0.23912654
O   -19.11942881   6.35596101   -1.84578145
H   -18.68495100   5.57166687   -1.59290964
H   11.44596659   7.00266561   -1.13572388
O   15.11952757   35.63704683   -2.49337854
H   15.14777068   35.60286314   -3.46090169
H   15.40760853   34.81998303   -2.08850934
O   -5.23432933   5.43061745   1.66092002
H   -5.92705606   5.66843597   2.30944893
H   -4.60632433   6.17216940   1.72434421
O   -2.74880374   27.40610252   -0.84529173
H   -2.20545618   26.92776266   -1.47059863
O   -14.40421104   19.41660596   1.60813232
H   -14.86453253   20.23540974   1.31112187
