850

C   -10.80240000   -5.93683000   -8.69032000
C   -8.26389000   -5.94975000   -8.63618000
C   -9.51929000   -5.20166000   -9.14648000
H   -8.28690000   -5.97079000   -7.52115000
H   -8.21153000   -2.98825000   -10.19124000
C   -8.23869000   -3.00986000   -9.07627000
C   -9.52385000   -3.74490000   -8.62462000
H   -9.49454000   -5.18220000   -10.26152000
C   -10.77619000   -2.99644000   -9.14093000
C   -12.06332000   -3.72849000   -8.68856000
C   -12.05841000   -5.19162000   -9.20458000
H   -12.03106000   -5.17583000   -10.31963000
H   -10.82747000   -5.95445000   -7.57535000
H   -9.55134000   -3.76440000   -7.50969000
H   -10.74759000   -2.97846000   -10.25584000
H   -12.09047000   -3.74437000   -7.57353000
C   -10.77826000   -1.53933000   -8.61967000
C   -8.24202000   -1.55409000   -8.55087000
C   -9.49091000   -0.80465000   -9.06822000
C   -12.02502000   -0.78888000   -9.14094000
H   -10.81002000   -1.55752000   -7.50483000
H   -8.27171000   -1.57556000   -7.43600000
H   -11.99101000   -0.77221000   -10.25604000
H   -9.45958000   -0.78508000   -10.18328000
C   -13.32054000   -1.51616000   -8.69490000
C   -13.31935000   -2.97886000   -9.20486000
C   -13.34596000   -5.92789000   -8.75051000
C   -14.54850000   -0.74490000   -9.21677000
C   -14.58849000   -3.72519000   -8.75231000
C   -14.58342000   -5.16852000   -9.26498000
H   -14.56200000   -0.74380000   -10.32893000
H   -13.36221000   -1.52845000   -7.58139000
H   -13.29929000   -2.96644000   -10.31898000
H   -14.66431000   -3.72663000   -7.64273000
H   -14.60449000   -5.16665000   -10.37693000
H   -13.38073000   -5.93998000   -7.63681000
C   -14.54080000   0.70025000   -8.70621000
C   -13.25898000   1.42054000   -9.13775000
C   -12.02086000   0.67208000   -8.62217000
C   -10.73687000   1.39676000   -9.06126000
C   -9.49340000   0.65380000   -8.54606000
C   -8.20970000   1.38258000   -8.98326000
H   -14.62226000   0.70777000   -7.59801000
H   -12.05494000   0.66781000   -7.50922000
H   -9.52683000   0.64693000   -7.43319000
H   -13.23539000   1.49129000   -10.24766000
H   -10.70268000   1.46555000   -10.17208000
H   -8.17649000   1.45525000   -10.09380000
C   -8.25887000   5.85218000   -9.16075000
C   -9.53788000   5.11621000   -8.70111000
C   -10.79472000   5.86381000   -9.21085000
H   -8.23829000   5.87305000   -10.27588000
C   -9.53107000   3.65725000   -9.22191000
H   -9.55896000   5.09757000   -7.58587000
C   -10.80531000   2.92788000   -8.76631000
C   -12.05877000   3.66539000   -9.26796000
C   -12.07303000   5.12678000   -8.75061000
H   -9.51210000   3.66317000   -10.33516000
H   -10.77272000   5.88153000   -10.32596000
H   -12.09364000   5.11070000   -7.63517000
H   -12.03832000   3.66899000   -10.38128000
H   -10.82542000   2.86017000   -7.65510000
C   -8.27663000   2.91594000   -8.72481000
H   -8.29431000   2.84511000   -7.61385000
C   -13.33744000   5.86721000   -9.25987000
C   -13.32845000   2.93033000   -8.81371000
C   -14.59760000   5.10913000   -8.79904000
C   -14.57981000   3.66359000   -9.30825000
H   -13.32422000   5.87921000   -10.37412000
H   -14.66593000   5.10899000   -7.68893000
H   -14.60656000   3.65603000   -10.41913000
H   -13.36028000   2.86032000   -7.70395000
C   -3.20340000   -5.93683000   -8.69032000
C   -0.66489000   -5.94975000   -8.63618000
C   -1.92029000   -5.20166000   -9.14648000
H   -0.68790000   -5.97079000   -7.52115000
H   -0.61253000   -2.98825000   -10.19124000
C   -0.63969000   -3.00986000   -9.07627000
C   -1.92485000   -3.74490000   -8.62462000
H   -1.89554000   -5.18220000   -10.26152000
C   -3.17719000   -2.99644000   -9.14093000
C   -4.46432000   -3.72849000   -8.68856000
C   -4.45941000   -5.19162000   -9.20458000
H   -4.43206000   -5.17583000   -10.31963000
H   -3.22847000   -5.95445000   -7.57535000
H   -1.95234000   -3.76440000   -7.50969000
H   -3.14859000   -2.97846000   -10.25584000
H   -4.49147000   -3.74437000   -7.57353000
C   -3.17926000   -1.53933000   -8.61967000
C   -0.64302000   -1.55409000   -8.55087000
C   -1.89191000   -0.80465000   -9.06822000
C   -4.42602000   -0.78888000   -9.14094000
H   -3.21102000   -1.55752000   -7.50483000
H   -0.67271000   -1.57556000   -7.43600000
H   -4.39201000   -0.77221000   -10.25604000
H   -1.86058000   -0.78508000   -10.18328000
C   -5.72154000   -1.51616000   -8.69490000
C   -5.72035000   -2.97886000   -9.20486000
C   -5.74696000   -5.92789000   -8.75051000
C   -6.94950000   -0.74490000   -9.21677000
C   -6.98949000   -3.72519000   -8.75231000
C   -6.98442000   -5.16852000   -9.26498000
H   -6.96300000   -0.74380000   -10.32893000
H   -5.76321000   -1.52845000   -7.58139000
H   -5.70029000   -2.96644000   -10.31898000
H   -7.06531000   -3.72663000   -7.64273000
H   -7.00549000   -5.16665000   -10.37693000
H   -5.78173000   -5.93998000   -7.63681000
C   -6.94180000   0.70025000   -8.70621000
C   -5.65998000   1.42054000   -9.13775000
C   -4.42186000   0.67208000   -8.62217000
C   -3.13787000   1.39676000   -9.06126000
C   -1.89440000   0.65380000   -8.54606000
C   -0.61070000   1.38258000   -8.98326000
H   -7.02326000   0.70777000   -7.59801000
H   -4.45594000   0.66781000   -7.50922000
H   -1.92783000   0.64693000   -7.43319000
H   -5.63639000   1.49129000   -10.24766000
H   -3.10368000   1.46555000   -10.17208000
H   -0.57749000   1.45525000   -10.09380000
C   -0.65987000   5.85218000   -9.16075000
C   -1.93888000   5.11621000   -8.70111000
C   -3.19572000   5.86381000   -9.21085000
H   -0.63929000   5.87305000   -10.27588000
C   -1.93207000   3.65725000   -9.22191000
H   -1.95996000   5.09757000   -7.58587000
C   -3.20631000   2.92788000   -8.76631000
C   -4.45977000   3.66539000   -9.26796000
C   -4.47403000   5.12678000   -8.75061000
H   -1.91310000   3.66317000   -10.33516000
H   -3.17372000   5.88153000   -10.32596000
H   -4.49464000   5.11070000   -7.63517000
H   -4.43932000   3.66899000   -10.38128000
H   -3.22642000   2.86017000   -7.65510000
C   -0.67763000   2.91594000   -8.72481000
H   -0.69531000   2.84511000   -7.61385000
C   -5.73844000   5.86721000   -9.25987000
C   -5.72945000   2.93033000   -8.81371000
C   -6.99860000   5.10913000   -8.79904000
C   -6.98081000   3.66359000   -9.30825000
H   -5.72522000   5.87921000   -10.37412000
H   -7.06693000   5.10899000   -7.68893000
H   -7.00756000   3.65603000   -10.41913000
H   -5.76128000   2.86032000   -7.70395000
C   4.39560000   -5.93683000   -8.69032000
C   6.93411000   -5.94975000   -8.63618000
C   5.67871000   -5.20166000   -9.14648000
H   6.91110000   -5.97079000   -7.52115000
H   6.98647000   -2.98825000   -10.19124000
C   6.95931000   -3.00986000   -9.07627000
C   5.67415000   -3.74490000   -8.62462000
H   5.70346000   -5.18220000   -10.26152000
C   4.42181000   -2.99644000   -9.14093000
C   3.13468000   -3.72849000   -8.68856000
C   3.13959000   -5.19162000   -9.20458000
H   3.16694000   -5.17583000   -10.31963000
H   4.37053000   -5.95445000   -7.57535000
H   5.64666000   -3.76440000   -7.50969000
H   4.45041000   -2.97846000   -10.25584000
H   3.10753000   -3.74437000   -7.57353000
C   4.41974000   -1.53933000   -8.61967000
C   6.95598000   -1.55409000   -8.55087000
C   5.70709000   -0.80465000   -9.06822000
C   3.17298000   -0.78888000   -9.14094000
H   4.38798000   -1.55752000   -7.50483000
H   6.92629000   -1.57556000   -7.43600000
H   3.20699000   -0.77221000   -10.25604000
H   5.73842000   -0.78508000   -10.18328000
C   1.87746000   -1.51616000   -8.69490000
C   1.87865000   -2.97886000   -9.20486000
C   1.85204000   -5.92789000   -8.75051000
C   0.64950000   -0.74490000   -9.21677000
C   0.60951000   -3.72519000   -8.75231000
C   0.61458000   -5.16852000   -9.26498000
H   0.63600000   -0.74380000   -10.32893000
H   1.83579000   -1.52845000   -7.58139000
H   1.89871000   -2.96644000   -10.31898000
H   0.53369000   -3.72663000   -7.64273000
H   0.59351000   -5.16665000   -10.37693000
H   1.81727000   -5.93998000   -7.63681000
C   0.65720000   0.70025000   -8.70621000
C   1.93902000   1.42054000   -9.13775000
C   3.17714000   0.67208000   -8.62217000
C   4.46113000   1.39676000   -9.06126000
C   5.70460000   0.65380000   -8.54606000
C   6.98830000   1.38258000   -8.98326000
H   0.57574000   0.70777000   -7.59801000
H   3.14306000   0.66781000   -7.50922000
H   5.67117000   0.64693000   -7.43319000
H   1.96261000   1.49129000   -10.24766000
H   4.49532000   1.46555000   -10.17208000
H   7.02151000   1.45525000   -10.09380000
C   6.93913000   5.85218000   -9.16075000
C   5.66012000   5.11621000   -8.70111000
C   4.40328000   5.86381000   -9.21085000
H   6.95971000   5.87305000   -10.27588000
C   5.66693000   3.65725000   -9.22191000
H   5.63904000   5.09757000   -7.58587000
C   4.39269000   2.92788000   -8.76631000
C   3.13923000   3.66539000   -9.26796000
C   3.12497000   5.12678000   -8.75061000
H   5.68590000   3.66317000   -10.33516000
H   4.42528000   5.88153000   -10.32596000
H   3.10436000   5.11070000   -7.63517000
H   3.15968000   3.66899000   -10.38128000
H   4.37258000   2.86017000   -7.65510000
C   6.92137000   2.91594000   -8.72481000
H   6.90369000   2.84511000   -7.61385000
C   1.86056000   5.86721000   -9.25987000
C   1.86955000   2.93033000   -8.81371000
C   0.60040000   5.10913000   -8.79904000
C   0.61819000   3.66359000   -9.30825000
H   1.87378000   5.87921000   -10.37412000
H   0.53207000   5.10899000   -7.68893000
H   0.59144000   3.65603000   -10.41913000
H   1.83772000   2.86032000   -7.70395000
C   11.99460000   -5.93683000   -8.69032000
C   14.53311000   -5.94975000   -8.63618000
C   13.27771000   -5.20166000   -9.14648000
H   14.51010000   -5.97079000   -7.52115000
H   14.58547000   -2.98825000   -10.19124000
C   14.55831000   -3.00986000   -9.07627000
C   13.27315000   -3.74490000   -8.62462000
H   13.30246000   -5.18220000   -10.26152000
C   12.02081000   -2.99644000   -9.14093000
C   10.73368000   -3.72849000   -8.68856000
C   10.73859000   -5.19162000   -9.20458000
H   10.76594000   -5.17583000   -10.31963000
H   11.96953000   -5.95445000   -7.57535000
H   13.24566000   -3.76440000   -7.50969000
H   12.04941000   -2.97846000   -10.25584000
H   10.70653000   -3.74437000   -7.57353000
C   12.01874000   -1.53933000   -8.61967000
C   14.55498000   -1.55409000   -8.55087000
C   13.30609000   -0.80465000   -9.06822000
C   10.77198000   -0.78888000   -9.14094000
H   11.98698000   -1.55752000   -7.50483000
H   14.52529000   -1.57556000   -7.43600000
H   10.80599000   -0.77221000   -10.25604000
H   13.33742000   -0.78508000   -10.18328000
C   9.47646000   -1.51616000   -8.69490000
C   9.47765000   -2.97886000   -9.20486000
C   9.45104000   -5.92789000   -8.75051000
C   8.24850000   -0.74490000   -9.21677000
C   8.20851000   -3.72519000   -8.75231000
C   8.21358000   -5.16852000   -9.26498000
H   8.23500000   -0.74380000   -10.32893000
H   9.43479000   -1.52845000   -7.58139000
H   9.49771000   -2.96644000   -10.31898000
H   8.13269000   -3.72663000   -7.64273000
H   8.19251000   -5.16665000   -10.37693000
H   9.41627000   -5.93998000   -7.63681000
C   8.25620000   0.70025000   -8.70621000
C   9.53802000   1.42054000   -9.13775000
C   10.77614000   0.67208000   -8.62217000
C   12.06013000   1.39676000   -9.06126000
C   13.30360000   0.65380000   -8.54606000
C   14.58730000   1.38258000   -8.98326000
H   8.17474000   0.70777000   -7.59801000
H   10.74206000   0.66781000   -7.50922000
H   13.27017000   0.64693000   -7.43319000
H   9.56161000   1.49129000   -10.24766000
H   12.09432000   1.46555000   -10.17208000
H   14.62051000   1.45525000   -10.09380000
C   14.53813000   5.85218000   -9.16075000
C   13.25912000   5.11621000   -8.70111000
C   12.00228000   5.86381000   -9.21085000
H   14.55871000   5.87305000   -10.27588000
C   13.26593000   3.65725000   -9.22191000
H   13.23804000   5.09757000   -7.58587000
C   11.99169000   2.92788000   -8.76631000
C   10.73823000   3.66539000   -9.26796000
C   10.72397000   5.12678000   -8.75061000
H   13.28490000   3.66317000   -10.33516000
H   12.02428000   5.88153000   -10.32596000
H   10.70336000   5.11070000   -7.63517000
H   10.75868000   3.66899000   -10.38128000
H   11.97158000   2.86017000   -7.65510000
C   14.52037000   2.91594000   -8.72481000
H   14.50269000   2.84511000   -7.61385000
C   9.45956000   5.86721000   -9.25987000
C   9.46855000   2.93033000   -8.81371000
C   8.19940000   5.10913000   -8.79904000
C   8.21719000   3.66359000   -9.30825000
H   9.47278000   5.87921000   -10.37412000
H   8.13107000   5.10899000   -7.68893000
H   8.19044000   3.65603000   -10.41913000
H   9.43672000   2.86032000   -7.70395000
C   -10.80240000   -5.93683000   8.80968000
C   -8.26389000   -5.94975000   8.86382000
C   -9.51929000   -5.20166000   8.35352000
H   -8.28690000   -5.97079000   9.97885000
H   -8.21153000   -2.98825000   7.30876000
C   -8.23869000   -3.00986000   8.42373000
C   -9.52385000   -3.74490000   8.87538000
H   -9.49454000   -5.18220000   7.23848000
C   -10.77619000   -2.99644000   8.35907000
C   -12.06332000   -3.72849000   8.81144000
C   -12.05841000   -5.19162000   8.29542000
H   -12.03106000   -5.17583000   7.18037000
H   -10.82747000   -5.95445000   9.92465000
H   -9.55134000   -3.76440000   9.99031000
H   -10.74759000   -2.97846000   7.24416000
H   -12.09047000   -3.74437000   9.92647000
C   -10.77826000   -1.53933000   8.88033000
C   -8.24202000   -1.55409000   8.94913000
C   -9.49091000   -0.80465000   8.43178000
C   -12.02502000   -0.78888000   8.35906000
H   -10.81002000   -1.55752000   9.99517000
H   -8.27171000   -1.57556000   10.06400000
H   -11.99101000   -0.77221000   7.24396000
H   -9.45958000   -0.78508000   7.31672000
C   -13.32054000   -1.51616000   8.80510000
C   -13.31935000   -2.97886000   8.29514000
C   -13.34596000   -5.92789000   8.74949000
C   -14.54850000   -0.74490000   8.28323000
C   -14.58849000   -3.72519000   8.74769000
C   -14.58342000   -5.16852000   8.23502000
H   -14.56200000   -0.74380000   7.17107000
H   -13.36221000   -1.52845000   9.91861000
H   -13.29929000   -2.96644000   7.18102000
H   -14.66431000   -3.72663000   9.85727000
H   -14.60449000   -5.16665000   7.12307000
H   -13.38073000   -5.93998000   9.86319000
C   -14.54080000   0.70025000   8.79379000
C   -13.25898000   1.42054000   8.36225000
C   -12.02086000   0.67208000   8.87783000
C   -10.73687000   1.39676000   8.43874000
C   -9.49340000   0.65380000   8.95394000
C   -8.20970000   1.38258000   8.51674000
H   -14.62226000   0.70777000   9.90199000
H   -12.05494000   0.66781000   9.99078000
H   -9.52683000   0.64693000   10.06681000
H   -13.23539000   1.49129000   7.25234000
H   -10.70268000   1.46555000   7.32792000
H   -8.17649000   1.45525000   7.40620000
C   -8.25887000   5.85218000   8.33925000
C   -9.53788000   5.11621000   8.79889000
C   -10.79472000   5.86381000   8.28915000
H   -8.23829000   5.87305000   7.22412000
C   -9.53107000   3.65725000   8.27809000
H   -9.55896000   5.09757000   9.91413000
C   -10.80531000   2.92788000   8.73369000
C   -12.05877000   3.66539000   8.23204000
C   -12.07303000   5.12678000   8.74939000
H   -9.51210000   3.66317000   7.16484000
H   -10.77272000   5.88153000   7.17404000
H   -12.09364000   5.11070000   9.86483000
H   -12.03832000   3.66899000   7.11872000
H   -10.82542000   2.86017000   9.84490000
C   -8.27663000   2.91594000   8.77519000
H   -8.29431000   2.84511000   9.88615000
C   -13.33744000   5.86721000   8.24013000
C   -13.32845000   2.93033000   8.68629000
C   -14.59760000   5.10913000   8.70096000
C   -14.57981000   3.66359000   8.19175000
H   -13.32422000   5.87921000   7.12588000
H   -14.66593000   5.10899000   9.81107000
H   -14.60656000   3.65603000   7.08087000
H   -13.36028000   2.86032000   9.79605000
C   -3.20340000   -5.93683000   8.80968000
C   -0.66489000   -5.94975000   8.86382000
C   -1.92029000   -5.20166000   8.35352000
H   -0.68790000   -5.97079000   9.97885000
H   -0.61253000   -2.98825000   7.30876000
C   -0.63969000   -3.00986000   8.42373000
C   -1.92485000   -3.74490000   8.87538000
H   -1.89554000   -5.18220000   7.23848000
C   -3.17719000   -2.99644000   8.35907000
C   -4.46432000   -3.72849000   8.81144000
C   -4.45941000   -5.19162000   8.29542000
H   -4.43206000   -5.17583000   7.18037000
H   -3.22847000   -5.95445000   9.92465000
H   -1.95234000   -3.76440000   9.99031000
H   -3.14859000   -2.97846000   7.24416000
H   -4.49147000   -3.74437000   9.92647000
C   -3.17926000   -1.53933000   8.88033000
C   -0.64302000   -1.55409000   8.94913000
C   -1.89191000   -0.80465000   8.43178000
C   -4.42602000   -0.78888000   8.35906000
H   -3.21102000   -1.55752000   9.99517000
H   -0.67271000   -1.57556000   10.06400000
H   -1.86058000   -0.78508000   7.31672000
C   -5.72154000   -1.51616000   8.80510000
C   -5.72035000   -2.97886000   8.29514000
C   -5.74696000   -5.92789000   8.74949000
C   -6.94950000   -0.74490000   8.28323000
C   -6.98949000   -3.72519000   8.74769000
C   -6.98442000   -5.16852000   8.23502000
H   -6.96300000   -0.74380000   7.17107000
H   -5.76321000   -1.52845000   9.91861000
H   -5.70029000   -2.96644000   7.18102000
H   -7.06531000   -3.72663000   9.85727000
H   -7.00549000   -5.16665000   7.12307000
H   -5.78173000   -5.93998000   9.86319000
C   -6.94180000   0.70025000   8.79379000
C   -5.65998000   1.42054000   8.36225000
C   -4.42186000   0.67208000   8.87783000
C   -3.13787000   1.39676000   8.43874000
C   -1.89440000   0.65380000   8.95394000
C   -0.61070000   1.38258000   8.51674000
H   -7.02326000   0.70777000   9.90199000
H   -4.45594000   0.66781000   9.99078000
H   -1.92783000   0.64693000   10.06681000
H   -5.63639000   1.49129000   7.25234000
H   -3.10368000   1.46555000   7.32792000
H   -0.57749000   1.45525000   7.40620000
C   -0.65987000   5.85218000   8.33925000
C   -1.93888000   5.11621000   8.79889000
C   -3.19572000   5.86381000   8.28915000
H   -0.63929000   5.87305000   7.22412000
C   -1.93207000   3.65725000   8.27809000
H   -1.95996000   5.09757000   9.91413000
C   -3.20631000   2.92788000   8.73369000
C   -4.45977000   3.66539000   8.23204000
C   -4.47403000   5.12678000   8.74939000
H   -1.91310000   3.66317000   7.16484000
H   -3.17372000   5.88153000   7.17404000
H   -4.49464000   5.11070000   9.86483000
H   -4.43932000   3.66899000   7.11872000
H   -3.22642000   2.86017000   9.84490000
C   -0.67763000   2.91594000   8.77519000
H   -0.69531000   2.84511000   9.88615000
C   -5.73844000   5.86721000   8.24013000
C   -5.72945000   2.93033000   8.68629000
C   -6.99860000   5.10913000   8.70096000
C   -6.98081000   3.66359000   8.19175000
H   -5.72522000   5.87921000   7.12588000
H   -7.06693000   5.10899000   9.81107000
H   -7.00756000   3.65603000   7.08087000
H   -5.76128000   2.86032000   9.79605000
C   4.39560000   -5.93683000   8.80968000
C   6.93411000   -5.94975000   8.86382000
C   5.67871000   -5.20166000   8.35352000
H   6.91110000   -5.97079000   9.97885000
H   6.98647000   -2.98825000   7.30876000
C   6.95931000   -3.00986000   8.42373000
C   5.67415000   -3.74490000   8.87538000
H   5.70346000   -5.18220000   7.23848000
C   4.42181000   -2.99644000   8.35907000
C   3.13468000   -3.72849000   8.81144000
C   3.13959000   -5.19162000   8.29542000
H   3.16694000   -5.17583000   7.18037000
H   4.37053000   -5.95445000   9.92465000
H   5.64666000   -3.76440000   9.99031000
H   4.45041000   -2.97846000   7.24416000
H   3.10753000   -3.74437000   9.92647000
C   4.41974000   -1.53933000   8.88033000
C   6.95598000   -1.55409000   8.94913000
C   5.70709000   -0.80465000   8.43178000
C   3.17298000   -0.78888000   8.35906000
H   4.38798000   -1.55752000   9.99517000
H   6.92629000   -1.57556000   10.06400000
H   3.20699000   -0.77221000   7.24396000
C   1.87746000   -1.51616000   8.80510000
C   1.87865000   -2.97886000   8.29514000
C   1.85204000   -5.92789000   8.74949000
C   0.64950000   -0.74490000   8.28323000
C   0.60951000   -3.72519000   8.74769000
C   0.61458000   -5.16852000   8.23502000
H   0.63600000   -0.74380000   7.17107000
H   1.83579000   -1.52845000   9.91861000
H   1.89871000   -2.96644000   7.18102000
H   0.53369000   -3.72663000   9.85727000
H   0.59351000   -5.16665000   7.12307000
H   1.81727000   -5.93998000   9.86319000
C   0.65720000   0.70025000   8.79379000
C   1.93902000   1.42054000   8.36225000
C   3.17714000   0.67208000   8.87783000
C   4.46113000   1.39676000   8.43874000
C   5.70460000   0.65380000   8.95394000
C   6.98830000   1.38258000   8.51674000
H   0.57574000   0.70777000   9.90199000
H   3.14306000   0.66781000   9.99078000
H   5.67117000   0.64693000   10.06681000
H   1.96261000   1.49129000   7.25234000
H   4.49532000   1.46555000   7.32792000
H   7.02151000   1.45525000   7.40620000
C   6.93913000   5.85218000   8.33925000
C   5.66012000   5.11621000   8.79889000
C   4.40328000   5.86381000   8.28915000
H   6.95971000   5.87305000   7.22412000
C   5.66693000   3.65725000   8.27809000
H   5.63904000   5.09757000   9.91413000
C   4.39269000   2.92788000   8.73369000
C   3.13923000   3.66539000   8.23204000
C   3.12497000   5.12678000   8.74939000
H   5.68590000   3.66317000   7.16484000
H   4.42528000   5.88153000   7.17404000
H   3.10436000   5.11070000   9.86483000
H   3.15968000   3.66899000   7.11872000
H   4.37258000   2.86017000   9.84490000
C   6.92137000   2.91594000   8.77519000
H   6.90369000   2.84511000   9.88615000
C   1.86056000   5.86721000   8.24013000
C   1.86955000   2.93033000   8.68629000
C   0.60040000   5.10913000   8.70096000
C   0.61819000   3.66359000   8.19175000
H   1.87378000   5.87921000   7.12588000
H   0.53207000   5.10899000   9.81107000
H   0.59144000   3.65603000   7.08087000
H   1.83772000   2.86032000   9.79605000
C   11.99460000   -5.93683000   8.80968000
C   14.53311000   -5.94975000   8.86382000
C   13.27771000   -5.20166000   8.35352000
H   14.51010000   -5.97079000   9.97885000
H   14.58547000   -2.98825000   7.30876000
C   14.55831000   -3.00986000   8.42373000
C   13.27315000   -3.74490000   8.87538000
H   13.30246000   -5.18220000   7.23848000
C   12.02081000   -2.99644000   8.35907000
C   10.73368000   -3.72849000   8.81144000
C   10.73859000   -5.19162000   8.29542000
H   10.76594000   -5.17583000   7.18037000
H   11.96953000   -5.95445000   9.92465000
H   13.24566000   -3.76440000   9.99031000
H   12.04941000   -2.97846000   7.24416000
H   10.70653000   -3.74437000   9.92647000
C   12.01874000   -1.53933000   8.88033000
C   14.55498000   -1.55409000   8.94913000
C   13.30609000   -0.80465000   8.43178000
C   10.77198000   -0.78888000   8.35906000
H   11.98698000   -1.55752000   9.99517000
H   14.52529000   -1.57556000   10.06400000
H   10.80599000   -0.77221000   7.24396000
H   13.33742000   -0.78508000   7.31672000
C   9.47646000   -1.51616000   8.80510000
C   9.47765000   -2.97886000   8.29514000
C   9.45104000   -5.92789000   8.74949000
C   8.24850000   -0.74490000   8.28323000
C   8.20851000   -3.72519000   8.74769000
C   8.21358000   -5.16852000   8.23502000
H   8.23500000   -0.74380000   7.17107000
H   9.43479000   -1.52845000   9.91861000
H   9.49771000   -2.96644000   7.18102000
H   8.13269000   -3.72663000   9.85727000
H   8.19251000   -5.16665000   7.12307000
H   9.41627000   -5.93998000   9.86319000
C   8.25620000   0.70025000   8.79379000
C   9.53802000   1.42054000   8.36225000
C   10.77614000   0.67208000   8.87783000
C   12.06013000   1.39676000   8.43874000
C   13.30360000   0.65380000   8.95394000
C   14.58730000   1.38258000   8.51674000
H   8.17474000   0.70777000   9.90199000
H   10.74206000   0.66781000   9.99078000
H   13.27017000   0.64693000   10.06681000
H   9.56161000   1.49129000   7.25234000
H   12.09432000   1.46555000   7.32792000
H   14.62051000   1.45525000   7.40620000
C   14.53813000   5.85218000   8.33925000
C   13.25912000   5.11621000   8.79889000
C   12.00228000   5.86381000   8.28915000
H   14.55871000   5.87305000   7.22412000
C   13.26593000   3.65725000   8.27809000
H   13.23804000   5.09757000   9.91413000
C   11.99169000   2.92788000   8.73369000
C   10.73823000   3.66539000   8.23204000
C   10.72397000   5.12678000   8.74939000
H   13.28490000   3.66317000   7.16484000
H   12.02428000   5.88153000   7.17404000
H   10.70336000   5.11070000   9.86483000
H   10.75868000   3.66899000   7.11872000
H   11.97158000   2.86017000   9.84490000
C   14.52037000   2.91594000   8.77519000
H   14.50269000   2.84511000   9.88615000
C   9.45956000   5.86721000   8.24013000
C   9.46855000   2.93033000   8.68629000
C   8.19940000   5.10913000   8.70096000
C   8.21719000   3.66359000   8.19175000
H   9.47278000   5.87921000   7.12588000
H   8.13107000   5.10899000   9.81107000
H   8.19044000   3.65603000   7.08087000
H   9.43672000   2.86032000   9.79605000
N   -4.96672822   -1.32458498   4.24370392
C   -5.49580027   -1.00753146   5.67357581
H   -6.11997788   -0.06610820   5.55812813
H   -6.13409030   -1.87257513   5.83234502
C   -4.31846268   -0.69177065   6.65193108
H   -3.48771039   -1.38349885   6.40662926
H   -3.97650137   0.30686965   6.39198553
C   -3.96721835   -2.44923162   4.28180079
H   -4.44133940   -3.25881123   4.84349905
H   -3.72941519   -2.74130910   3.22207954
H   -3.09625787   -2.14298910   4.78595806
C   -4.50062132   -0.08949365   3.55150238
H   -3.86683214   0.40022564   4.25936807
H   -3.92753686   -0.23466309   2.65391857
H   -5.40898399   0.55733935   3.29005455
C   -6.19033638   -1.83827535   3.47074593
H   -5.76644385   -1.98201223   2.49159216
H   -6.58462074   -2.77016023   3.90385852
H   -6.89160766   -1.00067254   3.49905751
N   6.60821404   2.16441655   0.68915242
C   6.26650594   1.32814322   2.02998726
H   6.02818701   2.05118923   2.75574076
H   5.41245618   0.69101040   1.67618258
C   7.47261031   0.57414723   2.58025066
H   7.73377706   -0.33590867   2.02296211
H   8.32020929   1.23642469   2.50366563
C   5.73345343   -0.69695589   6.76205766
H   6.00761308   0.35141793   6.61349570
H   4.70386556   -0.77624293   6.39064025
C   6.42621241   -1.64965413   5.69584705
H   7.51145162   -1.77587505   5.90544356
H   5.86452763   -2.60874805   5.67018688
C   6.39199735   -1.12213428   4.23383619
H   5.33294546   -0.94640775   4.07406662
H   6.67065977   -1.88422427   3.48452905
C   7.21568760   0.14982612   4.07088352
H   6.62961101   0.92754554   4.58963215
H   8.17932936   0.17595901   4.50980828
C   5.49523476   3.24890841   0.51972342
H   4.62673183   2.69140736   0.32222814
H   5.81137470   3.95799602   -0.23788727
H   5.46063408   3.86416555   1.36187340
C   6.42490617   1.23591953   -0.49737250
H   7.32484431   0.65052685   -0.61626371
H   6.13211512   1.77577598   -1.43388217
H   5.59676668   0.47056901   -0.37971035
C   7.94794786   2.74684879   0.57219429
H   8.03207493   3.37497631   -0.39853423
H   8.69195279   1.91076055   0.60962326
H   8.16382348   3.37253571   1.47958547
O   -2.85529189   19.23832451   -2.49260762
H   -3.75736591   19.44554313   -2.39269360
H   -2.60189205   19.18118535   -3.41159826
O   -8.06861340   52.84713354   0.54094850
H   -8.78624934   52.31283158   0.84845927
H   -7.61402416   52.42626457   -0.16232244
O   1.37246141   36.93193391   3.48212216
H   0.99935095   37.32660469   4.30043507
H   2.05280767   37.57091502   3.25022558
O   0.01958272   32.38999263   -4.22959977
H   0.53304773   33.17295082   -4.14264085
H   -0.25664083   32.18164680   -3.32619184
O   28.38577899   -8.97230750   -0.19629931
H   28.05927964   -8.94253851   -1.13401362
H   28.07981464   -9.76200754   0.24843126
O   -20.06296308   37.96633860   -4.73974193
H   -20.54206264   37.64791799   -3.99577600
H   -20.44848167   38.79163508   -5.12644376
O   19.75622573   20.21670614   0.55760618
H   20.69176952   20.03367461   0.55540574
H   19.48164504   20.25500438   1.47606691
O   7.41237771   22.62891503   -3.97665444
H   6.98267934   21.98867218   -3.39168462
H   6.86026054   22.91594926   -4.74376367
O   9.53008864   19.90623890   -1.34548693
H   3.86824794   20.90875717   -5.30311585
H   10.24804593   19.43244201   -1.87642639
O   35.12250968   6.71561679   4.82240382
H   35.80100101   7.11524739   4.25434760
H   35.47668345   6.62873952   5.76631725
O   -25.37467408   35.95393108   2.52370596
H   -24.39164693   35.82112413   2.49462442
H   -25.50372652   36.86513520   2.13744586
O   -27.79191122   21.22847480   0.50725602
H   -28.19756923   21.50973065   -0.34744082
H   4.74220550   21.50851033   -4.22408207
O   9.72080862   2.65867367   -2.22816536
H   10.45729979   3.21636998   -1.83457321
H   10.11149332   -11.06215677   -3.00478416
O   1.58051853   8.57081435   -3.12286286
H   1.97661692   9.30134382   -3.59085200
H   2.09871473   7.78968699   -3.36770824
O   -34.54705040   2.56536030   1.46728005
H   -34.44443387   2.92287119   2.35276475
H   -35.19581911   3.16328312   1.02913515
O   0.43914040   -11.04005721   0.07961537
H   -0.17441302   -10.32559032   -0.23503614
H   0.98745195   -10.51755010   0.69914446
O   -7.65455950   20.07125891   1.85151374
H   24.73217850   -8.90720425   -3.08461919
H   -6.78477590   19.75474687   1.63849359
O   11.88263276   -9.20203051   -0.99923498
H   12.74940486   3.72775791   -1.07400217
H   11.87829120   -8.81738458   -0.08935832
O   -10.29423581   9.97204272   0.48316294
H   -10.62905822   10.06020146   -0.44902714
H   -10.52715204   9.05571390   0.73529111
O   9.32453022   18.85932647   -5.40241354
H   9.21584278   19.83366748   -5.62748935
H   9.41424919   18.81287793   -4.41383824
O   34.46199853   8.74383107   -2.27402376
H   34.13288142   9.63489529   -2.27030282
H   35.13518134   8.72862104   -1.57140374
O   2.79373941   24.52843084   -2.52454048
H   2.10045515   23.94239727   -2.34570403
H   2.95285791   25.05554018   -1.76665620
O   -4.74637648   2.76325754   4.87528455
H   -12.18830347   4.01837638   -0.36483271
H   -4.72814923   3.70063566   4.61868273
O   -4.96950533   -5.84004899   -0.84256763
H   -4.02828534   -5.58235092   -0.78725155
H   -5.05147711   -6.32483052   0.03055777
O   13.72788733   1.48458879   -4.91053427
H   13.77199005   2.25461943   -5.51968152
H   14.61576250   1.24758042   -4.62723969
O   6.54693858   -7.42914085   -1.64757993
H   6.09099591   -6.74477619   -1.10179704
H   -0.38951977   14.04575128   0.07523572
O   18.47427412   4.44449277   0.48310607
H   3.36186016   8.36686132   0.78794018
H   18.82058279   5.37311681   0.35477129
O   25.34628410   -9.65225093   -3.04318883
H   25.65699397   -9.50095963   -2.16322062
H   7.53589177   -7.28243258   -1.55438773
O   7.75233394   -4.22268233   1.79666337
H   9.81432654   -7.04565588   -0.43199020
H   8.30450536   9.80564399   2.26231061
O   -2.27417590   21.05402529   4.93324487
H   -2.79428460   20.63959550   4.23579534
H   -1.43013330   21.22528069   4.51810536
O   22.63243817   -12.64605044   3.90250336
H   22.91062347   -11.78983926   3.49036877
H   21.72405421   -12.70512725   4.12594587
O   22.83736326   -16.75140724   1.59319094
H   23.60433586   -17.29890551   1.64893808
H   22.60169302   -16.83945415   0.66878192
O   7.08416204   -2.04022782   0.25036473
H   7.36959340   10.55499280   0.73768569
H   7.87486354   -1.89541817   -0.28909213
O   3.39998538   32.82660187   -1.47451551
H   3.56792375   33.27108713   -0.64405559
H   3.47853670   33.53108869   -2.12398065
O   -6.75585192   1.42945552   -3.61819070
H   -5.83908430   14.98734843   -3.42408806
H   -6.79629037   0.53813921   -4.00235480
O   31.13220210   15.92413456   -4.40953343
H   30.57786576   30.03521338   -4.73778910
H   31.17733767   28.49630848   -4.94182868
O   -6.04459249   4.23014899   0.03230531
H   -5.59872953   4.77485364   0.72507994
H   -7.01383308   4.37281456   0.05433872
O   -5.07675067   8.54446169   2.48523436
H   -5.40826476   8.26520025   3.36596362
H   -4.96917563   7.63274797   1.96000602
O   -14.59296208   19.15586393   -1.65653378
H   -13.97330433   18.96938346   -2.43987757
H   -15.01206991   20.00625420   -1.77444231
O   1.56244275   4.79499222   1.46980968
H   0.64256203   4.79640392   1.81807627
H   1.72925295   5.77359895   1.39411982
O   -6.51831548   19.58030125   -2.83364523
H   -7.81459017   21.01793207   2.19635633
H   -7.36736009   19.18943738   -2.59082284
O   16.74715322   8.43164641   4.43049765
H   16.75856890   7.67450252   3.85536613
H   16.30952086   8.09213785   5.25108346
O   5.21978810   3.15311437   -3.05220608
H   5.90292285   3.80814025   -3.23282382
H   4.43839193   3.66923435   -2.87849723
O   -3.69987772   -0.19700973   0.47256398
H   -4.09271794   0.63023990   0.17858219
H   -2.72435883   -0.10047665   0.26455724
O   -11.56508068   28.75218340   4.31982550
H   -12.41358353   29.15550496   4.53079013
H   -11.09338440   29.41226779   3.74638749
O   -7.39846183   -23.37553362   3.10471358
H   -6.83966523   -22.65129562   2.74314599
H   -8.24608453   -23.35209983   2.67961342
O   7.63336939   7.46045777   3.94417769
H   7.85537350   7.94398803   4.73216498
H   7.67830782   8.08834257   3.15477024
O   -5.53071250   -7.60223179   4.03083891
H   -5.10375874   -7.67132439   3.12278243
H   -6.40138987   -7.40463605   3.83208773
O   6.40440146   -4.99969161   -0.48022968
H   6.62633934   -4.64738127   0.43257887
H   7.32397440   -5.15481885   -0.80961051
O   24.59407617   -15.37144841   -3.91684094
H   25.06260739   -16.07740117   -4.32394843
H   25.23891257   -14.68416313   -3.61656940
O   -8.06118902   21.58667728   4.83104501
H   -8.49292595   22.43597515   4.82380805
H   -8.61001849   20.97078927   5.28849639
O   14.70620135   16.62562760   -1.31699160
H   14.87809256   17.47531479   -1.79460368
H   15.01587308   15.96557910   -1.91730684
O   -20.78154878   -4.21497215   -0.28342572
H   -20.96390063   -4.85103492   -0.96863905
H   -21.52968697   -4.16347702   0.35831373
O   -21.32666000   -6.64671684   1.60589297
H   -21.69685110   -5.67048548   1.60505013
H   -21.52845311   -6.92824255   2.51497283
O   -13.67114526   -19.31626782   -4.04875200
H   -13.30386093   -19.36458571   -4.94470628
H   -12.97181036   -19.23389714   -3.36318671
O   -10.83052313   12.06184002   4.13804355
H   -10.71511350   11.58546603   3.28793652
H   -10.97502170   13.02042583   3.95512636
O   25.59401751   6.04760561   1.57214627
H   24.72944668   15.94631539   4.71530704
H   26.52965583   5.80220858   1.39679858
O   -14.03123387   10.00984699   -2.61820388
H   -14.49627497   9.38260906   -2.05664910
H   -6.05319381   19.90231092   -2.01444804
O   3.04210065   1.18319777   -0.15435199
H   3.32555418   0.99059218   -1.04169491
H   2.07517378   1.33800356   -0.27228517
O   -40.95026132   11.68484240   -2.64081865
H   -41.36433513   12.55498085   -2.38299479
H   -40.74068408   11.70564105   -3.58500454
O   12.39844722   8.29341333   0.10253651
H   11.47077002   8.59939701   -0.13563252
H   13.03501666   9.01285381   -0.10523636
O   -0.81721282   13.18605985   0.05466205
H   19.40850061   -18.78038934   -2.23009530
H   -0.48458396   12.76465972   -0.77447388
O   -18.61481447   -20.98099623   1.26550209
H   -19.57241802   -20.85922040   1.14675944
H   -18.35542063   -20.07424531   1.15031951
O   3.89049902   -26.09706822   -2.88624568
H   4.67087416   -13.16975408   -3.01177676
H   4.03637678   -25.15809028   -3.06622039
O   -25.83353067   -16.06665651   -0.15747411
H   -24.87984039   -15.87571772   -0.27239542
H   -25.79323659   -17.03754014   -0.02965171
O   11.04870195   -5.64203184   -5.31834942
H   10.85553537   -4.68923345   -5.43915998
H   11.63248418   -5.97470960   -6.05944745
O   21.29034096   -31.00288901   -3.01190628
H   21.81103995   -31.04467523   -2.20895989
H   21.81825005   -30.83690177   -3.82562877
O   -1.41881872   -8.52486631   5.02432140
H   -1.61653512   -8.61975435   4.08357283
H   -1.81847851   -7.69124665   5.28891107
O   -31.73865446   14.89391209   4.33407413
H   -30.88927531   15.27910409   4.21333166
H   -32.31509869   15.44971869   3.85960822
O   24.11138280   10.11244624   -1.14174751
H   24.69377214   9.31635579   -1.14893054
H   24.68945962   10.86514958   -0.98839739
O   20.16865995   2.96709900   2.03889837
H   20.52158450   2.72138038   1.12487208
H   19.36195154   3.50346913   1.75988630
O   21.68354812   1.92839098   -0.30168829
H   21.84440756   0.99763672   -0.04727533
H   -14.59322211   10.17055510   -3.37939315
O   0.05458715   -19.41266487   2.60263755
H   0.46061337   -19.76704318   3.41176201
H   0.58569796   -18.70416073   2.36849627
O   13.49542628   11.18160169   2.36111195
H   14.40821897   11.21466109   2.05950509
H   13.25973299   10.29872742   2.72601809
O   4.68224989   21.35811686   -5.21037197
H   22.56991118   15.64235426   -0.23068341
O   18.49825887   -18.72273096   -1.89341166
H   18.11381143   -17.87884708   -2.16240161
