850

C   -10.80240000   -5.93683000   -8.69032000
C   -8.26389000   -5.94975000   -8.63618000
C   -9.51929000   -5.20166000   -9.14648000
H   -8.28690000   -5.97079000   -7.52115000
H   -8.21153000   -2.98825000   -10.19124000
C   -8.23869000   -3.00986000   -9.07627000
C   -9.52385000   -3.74490000   -8.62462000
H   -9.49454000   -5.18220000   -10.26152000
C   -10.77619000   -2.99644000   -9.14093000
C   -12.06332000   -3.72849000   -8.68856000
C   -12.05841000   -5.19162000   -9.20458000
H   -12.03106000   -5.17583000   -10.31963000
H   -10.82747000   -5.95445000   -7.57535000
H   -9.55134000   -3.76440000   -7.50969000
H   -10.74759000   -2.97846000   -10.25584000
H   -12.09047000   -3.74437000   -7.57353000
C   -10.77826000   -1.53933000   -8.61967000
C   -8.24202000   -1.55409000   -8.55087000
C   -9.49091000   -0.80465000   -9.06822000
C   -12.02502000   -0.78888000   -9.14094000
H   -10.81002000   -1.55752000   -7.50483000
H   -8.27171000   -1.57556000   -7.43600000
H   -11.99101000   -0.77221000   -10.25604000
H   -9.45958000   -0.78508000   -10.18328000
C   -13.32054000   -1.51616000   -8.69490000
C   -13.31935000   -2.97886000   -9.20486000
C   -13.34596000   -5.92789000   -8.75051000
C   -14.54850000   -0.74490000   -9.21677000
C   -14.58849000   -3.72519000   -8.75231000
C   -14.58342000   -5.16852000   -9.26498000
H   -14.56200000   -0.74380000   -10.32893000
H   -13.36221000   -1.52845000   -7.58139000
H   -13.29929000   -2.96644000   -10.31898000
H   -14.66431000   -3.72663000   -7.64273000
H   -14.60449000   -5.16665000   -10.37693000
H   -13.38073000   -5.93998000   -7.63681000
C   -14.54080000   0.70025000   -8.70621000
C   -13.25898000   1.42054000   -9.13775000
C   -12.02086000   0.67208000   -8.62217000
C   -10.73687000   1.39676000   -9.06126000
C   -9.49340000   0.65380000   -8.54606000
C   -8.20970000   1.38258000   -8.98326000
H   -14.62226000   0.70777000   -7.59801000
H   -12.05494000   0.66781000   -7.50922000
H   -9.52683000   0.64693000   -7.43319000
H   -13.23539000   1.49129000   -10.24766000
H   -10.70268000   1.46555000   -10.17208000
H   -8.17649000   1.45525000   -10.09380000
C   -8.25887000   5.85218000   -9.16075000
C   -9.53788000   5.11621000   -8.70111000
C   -10.79472000   5.86381000   -9.21085000
H   -8.23829000   5.87305000   -10.27588000
C   -9.53107000   3.65725000   -9.22191000
H   -9.55896000   5.09757000   -7.58587000
C   -10.80531000   2.92788000   -8.76631000
C   -12.05877000   3.66539000   -9.26796000
C   -12.07303000   5.12678000   -8.75061000
H   -9.51210000   3.66317000   -10.33516000
H   -10.77272000   5.88153000   -10.32596000
H   -12.09364000   5.11070000   -7.63517000
H   -12.03832000   3.66899000   -10.38128000
H   -10.82542000   2.86017000   -7.65510000
C   -8.27663000   2.91594000   -8.72481000
H   -8.29431000   2.84511000   -7.61385000
C   -13.33744000   5.86721000   -9.25987000
C   -13.32845000   2.93033000   -8.81371000
C   -14.59760000   5.10913000   -8.79904000
C   -14.57981000   3.66359000   -9.30825000
H   -13.32422000   5.87921000   -10.37412000
H   -14.66593000   5.10899000   -7.68893000
H   -14.60656000   3.65603000   -10.41913000
H   -13.36028000   2.86032000   -7.70395000
C   -3.20340000   -5.93683000   -8.69032000
C   -0.66489000   -5.94975000   -8.63618000
C   -1.92029000   -5.20166000   -9.14648000
H   -0.68790000   -5.97079000   -7.52115000
H   -0.61253000   -2.98825000   -10.19124000
C   -0.63969000   -3.00986000   -9.07627000
C   -1.92485000   -3.74490000   -8.62462000
H   -1.89554000   -5.18220000   -10.26152000
C   -3.17719000   -2.99644000   -9.14093000
C   -4.46432000   -3.72849000   -8.68856000
C   -4.45941000   -5.19162000   -9.20458000
H   -4.43206000   -5.17583000   -10.31963000
H   -3.22847000   -5.95445000   -7.57535000
H   -1.95234000   -3.76440000   -7.50969000
H   -3.14859000   -2.97846000   -10.25584000
H   -4.49147000   -3.74437000   -7.57353000
C   -3.17926000   -1.53933000   -8.61967000
C   -0.64302000   -1.55409000   -8.55087000
C   -1.89191000   -0.80465000   -9.06822000
C   -4.42602000   -0.78888000   -9.14094000
H   -3.21102000   -1.55752000   -7.50483000
H   -0.67271000   -1.57556000   -7.43600000
H   -4.39201000   -0.77221000   -10.25604000
H   -1.86058000   -0.78508000   -10.18328000
C   -5.72154000   -1.51616000   -8.69490000
C   -5.72035000   -2.97886000   -9.20486000
C   -5.74696000   -5.92789000   -8.75051000
C   -6.94950000   -0.74490000   -9.21677000
C   -6.98949000   -3.72519000   -8.75231000
C   -6.98442000   -5.16852000   -9.26498000
H   -6.96300000   -0.74380000   -10.32893000
H   -5.76321000   -1.52845000   -7.58139000
H   -5.70029000   -2.96644000   -10.31898000
H   -7.06531000   -3.72663000   -7.64273000
H   -7.00549000   -5.16665000   -10.37693000
H   -5.78173000   -5.93998000   -7.63681000
C   -6.94180000   0.70025000   -8.70621000
C   -5.65998000   1.42054000   -9.13775000
C   -4.42186000   0.67208000   -8.62217000
C   -3.13787000   1.39676000   -9.06126000
C   -1.89440000   0.65380000   -8.54606000
C   -0.61070000   1.38258000   -8.98326000
H   -7.02326000   0.70777000   -7.59801000
H   -4.45594000   0.66781000   -7.50922000
H   -1.92783000   0.64693000   -7.43319000
H   -5.63639000   1.49129000   -10.24766000
H   -3.10368000   1.46555000   -10.17208000
H   -0.57749000   1.45525000   -10.09380000
C   -0.65987000   5.85218000   -9.16075000
C   -1.93888000   5.11621000   -8.70111000
C   -3.19572000   5.86381000   -9.21085000
H   -0.63929000   5.87305000   -10.27588000
C   -1.93207000   3.65725000   -9.22191000
H   -1.95996000   5.09757000   -7.58587000
C   -3.20631000   2.92788000   -8.76631000
C   -4.45977000   3.66539000   -9.26796000
C   -4.47403000   5.12678000   -8.75061000
H   -1.91310000   3.66317000   -10.33516000
H   -3.17372000   5.88153000   -10.32596000
H   -4.49464000   5.11070000   -7.63517000
H   -4.43932000   3.66899000   -10.38128000
H   -3.22642000   2.86017000   -7.65510000
C   -0.67763000   2.91594000   -8.72481000
H   -0.69531000   2.84511000   -7.61385000
C   -5.73844000   5.86721000   -9.25987000
C   -5.72945000   2.93033000   -8.81371000
C   -6.99860000   5.10913000   -8.79904000
C   -6.98081000   3.66359000   -9.30825000
H   -5.72522000   5.87921000   -10.37412000
H   -7.06693000   5.10899000   -7.68893000
H   -7.00756000   3.65603000   -10.41913000
H   -5.76128000   2.86032000   -7.70395000
C   4.39560000   -5.93683000   -8.69032000
C   6.93411000   -5.94975000   -8.63618000
C   5.67871000   -5.20166000   -9.14648000
H   6.91110000   -5.97079000   -7.52115000
H   6.98647000   -2.98825000   -10.19124000
C   6.95931000   -3.00986000   -9.07627000
C   5.67415000   -3.74490000   -8.62462000
H   5.70346000   -5.18220000   -10.26152000
C   4.42181000   -2.99644000   -9.14093000
C   3.13468000   -3.72849000   -8.68856000
C   3.13959000   -5.19162000   -9.20458000
H   3.16694000   -5.17583000   -10.31963000
H   4.37053000   -5.95445000   -7.57535000
H   5.64666000   -3.76440000   -7.50969000
H   4.45041000   -2.97846000   -10.25584000
H   3.10753000   -3.74437000   -7.57353000
C   4.41974000   -1.53933000   -8.61967000
C   6.95598000   -1.55409000   -8.55087000
C   5.70709000   -0.80465000   -9.06822000
C   3.17298000   -0.78888000   -9.14094000
H   4.38798000   -1.55752000   -7.50483000
H   6.92629000   -1.57556000   -7.43600000
H   3.20699000   -0.77221000   -10.25604000
H   5.73842000   -0.78508000   -10.18328000
C   1.87746000   -1.51616000   -8.69490000
C   1.87865000   -2.97886000   -9.20486000
C   1.85204000   -5.92789000   -8.75051000
C   0.64950000   -0.74490000   -9.21677000
C   0.60951000   -3.72519000   -8.75231000
C   0.61458000   -5.16852000   -9.26498000
H   0.63600000   -0.74380000   -10.32893000
H   1.83579000   -1.52845000   -7.58139000
H   1.89871000   -2.96644000   -10.31898000
H   0.53369000   -3.72663000   -7.64273000
H   0.59351000   -5.16665000   -10.37693000
H   1.81727000   -5.93998000   -7.63681000
C   0.65720000   0.70025000   -8.70621000
C   1.93902000   1.42054000   -9.13775000
C   3.17714000   0.67208000   -8.62217000
C   4.46113000   1.39676000   -9.06126000
C   5.70460000   0.65380000   -8.54606000
C   6.98830000   1.38258000   -8.98326000
H   0.57574000   0.70777000   -7.59801000
H   3.14306000   0.66781000   -7.50922000
H   5.67117000   0.64693000   -7.43319000
H   1.96261000   1.49129000   -10.24766000
H   4.49532000   1.46555000   -10.17208000
H   7.02151000   1.45525000   -10.09380000
C   6.93913000   5.85218000   -9.16075000
C   5.66012000   5.11621000   -8.70111000
C   4.40328000   5.86381000   -9.21085000
H   6.95971000   5.87305000   -10.27588000
C   5.66693000   3.65725000   -9.22191000
H   5.63904000   5.09757000   -7.58587000
C   4.39269000   2.92788000   -8.76631000
C   3.13923000   3.66539000   -9.26796000
C   3.12497000   5.12678000   -8.75061000
H   5.68590000   3.66317000   -10.33516000
H   4.42528000   5.88153000   -10.32596000
H   3.10436000   5.11070000   -7.63517000
H   3.15968000   3.66899000   -10.38128000
H   4.37258000   2.86017000   -7.65510000
C   6.92137000   2.91594000   -8.72481000
H   6.90369000   2.84511000   -7.61385000
C   1.86056000   5.86721000   -9.25987000
C   1.86955000   2.93033000   -8.81371000
C   0.60040000   5.10913000   -8.79904000
C   0.61819000   3.66359000   -9.30825000
H   1.87378000   5.87921000   -10.37412000
H   0.53207000   5.10899000   -7.68893000
H   0.59144000   3.65603000   -10.41913000
H   1.83772000   2.86032000   -7.70395000
C   11.99460000   -5.93683000   -8.69032000
C   14.53311000   -5.94975000   -8.63618000
C   13.27771000   -5.20166000   -9.14648000
H   14.51010000   -5.97079000   -7.52115000
H   14.58547000   -2.98825000   -10.19124000
C   14.55831000   -3.00986000   -9.07627000
C   13.27315000   -3.74490000   -8.62462000
H   13.30246000   -5.18220000   -10.26152000
C   12.02081000   -2.99644000   -9.14093000
C   10.73368000   -3.72849000   -8.68856000
C   10.73859000   -5.19162000   -9.20458000
H   10.76594000   -5.17583000   -10.31963000
H   11.96953000   -5.95445000   -7.57535000
H   13.24566000   -3.76440000   -7.50969000
H   12.04941000   -2.97846000   -10.25584000
H   10.70653000   -3.74437000   -7.57353000
C   12.01874000   -1.53933000   -8.61967000
C   14.55498000   -1.55409000   -8.55087000
C   13.30609000   -0.80465000   -9.06822000
C   10.77198000   -0.78888000   -9.14094000
H   11.98698000   -1.55752000   -7.50483000
H   14.52529000   -1.57556000   -7.43600000
H   10.80599000   -0.77221000   -10.25604000
H   13.33742000   -0.78508000   -10.18328000
C   9.47646000   -1.51616000   -8.69490000
C   9.47765000   -2.97886000   -9.20486000
C   9.45104000   -5.92789000   -8.75051000
C   8.24850000   -0.74490000   -9.21677000
C   8.20851000   -3.72519000   -8.75231000
C   8.21358000   -5.16852000   -9.26498000
H   8.23500000   -0.74380000   -10.32893000
H   9.43479000   -1.52845000   -7.58139000
H   9.49771000   -2.96644000   -10.31898000
H   8.13269000   -3.72663000   -7.64273000
H   8.19251000   -5.16665000   -10.37693000
H   9.41627000   -5.93998000   -7.63681000
C   8.25620000   0.70025000   -8.70621000
C   9.53802000   1.42054000   -9.13775000
C   10.77614000   0.67208000   -8.62217000
C   12.06013000   1.39676000   -9.06126000
C   13.30360000   0.65380000   -8.54606000
C   14.58730000   1.38258000   -8.98326000
H   8.17474000   0.70777000   -7.59801000
H   10.74206000   0.66781000   -7.50922000
H   13.27017000   0.64693000   -7.43319000
H   9.56161000   1.49129000   -10.24766000
H   12.09432000   1.46555000   -10.17208000
H   14.62051000   1.45525000   -10.09380000
C   14.53813000   5.85218000   -9.16075000
C   13.25912000   5.11621000   -8.70111000
C   12.00228000   5.86381000   -9.21085000
H   14.55871000   5.87305000   -10.27588000
C   13.26593000   3.65725000   -9.22191000
H   13.23804000   5.09757000   -7.58587000
C   11.99169000   2.92788000   -8.76631000
C   10.73823000   3.66539000   -9.26796000
C   10.72397000   5.12678000   -8.75061000
H   13.28490000   3.66317000   -10.33516000
H   12.02428000   5.88153000   -10.32596000
H   10.70336000   5.11070000   -7.63517000
H   10.75868000   3.66899000   -10.38128000
H   11.97158000   2.86017000   -7.65510000
C   14.52037000   2.91594000   -8.72481000
H   14.50269000   2.84511000   -7.61385000
C   9.45956000   5.86721000   -9.25987000
C   9.46855000   2.93033000   -8.81371000
C   8.19940000   5.10913000   -8.79904000
C   8.21719000   3.66359000   -9.30825000
H   9.47278000   5.87921000   -10.37412000
H   8.13107000   5.10899000   -7.68893000
H   8.19044000   3.65603000   -10.41913000
H   9.43672000   2.86032000   -7.70395000
C   -10.80240000   -5.93683000   8.80968000
C   -8.26389000   -5.94975000   8.86382000
C   -9.51929000   -5.20166000   8.35352000
H   -8.28690000   -5.97079000   9.97885000
H   -8.21153000   -2.98825000   7.30876000
C   -8.23869000   -3.00986000   8.42373000
C   -9.52385000   -3.74490000   8.87538000
H   -9.49454000   -5.18220000   7.23848000
C   -10.77619000   -2.99644000   8.35907000
C   -12.06332000   -3.72849000   8.81144000
C   -12.05841000   -5.19162000   8.29542000
H   -12.03106000   -5.17583000   7.18037000
H   -10.82747000   -5.95445000   9.92465000
H   -9.55134000   -3.76440000   9.99031000
H   -10.74759000   -2.97846000   7.24416000
H   -12.09047000   -3.74437000   9.92647000
C   -10.77826000   -1.53933000   8.88033000
C   -8.24202000   -1.55409000   8.94913000
C   -9.49091000   -0.80465000   8.43178000
C   -12.02502000   -0.78888000   8.35906000
H   -10.81002000   -1.55752000   9.99517000
H   -8.27171000   -1.57556000   10.06400000
H   -11.99101000   -0.77221000   7.24396000
H   -9.45958000   -0.78508000   7.31672000
C   -13.32054000   -1.51616000   8.80510000
C   -13.31935000   -2.97886000   8.29514000
C   -13.34596000   -5.92789000   8.74949000
C   -14.54850000   -0.74490000   8.28323000
C   -14.58849000   -3.72519000   8.74769000
C   -14.58342000   -5.16852000   8.23502000
H   -14.56200000   -0.74380000   7.17107000
H   -13.36221000   -1.52845000   9.91861000
H   -13.29929000   -2.96644000   7.18102000
H   -14.66431000   -3.72663000   9.85727000
H   -14.60449000   -5.16665000   7.12307000
H   -13.38073000   -5.93998000   9.86319000
C   -14.54080000   0.70025000   8.79379000
C   -13.25898000   1.42054000   8.36225000
C   -12.02086000   0.67208000   8.87783000
C   -10.73687000   1.39676000   8.43874000
C   -9.49340000   0.65380000   8.95394000
C   -8.20970000   1.38258000   8.51674000
H   -14.62226000   0.70777000   9.90199000
H   -12.05494000   0.66781000   9.99078000
H   -9.52683000   0.64693000   10.06681000
H   -13.23539000   1.49129000   7.25234000
H   -10.70268000   1.46555000   7.32792000
H   -8.17649000   1.45525000   7.40620000
C   -8.25887000   5.85218000   8.33925000
C   -9.53788000   5.11621000   8.79889000
C   -10.79472000   5.86381000   8.28915000
H   -8.23829000   5.87305000   7.22412000
C   -9.53107000   3.65725000   8.27809000
H   -9.55896000   5.09757000   9.91413000
C   -10.80531000   2.92788000   8.73369000
C   -12.05877000   3.66539000   8.23204000
C   -12.07303000   5.12678000   8.74939000
H   -9.51210000   3.66317000   7.16484000
H   -10.77272000   5.88153000   7.17404000
H   -12.09364000   5.11070000   9.86483000
H   -12.03832000   3.66899000   7.11872000
H   -10.82542000   2.86017000   9.84490000
C   -8.27663000   2.91594000   8.77519000
H   -8.29431000   2.84511000   9.88615000
C   -13.33744000   5.86721000   8.24013000
C   -13.32845000   2.93033000   8.68629000
C   -14.59760000   5.10913000   8.70096000
C   -14.57981000   3.66359000   8.19175000
H   -13.32422000   5.87921000   7.12588000
H   -14.66593000   5.10899000   9.81107000
H   -14.60656000   3.65603000   7.08087000
H   -13.36028000   2.86032000   9.79605000
C   -3.20340000   -5.93683000   8.80968000
C   -0.66489000   -5.94975000   8.86382000
C   -1.92029000   -5.20166000   8.35352000
H   -0.68790000   -5.97079000   9.97885000
H   -0.61253000   -2.98825000   7.30876000
C   -0.63969000   -3.00986000   8.42373000
C   -1.92485000   -3.74490000   8.87538000
H   -1.89554000   -5.18220000   7.23848000
C   -3.17719000   -2.99644000   8.35907000
C   -4.46432000   -3.72849000   8.81144000
C   -4.45941000   -5.19162000   8.29542000
H   -4.43206000   -5.17583000   7.18037000
H   -3.22847000   -5.95445000   9.92465000
H   -1.95234000   -3.76440000   9.99031000
H   -3.14859000   -2.97846000   7.24416000
H   -4.49147000   -3.74437000   9.92647000
C   -3.17926000   -1.53933000   8.88033000
C   -0.64302000   -1.55409000   8.94913000
C   -1.89191000   -0.80465000   8.43178000
C   -4.42602000   -0.78888000   8.35906000
H   -3.21102000   -1.55752000   9.99517000
H   -0.67271000   -1.57556000   10.06400000
H   -1.86058000   -0.78508000   7.31672000
C   -5.72154000   -1.51616000   8.80510000
C   -5.72035000   -2.97886000   8.29514000
C   -5.74696000   -5.92789000   8.74949000
C   -6.94950000   -0.74490000   8.28323000
C   -6.98949000   -3.72519000   8.74769000
C   -6.98442000   -5.16852000   8.23502000
H   -6.96300000   -0.74380000   7.17107000
H   -5.76321000   -1.52845000   9.91861000
H   -5.70029000   -2.96644000   7.18102000
H   -7.06531000   -3.72663000   9.85727000
H   -7.00549000   -5.16665000   7.12307000
H   -5.78173000   -5.93998000   9.86319000
C   -6.94180000   0.70025000   8.79379000
C   -5.65998000   1.42054000   8.36225000
C   -4.42186000   0.67208000   8.87783000
C   -3.13787000   1.39676000   8.43874000
C   -1.89440000   0.65380000   8.95394000
C   -0.61070000   1.38258000   8.51674000
H   -7.02326000   0.70777000   9.90199000
H   -4.45594000   0.66781000   9.99078000
H   -1.92783000   0.64693000   10.06681000
H   -5.63639000   1.49129000   7.25234000
H   -3.10368000   1.46555000   7.32792000
H   -0.57749000   1.45525000   7.40620000
C   -0.65987000   5.85218000   8.33925000
C   -1.93888000   5.11621000   8.79889000
C   -3.19572000   5.86381000   8.28915000
H   -0.63929000   5.87305000   7.22412000
C   -1.93207000   3.65725000   8.27809000
H   -1.95996000   5.09757000   9.91413000
C   -3.20631000   2.92788000   8.73369000
C   -4.45977000   3.66539000   8.23204000
C   -4.47403000   5.12678000   8.74939000
H   -1.91310000   3.66317000   7.16484000
H   -3.17372000   5.88153000   7.17404000
H   -4.49464000   5.11070000   9.86483000
H   -4.43932000   3.66899000   7.11872000
H   -3.22642000   2.86017000   9.84490000
C   -0.67763000   2.91594000   8.77519000
H   -0.69531000   2.84511000   9.88615000
C   -5.73844000   5.86721000   8.24013000
C   -5.72945000   2.93033000   8.68629000
C   -6.99860000   5.10913000   8.70096000
C   -6.98081000   3.66359000   8.19175000
H   -5.72522000   5.87921000   7.12588000
H   -7.06693000   5.10899000   9.81107000
H   -7.00756000   3.65603000   7.08087000
H   -5.76128000   2.86032000   9.79605000
C   4.39560000   -5.93683000   8.80968000
C   6.93411000   -5.94975000   8.86382000
C   5.67871000   -5.20166000   8.35352000
H   6.91110000   -5.97079000   9.97885000
H   6.98647000   -2.98825000   7.30876000
C   6.95931000   -3.00986000   8.42373000
C   5.67415000   -3.74490000   8.87538000
H   5.70346000   -5.18220000   7.23848000
C   4.42181000   -2.99644000   8.35907000
C   3.13468000   -3.72849000   8.81144000
C   3.13959000   -5.19162000   8.29542000
H   3.16694000   -5.17583000   7.18037000
H   4.37053000   -5.95445000   9.92465000
H   5.64666000   -3.76440000   9.99031000
H   4.45041000   -2.97846000   7.24416000
H   3.10753000   -3.74437000   9.92647000
C   4.41974000   -1.53933000   8.88033000
C   6.95598000   -1.55409000   8.94913000
C   5.70709000   -0.80465000   8.43178000
C   3.17298000   -0.78888000   8.35906000
H   4.38798000   -1.55752000   9.99517000
H   6.92629000   -1.57556000   10.06400000
H   3.20699000   -0.77221000   7.24396000
C   1.87746000   -1.51616000   8.80510000
C   1.87865000   -2.97886000   8.29514000
C   1.85204000   -5.92789000   8.74949000
C   0.64950000   -0.74490000   8.28323000
C   0.60951000   -3.72519000   8.74769000
C   0.61458000   -5.16852000   8.23502000
H   0.63600000   -0.74380000   7.17107000
H   1.83579000   -1.52845000   9.91861000
H   1.89871000   -2.96644000   7.18102000
H   0.53369000   -3.72663000   9.85727000
H   0.59351000   -5.16665000   7.12307000
H   1.81727000   -5.93998000   9.86319000
C   0.65720000   0.70025000   8.79379000
C   1.93902000   1.42054000   8.36225000
C   3.17714000   0.67208000   8.87783000
C   4.46113000   1.39676000   8.43874000
C   5.70460000   0.65380000   8.95394000
C   6.98830000   1.38258000   8.51674000
H   0.57574000   0.70777000   9.90199000
H   3.14306000   0.66781000   9.99078000
H   5.67117000   0.64693000   10.06681000
H   1.96261000   1.49129000   7.25234000
H   4.49532000   1.46555000   7.32792000
H   7.02151000   1.45525000   7.40620000
C   6.93913000   5.85218000   8.33925000
C   5.66012000   5.11621000   8.79889000
C   4.40328000   5.86381000   8.28915000
H   6.95971000   5.87305000   7.22412000
C   5.66693000   3.65725000   8.27809000
H   5.63904000   5.09757000   9.91413000
C   4.39269000   2.92788000   8.73369000
C   3.13923000   3.66539000   8.23204000
C   3.12497000   5.12678000   8.74939000
H   5.68590000   3.66317000   7.16484000
H   4.42528000   5.88153000   7.17404000
H   3.10436000   5.11070000   9.86483000
H   3.15968000   3.66899000   7.11872000
H   4.37258000   2.86017000   9.84490000
C   6.92137000   2.91594000   8.77519000
H   6.90369000   2.84511000   9.88615000
C   1.86056000   5.86721000   8.24013000
C   1.86955000   2.93033000   8.68629000
C   0.60040000   5.10913000   8.70096000
C   0.61819000   3.66359000   8.19175000
H   1.87378000   5.87921000   7.12588000
H   0.53207000   5.10899000   9.81107000
H   0.59144000   3.65603000   7.08087000
H   1.83772000   2.86032000   9.79605000
C   11.99460000   -5.93683000   8.80968000
C   14.53311000   -5.94975000   8.86382000
C   13.27771000   -5.20166000   8.35352000
H   14.51010000   -5.97079000   9.97885000
H   14.58547000   -2.98825000   7.30876000
C   14.55831000   -3.00986000   8.42373000
C   13.27315000   -3.74490000   8.87538000
H   13.30246000   -5.18220000   7.23848000
C   12.02081000   -2.99644000   8.35907000
C   10.73368000   -3.72849000   8.81144000
C   10.73859000   -5.19162000   8.29542000
H   10.76594000   -5.17583000   7.18037000
H   11.96953000   -5.95445000   9.92465000
H   13.24566000   -3.76440000   9.99031000
H   12.04941000   -2.97846000   7.24416000
H   10.70653000   -3.74437000   9.92647000
C   12.01874000   -1.53933000   8.88033000
C   14.55498000   -1.55409000   8.94913000
C   13.30609000   -0.80465000   8.43178000
C   10.77198000   -0.78888000   8.35906000
H   11.98698000   -1.55752000   9.99517000
H   14.52529000   -1.57556000   10.06400000
H   10.80599000   -0.77221000   7.24396000
H   13.33742000   -0.78508000   7.31672000
C   9.47646000   -1.51616000   8.80510000
C   9.47765000   -2.97886000   8.29514000
C   9.45104000   -5.92789000   8.74949000
C   8.24850000   -0.74490000   8.28323000
C   8.20851000   -3.72519000   8.74769000
C   8.21358000   -5.16852000   8.23502000
H   8.23500000   -0.74380000   7.17107000
H   9.43479000   -1.52845000   9.91861000
H   9.49771000   -2.96644000   7.18102000
H   8.13269000   -3.72663000   9.85727000
H   8.19251000   -5.16665000   7.12307000
H   9.41627000   -5.93998000   9.86319000
C   8.25620000   0.70025000   8.79379000
C   9.53802000   1.42054000   8.36225000
C   10.77614000   0.67208000   8.87783000
C   12.06013000   1.39676000   8.43874000
C   13.30360000   0.65380000   8.95394000
C   14.58730000   1.38258000   8.51674000
H   8.17474000   0.70777000   9.90199000
H   10.74206000   0.66781000   9.99078000
H   13.27017000   0.64693000   10.06681000
H   9.56161000   1.49129000   7.25234000
H   12.09432000   1.46555000   7.32792000
H   14.62051000   1.45525000   7.40620000
C   14.53813000   5.85218000   8.33925000
C   13.25912000   5.11621000   8.79889000
C   12.00228000   5.86381000   8.28915000
H   14.55871000   5.87305000   7.22412000
C   13.26593000   3.65725000   8.27809000
H   13.23804000   5.09757000   9.91413000
C   11.99169000   2.92788000   8.73369000
C   10.73823000   3.66539000   8.23204000
C   10.72397000   5.12678000   8.74939000
H   13.28490000   3.66317000   7.16484000
H   12.02428000   5.88153000   7.17404000
H   10.70336000   5.11070000   9.86483000
H   10.75868000   3.66899000   7.11872000
H   11.97158000   2.86017000   9.84490000
C   14.52037000   2.91594000   8.77519000
H   14.50269000   2.84511000   9.88615000
C   9.45956000   5.86721000   8.24013000
C   9.46855000   2.93033000   8.68629000
C   8.19940000   5.10913000   8.70096000
C   8.21719000   3.66359000   8.19175000
H   9.47278000   5.87921000   7.12588000
H   8.13107000   5.10899000   9.81107000
H   8.19044000   3.65603000   7.08087000
H   9.43672000   2.86032000   9.79605000
N   -4.69250974   -0.20678704   4.30202986
C   -4.85598100   0.06425250   5.75436611
H   -4.38067689   1.00355819   5.93120097
H   -5.97381240   0.20993344   5.84635849
C   -4.31269985   -1.04210369   6.74408987
H   -4.81956123   -1.91662678   6.40189901
H   -3.32176102   -1.17625637   6.34072115
C   -5.47652121   -1.37025833   3.82755933
H   -5.50123263   -1.54719383   2.71368662
H   -5.18756340   -2.33674055   4.26093045
H   -6.54833309   -1.19605968   4.16498263
C   -3.25827247   -0.29928125   3.83742981
H   -2.70140734   0.54480568   4.23779870
H   -2.94876876   -1.25104532   4.23369860
H   -3.16673530   -0.23743517   2.75208105
C   -5.21476185   1.05052374   3.62663319
H   -5.09963538   0.93022764   2.54953964
H   -6.24120469   1.12637850   3.93348043
H   -4.78109099   2.04032336   4.04619606
N   4.25674758   -1.74905132   -0.00538888
C   5.32028492   -1.32647273   1.07821302
H   5.34876020   -2.17321289   1.79383860
H   6.18026769   -1.21780349   0.50218819
C   5.01930179   0.01878484   1.86656055
H   5.12208110   0.83874740   1.19614012
H   3.91070652   -0.10931935   1.96225642
C   5.65981482   -0.94497396   6.80903188
H   4.73354052   -1.38281696   6.51182143
H   6.41402353   -1.70794305   6.56328049
C   5.95034251   0.09997256   5.65910418
H   5.55255116   1.09834698   5.58140766
H   6.98352514   0.21747845   5.67987411
C   5.57591750   -0.63568263   4.28631823
H   4.50341924   -0.82149049   4.19996942
H   6.06910156   -1.62036222   4.12183212
C   5.93698667   0.26904404   3.17409302
H   5.68789674   1.26550683   3.42400654
H   7.00549702   0.20780482   2.89243208
C   2.74396788   -1.87956838   0.57711628
H   2.50404691   -0.94252619   1.02461835
H   2.54600182   -2.69978900   1.18613441
H   2.14742168   -1.99216645   -0.34523005
C   4.71439995   -3.15622859   -0.57701149
H   5.80989966   -3.02428798   -0.82675740
H   4.23354998   -3.42421957   -1.57862338
H   4.49793894   -3.92588551   0.16807145
C   4.19231569   -0.68788240   -1.13787470
H   3.85730938   0.27849053   -0.77851383
H   3.44988938   -1.06119600   -1.85406903
H   5.15880701   -0.62925454   -1.62789891
O   -5.77212555   1.00222621   0.20114808
H   -5.49050609   0.17243585   -0.17304207
H   -6.09575002   1.63043184   -0.44669399
O   8.65949907   -4.32594092   -0.19178577
H   8.46288608   -3.36868698   -0.09184565
H   9.06672741   -4.48053581   -1.03371493
O   -8.37547447   -3.22680822   4.42395432
H   -8.95327931   -3.81526324   3.89914997
H   -7.71867937   -3.66545298   4.92616273
O   8.01846762   0.36379259   -0.11373483
H   8.36282365   0.37351699   0.81355434
H   8.32110502   1.22774448   -0.45596426
O   10.63855768   4.70110955   4.68080079
H   9.91454511   4.51007900   5.37763483
H   11.45253592   4.94735616   5.05759767
O   5.78159325   -3.65973686   3.25583469
H   5.15676446   -4.20572170   2.79058238
H   6.42708088   -4.23929801   3.63870687
O   -9.45484119   -5.78256806   2.79561874
H   -8.65322744   -6.12792599   3.27733097
H   -9.30847849   -5.99203417   1.87101905
O   3.14901238   2.09163538   -0.97934417
H   2.42596491   2.32762275   -0.38787334
H   2.80639044   1.99184296   -1.83125277
O   -0.03473849   3.98329448   3.58115198
H   0.50372233   4.55174663   2.99967885
H   -0.86584265   4.37411391   3.74843361
O   -2.46312473   4.54606196   -1.64649473
H   -11.62404791   1.30480759   -4.62008256
H   -2.36724531   5.50873817   -1.36016200
O   0.45586195   5.85516280   -0.68820616
H   -1.55311135   4.21314608   -1.58517999
H   -0.02152142   6.62199651   -1.00178333
O   -11.46839651   2.00987425   -4.02702881
H   -11.78748827   2.84913818   -4.29623961
H   -3.63001589   0.43374587   -1.13980699
O   14.61649837   -1.63363707   -2.59378044
H   14.80961859   -2.42984268   -2.15484099
H   13.87957970   -1.85142811   -3.15902715
O   12.94398068   -5.90509638   -3.99542015
H   13.56362403   -5.39962736   -4.56619340
H   13.50176087   -6.64212657   -3.69708986
O   -14.48263770   -6.53800165   -4.32325043
H   -14.49413682   -6.65428501   -3.39224951
H   -13.56350225   6.58046784   -4.52148852
O   -12.36231099   -1.22942979   5.09007072
H   -11.65612407   -1.89227589   5.12989106
H   -13.21477200   -1.58582242   5.20225883
O   -5.88130063   -3.47596932   1.32876627
H   -6.45824150   -4.11104448   0.87656614
H   -5.14734983   -4.00864392   1.82241937
O   -0.11999193   1.65900919   -3.66855375
H   -0.84216682   1.31908259   -4.19448905
H   -0.54658233   1.91412210   -2.78392256
O   10.98611955   -4.76400601   3.88683398
H   10.89793492   -5.47005180   4.50519639
H   11.91221174   -4.80378552   3.67211510
O   -9.62024783   0.00461145   0.61738814
H   -9.24988852   -0.82342796   0.35405608
H   -9.83165581   -0.12322842   1.51985173
O   8.45436729   2.88011308   -1.74621359
H   8.20910568   3.80432675   -1.47433217
H   8.07472965   2.71130702   -2.64177926
O   -5.57320290   -1.76285577   -3.98424355
H   -5.77568848   -1.11587421   -3.26127479
H   -5.80162474   -1.34089028   -4.80453209
O   -11.73073565   -6.68008735   1.35961997
H   -11.39874859   6.09238054   0.74214384
H   -11.06411257   -6.33232685   1.94993762
O   -1.77383058   -5.49843869   1.27535804
H   0.12331493   5.51618291   0.15722761
H   -1.33891617   -6.00939973   2.00821475
O   -1.81318996   -6.35997562   4.56576309
H   -1.54865403   -5.54400705   4.18625794
H   -2.62710391   -6.24778146   5.12687297
O   0.24366384   -2.38723977   3.61249112
H   0.36518051   -2.33718356   2.67407796
H   7.74166952   -2.68772110   2.81014408
O   -2.64525805   -3.37800482   4.30273338
H   -3.17815835   -3.49266500   5.13546476
H   -3.23034356   -3.97524862   3.60797596
O   -2.68935020   1.35640541   -4.59736484
H   -3.40787794   1.58099504   -4.06202770
H   -0.68250326   -2.73691010   3.68578702
O   7.96656133   -2.24254043   -1.95875951
H   8.17448182   -1.32382925   -2.25779193
H   8.69250747   -2.81409616   -2.11535239
O   1.64027688   -3.33127062   -3.41424981
H   1.25567828   -4.10025202   -2.99540694
H   2.44982114   -3.50993177   -3.86537292
O   -8.60071462   0.71604041   -1.88416660
H   -8.54961100   0.51531372   -0.96424367
H   -9.14635938   1.54977018   -1.94708727
O   -10.94223788   1.96514955   -1.08938481
H   -11.43433664   1.57325339   -1.84092564
H   -10.56376997   1.18740643   -0.62460068
O   1.58137148   3.19952661   1.56616350
H   0.65435759   3.09710501   1.30714704
H   1.69484778   3.00500365   2.51604202
O   3.55142647   6.64885736   4.76196061
H   3.55967866   -6.28824291   3.93218728
H   3.94812237   -6.06321453   5.31204421
O   -3.93349119   5.23407670   -4.17390993
H   -3.12831361   5.21048804   -3.66263425
H   -3.91040293   4.40096851   -4.67861045
O   -5.14250698   3.08840707   -2.02981684
H   -4.41136055   3.46763760   -1.56386659
H   -5.60314509   3.75735195   -2.56359526
O   -1.13113121   2.33812936   1.22903957
H   -1.50774283   2.81172154   1.97108463
H   -1.86036189   1.91622587   0.83344062
O   0.37286766   -0.07499600   1.88718147
H   -0.10899230   0.42917858   2.56816267
H   -0.05070853   0.17982896   1.04311585
O   5.36975749   -6.63903429   2.24042303
H   6.14383003   -6.33511272   1.76299262
H   4.61610024   -6.45782559   1.70569967
O   -2.60649056   -2.48533519   1.43439759
H   -3.20208451   -3.23553961   1.62022398
H   -1.85816852   -2.63789781   2.05000617
O   2.41469315   -5.79451576   -4.58275925
H   3.23722928   -5.50607310   -4.98470625
H   2.57883581   -6.65482984   -4.20376890
O   10.86443117   -5.90353541   0.69871646
H   -2.68919014   0.36431287   -4.65089888
H   11.31400239   -5.86067946   1.55945375
O   3.13967119   -4.77041336   2.70817410
H   2.61418294   -5.20655793   1.96683855
H   2.57677355   -3.98220331   2.98363417
O   15.09817640   5.73208417   -1.53299376
H   -14.53747057   5.21257158   -1.59170205
H   15.07474422   6.06946294   -0.65818743
O   -10.21485609   4.95492271   -1.15185000
H   -10.17711705   4.01298201   -1.12497217
H   -9.79195978   5.32445543   -0.36621054
O   -1.77069783   5.13317892   1.38199157
H   -2.43903007   4.43225534   1.20191299
H   -2.24823585   5.92471397   1.21596443
O   1.53503307   -0.46942729   -2.51691861
H   1.13261774   -1.16802423   -3.07059773
H   1.17058476   0.34954226   -2.79579949
O   -3.49348133   3.45300238   2.55422592
H   -3.82278382   3.97532925   3.36253421
H   -4.14273690   3.77192888   1.91538680
O   -3.98810874   -4.62342033   2.64509366
H   -4.14217020   -5.53411316   2.86107420
H   -2.65971872   -5.17438376   1.74675895
O   9.89980266   3.52845763   -4.85232434
H   9.51386848   4.33757502   -4.49165076
H   10.53293630   3.75403086   -5.50922568
O   -8.20313604   -2.37481340   0.83424220
H   -7.66793697   -2.50374925   0.01081762
H   -7.64821957   -2.49388797   1.60102211
O   -2.60509877   -1.36830669   -3.56051517
H   -2.51473832   -2.29436926   -3.74341311
H   -3.52670623   -1.27820267   -3.30651450
O   -6.41293188   0.81978505   -3.79325961
H   -5.71593055   1.21288319   -3.26398192
H   -7.19490140   1.17780800   -3.35764959
O   0.42719477   -3.90520607   0.73125721
H   0.90587806   -4.41395787   -0.00504737
H   -0.51444299   -4.18736958   0.80868687
O   -7.44483073   -5.84436134   0.74467888
H   10.29299076   -5.12006623   0.63403336
H   -7.34523712   -6.34586357   1.62931542
O   8.17478988   1.13729903   -5.04030793
H   8.68471701   0.45580126   -5.51936990
H   8.72891047   1.93266069   -5.16230750
O   6.94724337   -6.39377103   4.69710393
H   7.39973078   6.23313275   4.40247403
H   6.05300960   -6.65744370   4.97565649
O   -6.88751185   6.51834733   3.34366052
H   -7.44189075   -6.57786304   0.13109529
H   -6.20206130   -6.16123444   3.46134880
O   -12.03136326   -4.17693796   3.64029722
H   -12.92800893   -3.91083655   3.48535293
H   -11.85375471   -5.03784049   3.32839726
O   3.99714160   4.96905775   -0.99161210
H   3.97970433   4.09347148   -1.49441888
H   3.97776508   4.73097347   -0.03631201
O   -5.20614945   -1.54968061   -0.46359072
H   -5.44182741   -2.33783196   0.12109111
H   -4.22481619   -1.62048837   -0.67664689
O   8.70074443   -2.48026155   2.77982227
H   -13.44912521   6.13059346   1.67455900
H   9.11854368   -3.12828186   3.31159910
O   13.61139179   5.27147458   3.71848422
H   13.99779354   4.40524499   3.64171879
H   14.25351273   5.94066272   3.44629832
O   -11.81180559   4.37389619   4.17780135
H   -11.06132745   4.69823064   4.70807449
H   -11.50294627   4.14421336   3.30475624
O   -5.43721491   4.60062125   4.58831298
H   -5.90124173   4.56821098   5.42559913
H   -6.03482705   5.26574492   4.05438269
O   -1.18092381   -5.26742561   -1.32457350
H   -1.68674150   -5.70185248   -0.63133869
H   -1.40047950   -4.37492966   -1.43628027
O   -9.19553595   5.46258985   4.86354584
H   -8.24940718   5.57512545   4.60392389
H   -9.66028497   6.23082175   4.61828272
O   9.98101967   -4.21254955   -2.86303823
H   9.81643733   -5.11706400   -3.24137548
H   10.64163614   -4.28368132   -2.14959484
O   9.89858316   6.43908967   -4.30748037
H   10.24680484   -6.44700753   -5.05656642
H   10.62067694   6.40630418   -3.62917002
O   -12.13205332   5.20838325   -3.54993941
H   -11.23561827   4.86740315   -3.83032503
H   -12.04103583   5.52489871   -2.69192436
O   2.50916143   -5.62503648   -0.65400562
H   1.86222482   -6.39169397   -0.77134406
H   3.27488930   -6.05942244   -0.23912654
O   11.27657119   6.35596101   -1.84578145
H   11.71104900   5.57166687   -1.59290964
H   11.44596659   -6.38933439   -1.13572388
O   15.11952757   -4.53895317   -2.49337854
H   15.14777068   -4.57313686   -3.46090169
H   -14.98839147   -5.35601697   -2.08850934
O   -5.23432933   5.43061745   1.66092002
H   -5.92705606   5.66843597   2.30944893
H   -4.60632433   6.17216940   1.72434421
O   -2.74880374   0.62210252   -0.84529173
H   -2.20545618   0.14376266   -1.47059863
O   -14.40421104   6.02460596   1.60813232
H   -14.86453253   -6.54859026   1.31112187
