850

C   -10.80240000   -5.93683000   -8.69032000
C   -8.26389000   -5.94975000   -8.63618000
C   -9.51929000   -5.20166000   -9.14648000
H   -8.28690000   -5.97079000   -7.52115000
H   -8.21153000   -2.98825000   -10.19124000
C   -8.23869000   -3.00986000   -9.07627000
C   -9.52385000   -3.74490000   -8.62462000
H   -9.49454000   -5.18220000   -10.26152000
C   -10.77619000   -2.99644000   -9.14093000
C   -12.06332000   -3.72849000   -8.68856000
C   -12.05841000   -5.19162000   -9.20458000
H   -12.03106000   -5.17583000   -10.31963000
H   -10.82747000   -5.95445000   -7.57535000
H   -9.55134000   -3.76440000   -7.50969000
H   -10.74759000   -2.97846000   -10.25584000
H   -12.09047000   -3.74437000   -7.57353000
C   -10.77826000   -1.53933000   -8.61967000
C   -8.24202000   -1.55409000   -8.55087000
C   -9.49091000   -0.80465000   -9.06822000
C   -12.02502000   -0.78888000   -9.14094000
H   -10.81002000   -1.55752000   -7.50483000
H   -8.27171000   -1.57556000   -7.43600000
H   -11.99101000   -0.77221000   -10.25604000
H   -9.45958000   -0.78508000   -10.18328000
C   -13.32054000   -1.51616000   -8.69490000
C   -13.31935000   -2.97886000   -9.20486000
C   -13.34596000   -5.92789000   -8.75051000
C   -14.54850000   -0.74490000   -9.21677000
C   -14.58849000   -3.72519000   -8.75231000
C   -14.58342000   -5.16852000   -9.26498000
H   -14.56200000   -0.74380000   -10.32893000
H   -13.36221000   -1.52845000   -7.58139000
H   -13.29929000   -2.96644000   -10.31898000
H   -14.66431000   -3.72663000   -7.64273000
H   -14.60449000   -5.16665000   -10.37693000
H   -13.38073000   -5.93998000   -7.63681000
C   -14.54080000   0.70025000   -8.70621000
C   -13.25898000   1.42054000   -9.13775000
C   -12.02086000   0.67208000   -8.62217000
C   -10.73687000   1.39676000   -9.06126000
C   -9.49340000   0.65380000   -8.54606000
C   -8.20970000   1.38258000   -8.98326000
H   -14.62226000   0.70777000   -7.59801000
H   -12.05494000   0.66781000   -7.50922000
H   -9.52683000   0.64693000   -7.43319000
H   -13.23539000   1.49129000   -10.24766000
H   -10.70268000   1.46555000   -10.17208000
H   -8.17649000   1.45525000   -10.09380000
C   -8.25887000   5.85218000   -9.16075000
C   -9.53788000   5.11621000   -8.70111000
C   -10.79472000   5.86381000   -9.21085000
H   -8.23829000   5.87305000   -10.27588000
C   -9.53107000   3.65725000   -9.22191000
H   -9.55896000   5.09757000   -7.58587000
C   -10.80531000   2.92788000   -8.76631000
C   -12.05877000   3.66539000   -9.26796000
C   -12.07303000   5.12678000   -8.75061000
H   -9.51210000   3.66317000   -10.33516000
H   -10.77272000   5.88153000   -10.32596000
H   -12.09364000   5.11070000   -7.63517000
H   -12.03832000   3.66899000   -10.38128000
H   -10.82542000   2.86017000   -7.65510000
C   -8.27663000   2.91594000   -8.72481000
H   -8.29431000   2.84511000   -7.61385000
C   -13.33744000   5.86721000   -9.25987000
C   -13.32845000   2.93033000   -8.81371000
C   -14.59760000   5.10913000   -8.79904000
C   -14.57981000   3.66359000   -9.30825000
H   -13.32422000   5.87921000   -10.37412000
H   -14.66593000   5.10899000   -7.68893000
H   -14.60656000   3.65603000   -10.41913000
H   -13.36028000   2.86032000   -7.70395000
C   -3.20340000   -5.93683000   -8.69032000
C   -0.66489000   -5.94975000   -8.63618000
C   -1.92029000   -5.20166000   -9.14648000
H   -0.68790000   -5.97079000   -7.52115000
H   -0.61253000   -2.98825000   -10.19124000
C   -0.63969000   -3.00986000   -9.07627000
C   -1.92485000   -3.74490000   -8.62462000
H   -1.89554000   -5.18220000   -10.26152000
C   -3.17719000   -2.99644000   -9.14093000
C   -4.46432000   -3.72849000   -8.68856000
C   -4.45941000   -5.19162000   -9.20458000
H   -4.43206000   -5.17583000   -10.31963000
H   -3.22847000   -5.95445000   -7.57535000
H   -1.95234000   -3.76440000   -7.50969000
H   -3.14859000   -2.97846000   -10.25584000
H   -4.49147000   -3.74437000   -7.57353000
C   -3.17926000   -1.53933000   -8.61967000
C   -0.64302000   -1.55409000   -8.55087000
C   -1.89191000   -0.80465000   -9.06822000
C   -4.42602000   -0.78888000   -9.14094000
H   -3.21102000   -1.55752000   -7.50483000
H   -0.67271000   -1.57556000   -7.43600000
H   -4.39201000   -0.77221000   -10.25604000
H   -1.86058000   -0.78508000   -10.18328000
C   -5.72154000   -1.51616000   -8.69490000
C   -5.72035000   -2.97886000   -9.20486000
C   -5.74696000   -5.92789000   -8.75051000
C   -6.94950000   -0.74490000   -9.21677000
C   -6.98949000   -3.72519000   -8.75231000
C   -6.98442000   -5.16852000   -9.26498000
H   -6.96300000   -0.74380000   -10.32893000
H   -5.76321000   -1.52845000   -7.58139000
H   -5.70029000   -2.96644000   -10.31898000
H   -7.06531000   -3.72663000   -7.64273000
H   -7.00549000   -5.16665000   -10.37693000
H   -5.78173000   -5.93998000   -7.63681000
C   -6.94180000   0.70025000   -8.70621000
C   -5.65998000   1.42054000   -9.13775000
C   -4.42186000   0.67208000   -8.62217000
C   -3.13787000   1.39676000   -9.06126000
C   -1.89440000   0.65380000   -8.54606000
C   -0.61070000   1.38258000   -8.98326000
H   -7.02326000   0.70777000   -7.59801000
H   -4.45594000   0.66781000   -7.50922000
H   -1.92783000   0.64693000   -7.43319000
H   -5.63639000   1.49129000   -10.24766000
H   -3.10368000   1.46555000   -10.17208000
H   -0.57749000   1.45525000   -10.09380000
C   -0.65987000   5.85218000   -9.16075000
C   -1.93888000   5.11621000   -8.70111000
C   -3.19572000   5.86381000   -9.21085000
H   -0.63929000   5.87305000   -10.27588000
C   -1.93207000   3.65725000   -9.22191000
H   -1.95996000   5.09757000   -7.58587000
C   -3.20631000   2.92788000   -8.76631000
C   -4.45977000   3.66539000   -9.26796000
C   -4.47403000   5.12678000   -8.75061000
H   -1.91310000   3.66317000   -10.33516000
H   -3.17372000   5.88153000   -10.32596000
H   -4.49464000   5.11070000   -7.63517000
H   -4.43932000   3.66899000   -10.38128000
H   -3.22642000   2.86017000   -7.65510000
C   -0.67763000   2.91594000   -8.72481000
H   -0.69531000   2.84511000   -7.61385000
C   -5.73844000   5.86721000   -9.25987000
C   -5.72945000   2.93033000   -8.81371000
C   -6.99860000   5.10913000   -8.79904000
C   -6.98081000   3.66359000   -9.30825000
H   -5.72522000   5.87921000   -10.37412000
H   -7.06693000   5.10899000   -7.68893000
H   -7.00756000   3.65603000   -10.41913000
H   -5.76128000   2.86032000   -7.70395000
C   4.39560000   -5.93683000   -8.69032000
C   6.93411000   -5.94975000   -8.63618000
C   5.67871000   -5.20166000   -9.14648000
H   6.91110000   -5.97079000   -7.52115000
H   6.98647000   -2.98825000   -10.19124000
C   6.95931000   -3.00986000   -9.07627000
C   5.67415000   -3.74490000   -8.62462000
H   5.70346000   -5.18220000   -10.26152000
C   4.42181000   -2.99644000   -9.14093000
C   3.13468000   -3.72849000   -8.68856000
C   3.13959000   -5.19162000   -9.20458000
H   3.16694000   -5.17583000   -10.31963000
H   4.37053000   -5.95445000   -7.57535000
H   5.64666000   -3.76440000   -7.50969000
H   4.45041000   -2.97846000   -10.25584000
H   3.10753000   -3.74437000   -7.57353000
C   4.41974000   -1.53933000   -8.61967000
C   6.95598000   -1.55409000   -8.55087000
C   5.70709000   -0.80465000   -9.06822000
C   3.17298000   -0.78888000   -9.14094000
H   4.38798000   -1.55752000   -7.50483000
H   6.92629000   -1.57556000   -7.43600000
H   3.20699000   -0.77221000   -10.25604000
H   5.73842000   -0.78508000   -10.18328000
C   1.87746000   -1.51616000   -8.69490000
C   1.87865000   -2.97886000   -9.20486000
C   1.85204000   -5.92789000   -8.75051000
C   0.64950000   -0.74490000   -9.21677000
C   0.60951000   -3.72519000   -8.75231000
C   0.61458000   -5.16852000   -9.26498000
H   0.63600000   -0.74380000   -10.32893000
H   1.83579000   -1.52845000   -7.58139000
H   1.89871000   -2.96644000   -10.31898000
H   0.53369000   -3.72663000   -7.64273000
H   0.59351000   -5.16665000   -10.37693000
H   1.81727000   -5.93998000   -7.63681000
C   0.65720000   0.70025000   -8.70621000
C   1.93902000   1.42054000   -9.13775000
C   3.17714000   0.67208000   -8.62217000
C   4.46113000   1.39676000   -9.06126000
C   5.70460000   0.65380000   -8.54606000
C   6.98830000   1.38258000   -8.98326000
H   0.57574000   0.70777000   -7.59801000
H   3.14306000   0.66781000   -7.50922000
H   5.67117000   0.64693000   -7.43319000
H   1.96261000   1.49129000   -10.24766000
H   4.49532000   1.46555000   -10.17208000
H   7.02151000   1.45525000   -10.09380000
C   6.93913000   5.85218000   -9.16075000
C   5.66012000   5.11621000   -8.70111000
C   4.40328000   5.86381000   -9.21085000
H   6.95971000   5.87305000   -10.27588000
C   5.66693000   3.65725000   -9.22191000
H   5.63904000   5.09757000   -7.58587000
C   4.39269000   2.92788000   -8.76631000
C   3.13923000   3.66539000   -9.26796000
C   3.12497000   5.12678000   -8.75061000
H   5.68590000   3.66317000   -10.33516000
H   4.42528000   5.88153000   -10.32596000
H   3.10436000   5.11070000   -7.63517000
H   3.15968000   3.66899000   -10.38128000
H   4.37258000   2.86017000   -7.65510000
C   6.92137000   2.91594000   -8.72481000
H   6.90369000   2.84511000   -7.61385000
C   1.86056000   5.86721000   -9.25987000
C   1.86955000   2.93033000   -8.81371000
C   0.60040000   5.10913000   -8.79904000
C   0.61819000   3.66359000   -9.30825000
H   1.87378000   5.87921000   -10.37412000
H   0.53207000   5.10899000   -7.68893000
H   0.59144000   3.65603000   -10.41913000
H   1.83772000   2.86032000   -7.70395000
C   11.99460000   -5.93683000   -8.69032000
C   14.53311000   -5.94975000   -8.63618000
C   13.27771000   -5.20166000   -9.14648000
H   14.51010000   -5.97079000   -7.52115000
H   14.58547000   -2.98825000   -10.19124000
C   14.55831000   -3.00986000   -9.07627000
C   13.27315000   -3.74490000   -8.62462000
H   13.30246000   -5.18220000   -10.26152000
C   12.02081000   -2.99644000   -9.14093000
C   10.73368000   -3.72849000   -8.68856000
C   10.73859000   -5.19162000   -9.20458000
H   10.76594000   -5.17583000   -10.31963000
H   11.96953000   -5.95445000   -7.57535000
H   13.24566000   -3.76440000   -7.50969000
H   12.04941000   -2.97846000   -10.25584000
H   10.70653000   -3.74437000   -7.57353000
C   12.01874000   -1.53933000   -8.61967000
C   14.55498000   -1.55409000   -8.55087000
C   13.30609000   -0.80465000   -9.06822000
C   10.77198000   -0.78888000   -9.14094000
H   11.98698000   -1.55752000   -7.50483000
H   14.52529000   -1.57556000   -7.43600000
H   10.80599000   -0.77221000   -10.25604000
H   13.33742000   -0.78508000   -10.18328000
C   9.47646000   -1.51616000   -8.69490000
C   9.47765000   -2.97886000   -9.20486000
C   9.45104000   -5.92789000   -8.75051000
C   8.24850000   -0.74490000   -9.21677000
C   8.20851000   -3.72519000   -8.75231000
C   8.21358000   -5.16852000   -9.26498000
H   8.23500000   -0.74380000   -10.32893000
H   9.43479000   -1.52845000   -7.58139000
H   9.49771000   -2.96644000   -10.31898000
H   8.13269000   -3.72663000   -7.64273000
H   8.19251000   -5.16665000   -10.37693000
H   9.41627000   -5.93998000   -7.63681000
C   8.25620000   0.70025000   -8.70621000
C   9.53802000   1.42054000   -9.13775000
C   10.77614000   0.67208000   -8.62217000
C   12.06013000   1.39676000   -9.06126000
C   13.30360000   0.65380000   -8.54606000
C   14.58730000   1.38258000   -8.98326000
H   8.17474000   0.70777000   -7.59801000
H   10.74206000   0.66781000   -7.50922000
H   13.27017000   0.64693000   -7.43319000
H   9.56161000   1.49129000   -10.24766000
H   12.09432000   1.46555000   -10.17208000
H   14.62051000   1.45525000   -10.09380000
C   14.53813000   5.85218000   -9.16075000
C   13.25912000   5.11621000   -8.70111000
C   12.00228000   5.86381000   -9.21085000
H   14.55871000   5.87305000   -10.27588000
C   13.26593000   3.65725000   -9.22191000
H   13.23804000   5.09757000   -7.58587000
C   11.99169000   2.92788000   -8.76631000
C   10.73823000   3.66539000   -9.26796000
C   10.72397000   5.12678000   -8.75061000
H   13.28490000   3.66317000   -10.33516000
H   12.02428000   5.88153000   -10.32596000
H   10.70336000   5.11070000   -7.63517000
H   10.75868000   3.66899000   -10.38128000
H   11.97158000   2.86017000   -7.65510000
C   14.52037000   2.91594000   -8.72481000
H   14.50269000   2.84511000   -7.61385000
C   9.45956000   5.86721000   -9.25987000
C   9.46855000   2.93033000   -8.81371000
C   8.19940000   5.10913000   -8.79904000
C   8.21719000   3.66359000   -9.30825000
H   9.47278000   5.87921000   -10.37412000
H   8.13107000   5.10899000   -7.68893000
H   8.19044000   3.65603000   -10.41913000
H   9.43672000   2.86032000   -7.70395000
C   -10.80240000   -5.93683000   8.80968000
C   -8.26389000   -5.94975000   8.86382000
C   -9.51929000   -5.20166000   8.35352000
H   -8.28690000   -5.97079000   9.97885000
H   -8.21153000   -2.98825000   7.30876000
C   -8.23869000   -3.00986000   8.42373000
C   -9.52385000   -3.74490000   8.87538000
H   -9.49454000   -5.18220000   7.23848000
C   -10.77619000   -2.99644000   8.35907000
C   -12.06332000   -3.72849000   8.81144000
C   -12.05841000   -5.19162000   8.29542000
H   -12.03106000   -5.17583000   7.18037000
H   -10.82747000   -5.95445000   9.92465000
H   -9.55134000   -3.76440000   9.99031000
H   -10.74759000   -2.97846000   7.24416000
H   -12.09047000   -3.74437000   9.92647000
C   -10.77826000   -1.53933000   8.88033000
C   -8.24202000   -1.55409000   8.94913000
C   -9.49091000   -0.80465000   8.43178000
C   -12.02502000   -0.78888000   8.35906000
H   -10.81002000   -1.55752000   9.99517000
H   -8.27171000   -1.57556000   10.06400000
H   -11.99101000   -0.77221000   7.24396000
H   -9.45958000   -0.78508000   7.31672000
C   -13.32054000   -1.51616000   8.80510000
C   -13.31935000   -2.97886000   8.29514000
C   -13.34596000   -5.92789000   8.74949000
C   -14.54850000   -0.74490000   8.28323000
C   -14.58849000   -3.72519000   8.74769000
C   -14.58342000   -5.16852000   8.23502000
H   -14.56200000   -0.74380000   7.17107000
H   -13.36221000   -1.52845000   9.91861000
H   -13.29929000   -2.96644000   7.18102000
H   -14.66431000   -3.72663000   9.85727000
H   -14.60449000   -5.16665000   7.12307000
H   -13.38073000   -5.93998000   9.86319000
C   -14.54080000   0.70025000   8.79379000
C   -13.25898000   1.42054000   8.36225000
C   -12.02086000   0.67208000   8.87783000
C   -10.73687000   1.39676000   8.43874000
C   -9.49340000   0.65380000   8.95394000
C   -8.20970000   1.38258000   8.51674000
H   -14.62226000   0.70777000   9.90199000
H   -12.05494000   0.66781000   9.99078000
H   -9.52683000   0.64693000   10.06681000
H   -13.23539000   1.49129000   7.25234000
H   -10.70268000   1.46555000   7.32792000
H   -8.17649000   1.45525000   7.40620000
C   -8.25887000   5.85218000   8.33925000
C   -9.53788000   5.11621000   8.79889000
C   -10.79472000   5.86381000   8.28915000
H   -8.23829000   5.87305000   7.22412000
C   -9.53107000   3.65725000   8.27809000
H   -9.55896000   5.09757000   9.91413000
C   -10.80531000   2.92788000   8.73369000
C   -12.05877000   3.66539000   8.23204000
C   -12.07303000   5.12678000   8.74939000
H   -9.51210000   3.66317000   7.16484000
H   -10.77272000   5.88153000   7.17404000
H   -12.09364000   5.11070000   9.86483000
H   -12.03832000   3.66899000   7.11872000
H   -10.82542000   2.86017000   9.84490000
C   -8.27663000   2.91594000   8.77519000
H   -8.29431000   2.84511000   9.88615000
C   -13.33744000   5.86721000   8.24013000
C   -13.32845000   2.93033000   8.68629000
C   -14.59760000   5.10913000   8.70096000
C   -14.57981000   3.66359000   8.19175000
H   -13.32422000   5.87921000   7.12588000
H   -14.66593000   5.10899000   9.81107000
H   -14.60656000   3.65603000   7.08087000
H   -13.36028000   2.86032000   9.79605000
C   -3.20340000   -5.93683000   8.80968000
C   -0.66489000   -5.94975000   8.86382000
C   -1.92029000   -5.20166000   8.35352000
H   -0.68790000   -5.97079000   9.97885000
H   -0.61253000   -2.98825000   7.30876000
C   -0.63969000   -3.00986000   8.42373000
C   -1.92485000   -3.74490000   8.87538000
H   -1.89554000   -5.18220000   7.23848000
C   -3.17719000   -2.99644000   8.35907000
C   -4.46432000   -3.72849000   8.81144000
C   -4.45941000   -5.19162000   8.29542000
H   -4.43206000   -5.17583000   7.18037000
H   -3.22847000   -5.95445000   9.92465000
H   -1.95234000   -3.76440000   9.99031000
H   -3.14859000   -2.97846000   7.24416000
H   -4.49147000   -3.74437000   9.92647000
C   -3.17926000   -1.53933000   8.88033000
C   -0.64302000   -1.55409000   8.94913000
C   -1.89191000   -0.80465000   8.43178000
C   -4.42602000   -0.78888000   8.35906000
H   -3.21102000   -1.55752000   9.99517000
H   -0.67271000   -1.57556000   10.06400000
H   -1.86058000   -0.78508000   7.31672000
C   -5.72154000   -1.51616000   8.80510000
C   -5.72035000   -2.97886000   8.29514000
C   -5.74696000   -5.92789000   8.74949000
C   -6.94950000   -0.74490000   8.28323000
C   -6.98949000   -3.72519000   8.74769000
C   -6.98442000   -5.16852000   8.23502000
H   -6.96300000   -0.74380000   7.17107000
H   -5.76321000   -1.52845000   9.91861000
H   -5.70029000   -2.96644000   7.18102000
H   -7.06531000   -3.72663000   9.85727000
H   -7.00549000   -5.16665000   7.12307000
H   -5.78173000   -5.93998000   9.86319000
C   -6.94180000   0.70025000   8.79379000
C   -5.65998000   1.42054000   8.36225000
C   -4.42186000   0.67208000   8.87783000
C   -3.13787000   1.39676000   8.43874000
C   -1.89440000   0.65380000   8.95394000
C   -0.61070000   1.38258000   8.51674000
H   -7.02326000   0.70777000   9.90199000
H   -4.45594000   0.66781000   9.99078000
H   -1.92783000   0.64693000   10.06681000
H   -5.63639000   1.49129000   7.25234000
H   -3.10368000   1.46555000   7.32792000
H   -0.57749000   1.45525000   7.40620000
C   -0.65987000   5.85218000   8.33925000
C   -1.93888000   5.11621000   8.79889000
C   -3.19572000   5.86381000   8.28915000
H   -0.63929000   5.87305000   7.22412000
C   -1.93207000   3.65725000   8.27809000
H   -1.95996000   5.09757000   9.91413000
C   -3.20631000   2.92788000   8.73369000
C   -4.45977000   3.66539000   8.23204000
C   -4.47403000   5.12678000   8.74939000
H   -1.91310000   3.66317000   7.16484000
H   -3.17372000   5.88153000   7.17404000
H   -4.49464000   5.11070000   9.86483000
H   -4.43932000   3.66899000   7.11872000
H   -3.22642000   2.86017000   9.84490000
C   -0.67763000   2.91594000   8.77519000
H   -0.69531000   2.84511000   9.88615000
C   -5.73844000   5.86721000   8.24013000
C   -5.72945000   2.93033000   8.68629000
C   -6.99860000   5.10913000   8.70096000
C   -6.98081000   3.66359000   8.19175000
H   -5.72522000   5.87921000   7.12588000
H   -7.06693000   5.10899000   9.81107000
H   -7.00756000   3.65603000   7.08087000
H   -5.76128000   2.86032000   9.79605000
C   4.39560000   -5.93683000   8.80968000
C   6.93411000   -5.94975000   8.86382000
C   5.67871000   -5.20166000   8.35352000
H   6.91110000   -5.97079000   9.97885000
H   6.98647000   -2.98825000   7.30876000
C   6.95931000   -3.00986000   8.42373000
C   5.67415000   -3.74490000   8.87538000
H   5.70346000   -5.18220000   7.23848000
C   4.42181000   -2.99644000   8.35907000
C   3.13468000   -3.72849000   8.81144000
C   3.13959000   -5.19162000   8.29542000
H   3.16694000   -5.17583000   7.18037000
H   4.37053000   -5.95445000   9.92465000
H   5.64666000   -3.76440000   9.99031000
H   4.45041000   -2.97846000   7.24416000
H   3.10753000   -3.74437000   9.92647000
C   4.41974000   -1.53933000   8.88033000
C   6.95598000   -1.55409000   8.94913000
C   5.70709000   -0.80465000   8.43178000
C   3.17298000   -0.78888000   8.35906000
H   4.38798000   -1.55752000   9.99517000
H   6.92629000   -1.57556000   10.06400000
H   3.20699000   -0.77221000   7.24396000
C   1.87746000   -1.51616000   8.80510000
C   1.87865000   -2.97886000   8.29514000
C   1.85204000   -5.92789000   8.74949000
C   0.64950000   -0.74490000   8.28323000
C   0.60951000   -3.72519000   8.74769000
C   0.61458000   -5.16852000   8.23502000
H   0.63600000   -0.74380000   7.17107000
H   1.83579000   -1.52845000   9.91861000
H   1.89871000   -2.96644000   7.18102000
H   0.53369000   -3.72663000   9.85727000
H   0.59351000   -5.16665000   7.12307000
H   1.81727000   -5.93998000   9.86319000
C   0.65720000   0.70025000   8.79379000
C   1.93902000   1.42054000   8.36225000
C   3.17714000   0.67208000   8.87783000
C   4.46113000   1.39676000   8.43874000
C   5.70460000   0.65380000   8.95394000
C   6.98830000   1.38258000   8.51674000
H   0.57574000   0.70777000   9.90199000
H   3.14306000   0.66781000   9.99078000
H   5.67117000   0.64693000   10.06681000
H   1.96261000   1.49129000   7.25234000
H   4.49532000   1.46555000   7.32792000
H   7.02151000   1.45525000   7.40620000
C   6.93913000   5.85218000   8.33925000
C   5.66012000   5.11621000   8.79889000
C   4.40328000   5.86381000   8.28915000
H   6.95971000   5.87305000   7.22412000
C   5.66693000   3.65725000   8.27809000
H   5.63904000   5.09757000   9.91413000
C   4.39269000   2.92788000   8.73369000
C   3.13923000   3.66539000   8.23204000
C   3.12497000   5.12678000   8.74939000
H   5.68590000   3.66317000   7.16484000
H   4.42528000   5.88153000   7.17404000
H   3.10436000   5.11070000   9.86483000
H   3.15968000   3.66899000   7.11872000
H   4.37258000   2.86017000   9.84490000
C   6.92137000   2.91594000   8.77519000
H   6.90369000   2.84511000   9.88615000
C   1.86056000   5.86721000   8.24013000
C   1.86955000   2.93033000   8.68629000
C   0.60040000   5.10913000   8.70096000
C   0.61819000   3.66359000   8.19175000
H   1.87378000   5.87921000   7.12588000
H   0.53207000   5.10899000   9.81107000
H   0.59144000   3.65603000   7.08087000
H   1.83772000   2.86032000   9.79605000
C   11.99460000   -5.93683000   8.80968000
C   14.53311000   -5.94975000   8.86382000
C   13.27771000   -5.20166000   8.35352000
H   14.51010000   -5.97079000   9.97885000
H   14.58547000   -2.98825000   7.30876000
C   14.55831000   -3.00986000   8.42373000
C   13.27315000   -3.74490000   8.87538000
H   13.30246000   -5.18220000   7.23848000
C   12.02081000   -2.99644000   8.35907000
C   10.73368000   -3.72849000   8.81144000
C   10.73859000   -5.19162000   8.29542000
H   10.76594000   -5.17583000   7.18037000
H   11.96953000   -5.95445000   9.92465000
H   13.24566000   -3.76440000   9.99031000
H   12.04941000   -2.97846000   7.24416000
H   10.70653000   -3.74437000   9.92647000
C   12.01874000   -1.53933000   8.88033000
C   14.55498000   -1.55409000   8.94913000
C   13.30609000   -0.80465000   8.43178000
C   10.77198000   -0.78888000   8.35906000
H   11.98698000   -1.55752000   9.99517000
H   14.52529000   -1.57556000   10.06400000
H   10.80599000   -0.77221000   7.24396000
H   13.33742000   -0.78508000   7.31672000
C   9.47646000   -1.51616000   8.80510000
C   9.47765000   -2.97886000   8.29514000
C   9.45104000   -5.92789000   8.74949000
C   8.24850000   -0.74490000   8.28323000
C   8.20851000   -3.72519000   8.74769000
C   8.21358000   -5.16852000   8.23502000
H   8.23500000   -0.74380000   7.17107000
H   9.43479000   -1.52845000   9.91861000
H   9.49771000   -2.96644000   7.18102000
H   8.13269000   -3.72663000   9.85727000
H   8.19251000   -5.16665000   7.12307000
H   9.41627000   -5.93998000   9.86319000
C   8.25620000   0.70025000   8.79379000
C   9.53802000   1.42054000   8.36225000
C   10.77614000   0.67208000   8.87783000
C   12.06013000   1.39676000   8.43874000
C   13.30360000   0.65380000   8.95394000
C   14.58730000   1.38258000   8.51674000
H   8.17474000   0.70777000   9.90199000
H   10.74206000   0.66781000   9.99078000
H   13.27017000   0.64693000   10.06681000
H   9.56161000   1.49129000   7.25234000
H   12.09432000   1.46555000   7.32792000
H   14.62051000   1.45525000   7.40620000
C   14.53813000   5.85218000   8.33925000
C   13.25912000   5.11621000   8.79889000
C   12.00228000   5.86381000   8.28915000
H   14.55871000   5.87305000   7.22412000
C   13.26593000   3.65725000   8.27809000
H   13.23804000   5.09757000   9.91413000
C   11.99169000   2.92788000   8.73369000
C   10.73823000   3.66539000   8.23204000
C   10.72397000   5.12678000   8.74939000
H   13.28490000   3.66317000   7.16484000
H   12.02428000   5.88153000   7.17404000
H   10.70336000   5.11070000   9.86483000
H   10.75868000   3.66899000   7.11872000
H   11.97158000   2.86017000   9.84490000
C   14.52037000   2.91594000   8.77519000
H   14.50269000   2.84511000   9.88615000
C   9.45956000   5.86721000   8.24013000
C   9.46855000   2.93033000   8.68629000
C   8.19940000   5.10913000   8.70096000
C   8.21719000   3.66359000   8.19175000
H   9.47278000   5.87921000   7.12588000
H   8.13107000   5.10899000   9.81107000
H   8.19044000   3.65603000   7.08087000
H   9.43672000   2.86032000   9.79605000
N   -4.96672822   -1.32458498   4.24370392
C   -5.49580027   -1.00753146   5.67357581
H   -6.11997788   -0.06610820   5.55812813
H   -6.13409030   -1.87257513   5.83234502
C   -4.31846268   -0.69177065   6.65193108
H   -3.48771039   -1.38349885   6.40662926
H   -3.97650137   0.30686965   6.39198553
C   -3.96721835   -2.44923162   4.28180079
H   -4.44133940   -3.25881123   4.84349905
H   -3.72941519   -2.74130910   3.22207954
H   -3.09625787   -2.14298910   4.78595806
C   -4.50062132   -0.08949365   3.55150238
H   -3.86683214   0.40022564   4.25936807
H   -3.92753686   -0.23466309   2.65391857
H   -5.40898399   0.55733935   3.29005455
C   -6.19033638   -1.83827535   3.47074593
H   -5.76644385   -1.98201223   2.49159216
H   -6.58462074   -2.77016023   3.90385852
H   -6.89160766   -1.00067254   3.49905751
N   6.60821404   2.16441655   0.68915242
C   6.26650594   1.32814322   2.02998726
H   6.02818701   2.05118923   2.75574076
H   5.41245618   0.69101040   1.67618258
C   7.47261031   0.57414723   2.58025066
H   7.73377706   -0.33590867   2.02296211
H   8.32020929   1.23642469   2.50366563
C   5.73345343   -0.69695589   6.76205766
H   6.00761308   0.35141793   6.61349570
H   4.70386556   -0.77624293   6.39064025
C   6.42621241   -1.64965413   5.69584705
H   7.51145162   -1.77587505   5.90544356
H   5.86452763   -2.60874805   5.67018688
C   6.39199735   -1.12213428   4.23383619
H   5.33294546   -0.94640775   4.07406662
H   6.67065977   -1.88422427   3.48452905
C   7.21568760   0.14982612   4.07088352
H   6.62961101   0.92754554   4.58963215
H   8.17932936   0.17595901   4.50980828
C   5.49523476   3.24890841   0.51972342
H   4.62673183   2.69140736   0.32222814
H   5.81137470   3.95799602   -0.23788727
H   5.46063408   3.86416555   1.36187340
C   6.42490617   1.23591953   -0.49737250
H   7.32484431   0.65052685   -0.61626371
H   6.13211512   1.77577598   -1.43388217
H   5.59676668   0.47056901   -0.37971035
C   7.94794786   2.74684879   0.57219429
H   8.03207493   3.37497631   -0.39853423
H   8.69195279   1.91076055   0.60962326
H   8.16382348   3.37253571   1.47958547
O   -2.85529189   5.84632451   -2.49260762
H   -3.75736591   6.05354313   -2.39269360
H   -2.60189205   5.78918535   -3.41159826
O   -8.06861340   -0.72086646   0.54094850
H   -8.78624934   -1.25516842   0.84845927
H   -7.61402416   -1.14173543   -0.16232244
O   1.37246141   -3.24406609   3.48212216
H   0.99935095   -2.84939531   4.30043507
H   2.05280767   -2.60508498   3.25022558
O   0.01958272   5.60599263   -4.22959977
H   0.53304773   6.38895082   -4.14264085
H   -0.25664083   5.39764680   -3.32619184
O   -2.01022101   4.41969250   -0.19629931
H   -2.33672036   4.44946149   -1.13401362
H   -2.31618536   3.62999246   0.24843126
O   10.33303692   -2.20966140   -4.73974193
H   9.85393736   -2.52808201   -3.99577600
H   9.94751833   -1.38436492   -5.12644376
O   -10.63977427   -6.56729386   0.55760618
H   -9.70423048   6.64167461   0.55540574
H   -10.91435496   -6.52899562   1.47606691
O   7.41237771   -4.15508497   -3.97665444
H   6.98267934   -4.79532782   -3.39168462
H   6.86026054   -3.86805074   -4.74376367
O   9.53008864   6.51423890   -1.34548693
H   3.86824794   -5.87524283   -5.30311585
H   10.24804593   6.04044201   -1.87642639
O   4.72650968   -6.67638321   4.82240382
H   5.40500101   -6.27675261   4.25434760
H   5.08068345   6.62873952   5.76631725
O   5.02132592   -4.22206892   2.52370596
H   6.00435307   -4.35487587   2.49462442
H   4.89227348   -3.31086480   2.13744586
O   2.60408878   -5.55552520   0.50725602
H   2.19843077   -5.27426935   -0.34744082
H   4.74220550   -5.27548967   -4.22408207
O   9.72080862   2.65867367   -2.22816536
H   10.45729979   3.21636998   -1.83457321
H   10.11149332   2.32984323   -3.00478416
O   1.58051853   -4.82118565   -3.12286286
H   1.97661692   -4.09065618   -3.59085200
H   2.09871473   -5.60231301   -3.36770824
O   -4.15105040   2.56536030   1.46728005
H   -4.04843387   2.92287119   2.35276475
H   -4.79981911   3.16328312   1.02913515
O   0.43914040   2.35194279   0.07961537
H   -0.17441302   3.06640968   -0.23503614
H   0.98745195   2.87444990   0.69914446
O   -7.65455950   6.67925891   1.85151374
H   -5.66382150   4.48479575   -3.08461919
H   -6.78477590   6.36274687   1.63849359
O   11.88263276   4.18996949   -0.99923498
H   12.74940486   3.72775791   -1.07400217
H   11.87829120   4.57461542   -0.08935832
O   -10.29423581   -3.41995728   0.48316294
H   -10.62905822   -3.33179854   -0.44902714
H   -10.52715204   -4.33628610   0.73529111
O   9.32453022   5.46732647   -5.40241354
H   9.21584278   6.44166748   -5.62748935
H   9.41424919   5.42087793   -4.41383824
O   4.06599853   -4.64816893   -2.27402376
H   3.73688142   -3.75710471   -2.27030282
H   4.73918134   -4.66337896   -1.57140374
O   2.79373941   -2.25556916   -2.52454048
H   2.10045515   -2.84160273   -2.34570403
H   2.95285791   -1.72845982   -1.76665620
O   -4.74637648   2.76325754   4.87528455
H   -12.18830347   4.01837638   -0.36483271
H   -4.72814923   3.70063566   4.61868273
O   -4.96950533   -5.84004899   -0.84256763
H   -4.02828534   -5.58235092   -0.78725155
H   -5.05147711   -6.32483052   0.03055777
O   13.72788733   1.48458879   -4.91053427
H   13.77199005   2.25461943   -5.51968152
H   14.61576250   1.24758042   -4.62723969
O   6.54693858   5.96285915   -1.64757993
H   6.09099591   6.64722381   -1.10179704
H   -0.38951977   0.65375128   0.07523572
O   -11.92172588   4.44449277   0.48310607
H   3.36186016   -5.02513868   0.78794018
H   -11.57541721   5.37311681   0.35477129
O   -5.04971590   3.73974907   -3.04318883
H   -4.73900603   3.89104037   -2.16322062
H   7.53589177   6.10956742   -1.55438773
O   7.75233394   -4.22268233   1.79666337
H   9.81432654   6.34634412   -0.43199020
H   8.30450536   -3.58635601   2.26231061
O   -2.27417590   -5.72997471   4.93324487
H   -2.79428460   -6.14440450   4.23579534
H   -1.43013330   -5.55871931   4.51810536
O   -7.76356183   0.74594956   3.90250336
H   -7.48537653   1.60216074   3.49036877
H   -8.67194579   0.68687275   4.12594587
O   -7.55863674   -3.35940724   1.59319094
H   -6.79166414   -3.90690551   1.64893808
H   -7.79430698   -3.44745415   0.66878192
O   7.08416204   -2.04022782   0.25036473
H   7.36959340   -2.83700720   0.73768569
H   7.87486354   -1.89541817   -0.28909213
O   3.39998538   6.04260187   -1.47451551
H   3.56792375   6.48708713   -0.64405559
H   3.47853670   -6.64491131   -2.12398065
O   -6.75585192   1.42945552   -3.61819070
H   -5.83908430   1.59534843   -3.42408806
H   -6.79629037   0.53813921   -4.00235480
O   0.73620210   2.53213456   -4.40953343
H   0.18186576   3.25121338   -4.73778910
H   0.78133767   1.71230848   -4.94182868
O   -6.04459249   4.23014899   0.03230531
H   -5.59872953   4.77485364   0.72507994
H   -7.01383308   4.37281456   0.05433872
O   -5.07675067   -4.84753831   2.48523436
H   -5.40826476   -5.12679975   3.36596362
H   -4.96917563   -5.75925203   1.96000602
O   -14.59296208   5.76386393   -1.65653378
H   -13.97330433   5.57738346   -2.43987757
H   -15.01206991   6.61425420   -1.77444231
O   1.56244275   4.79499222   1.46980968
H   0.64256203   4.79640392   1.81807627
H   1.72925295   5.77359895   1.39411982
O   -6.51831548   6.18830125   -2.83364523
H   -7.81459017   -5.76606793   2.19635633
H   -7.36736009   5.79743738   -2.59082284
O   -13.64884678   -4.96035359   4.43049765
H   -13.63743110   -5.71749748   3.85536613
H   -14.08647914   -5.29986215   5.25108346
O   5.21978810   3.15311437   -3.05220608
H   5.90292285   3.80814025   -3.23282382
H   4.43839193   3.66923435   -2.87849723
O   -3.69987772   -0.19700973   0.47256398
H   -4.09271794   0.63023990   0.17858219
H   -2.72435883   -0.10047665   0.26455724
O   -11.56508068   1.96818340   4.31982550
H   -12.41358353   2.37150496   4.53079013
H   -11.09338440   2.62826779   3.74638749
O   -7.39846183   3.40846638   3.10471358
H   -6.83966523   4.13270438   2.74314599
H   -8.24608453   3.43190017   2.67961342
O   7.63336939   -5.93154223   3.94417769
H   7.85537350   -5.44801197   4.73216498
H   7.67830782   -5.30365743   3.15477024
O   -5.53071250   5.78976821   4.03083891
H   -5.10375874   5.72067561   3.12278243
H   -6.40138987   5.98736395   3.83208773
O   6.40440146   -4.99969161   -0.48022968
H   6.62633934   -4.64738127   0.43257887
H   7.32397440   -5.15481885   -0.80961051
O   -5.80192383   -1.97944841   -3.91684094
H   -5.33339261   -2.68540117   -4.32394843
H   -5.15708743   -1.29216313   -3.61656940
O   -8.06118902   -5.19732272   4.83104501
H   -8.49292595   -4.34802485   4.82380805
H   -8.61001849   -5.81321073   5.28849639
O   14.70620135   3.23362760   -1.31699160
H   14.87809256   4.08331479   -1.79460368
H   15.01587308   2.57357910   -1.91730684
O   9.61445122   -4.21497215   -0.28342572
H   9.43209937   -4.85103492   -0.96863905
H   8.86631303   -4.16347702   0.35831373
O   9.06934000   -6.64671684   1.60589297
H   8.69914890   -5.67048548   1.60505013
H   8.86754689   6.46375745   2.51497283
O   -13.67114526   -5.92426782   -4.04875200
H   -13.30386093   -5.97258571   -4.94470628
H   -12.97181036   -5.84189714   -3.36318671
O   -10.83052313   -1.33015998   4.13804355
H   -10.71511350   -1.80653397   3.28793652
H   -10.97502170   -0.37157417   3.95512636
O   -4.80198249   6.04760561   1.57214627
H   -5.66655332   2.55431539   4.71530704
H   -3.86634417   5.80220858   1.39679858
O   -14.03123387   -3.38215301   -2.61820388
H   -14.49627497   -4.00939094   -2.05664910
H   -6.05319381   6.51031092   -2.01444804
O   3.04210065   1.18319777   -0.15435199
H   3.32555418   0.99059218   -1.04169491
H   2.07517378   1.33800356   -0.27228517
O   -10.55426132   -1.70715760   -2.64081865
H   -10.96833513   -0.83701915   -2.38299479
H   -10.34468408   -1.68635895   -3.58500454
O   12.39844722   -5.09858667   0.10253651
H   11.47077002   -4.79260299   -0.13563252
H   13.03501666   -4.37914619   -0.10523636
O   -0.81721282   -0.20594015   0.05466205
H   -10.98749939   -5.38838934   -2.23009530
H   -0.48458396   -0.62734028   -0.77447388
O   11.78118553   5.80300377   1.26550209
H   10.82358198   5.92477960   1.14675944
H   12.04057937   -6.68224531   1.15031951
O   3.89049902   0.68693178   -2.88624568
H   4.67087416   0.22224592   -3.01177676
H   4.03637678   1.62590972   -3.06622039
O   4.56246933   -2.67465651   -0.15747411
H   5.51615961   -2.48371772   -0.27239542
H   4.60276341   -3.64554014   -0.02965171
O   11.04870195   -5.64203184   -5.31834942
H   10.85553537   -4.68923345   -5.43915998
H   11.63248418   -5.97470960   -6.05944745
O   -9.10565904   -4.21888901   -3.01190628
H   -8.58496005   -4.26067523   -2.20895989
H   -8.57774995   -4.05290177   -3.82562877
O   -1.41881872   4.86713369   5.02432140
H   -1.61653512   4.77224565   4.08357283
H   -1.81847851   5.70075335   5.28891107
O   -1.34265446   1.50191209   4.33407413
H   -0.49327531   1.88710409   4.21333166
H   -1.91909869   2.05771869   3.85960822
O   -6.28461720   -3.27955376   -1.14174751
H   -5.70222786   -4.07564421   -1.14893054
H   -5.70654038   -2.52685042   -0.98839739
O   -10.22734005   2.96709900   2.03889837
H   -9.87441550   2.72138038   1.12487208
H   -11.03404846   3.50346913   1.75988630
O   -8.71245188   1.92839098   -0.30168829
H   -8.55159244   0.99763672   -0.04727533
H   -14.59322211   -3.22144490   -3.37939315
O   0.05458715   -6.02066487   2.60263755
H   0.46061337   -6.37504318   3.41176201
H   0.58569796   -5.31216073   2.36849627
O   13.49542628   -2.21039831   2.36111195
H   14.40821897   -2.17733891   2.05950509
H   13.25973299   -3.09327258   2.72601809
O   4.68224989   -5.42588314   -5.21037197
H   -7.82608882   2.25035426   -0.23068341
O   -11.89774113   -5.33073096   -1.89341166
H   -12.28218857   -4.48684708   -2.16240161
