850

C   -10.80240000   -5.93683000   -8.69032000
C   -8.26389000   -5.94975000   -8.63618000
C   -9.51929000   -5.20166000   -9.14648000
H   -8.28690000   -5.97079000   -7.52115000
H   -8.21153000   -2.98825000   -10.19124000
C   -8.23869000   -3.00986000   -9.07627000
C   -9.52385000   -3.74490000   -8.62462000
H   -9.49454000   -5.18220000   -10.26152000
C   -10.77619000   -2.99644000   -9.14093000
C   -12.06332000   -3.72849000   -8.68856000
C   -12.05841000   -5.19162000   -9.20458000
H   -12.03106000   -5.17583000   -10.31963000
H   -10.82747000   -5.95445000   -7.57535000
H   -9.55134000   -3.76440000   -7.50969000
H   -10.74759000   -2.97846000   -10.25584000
H   -12.09047000   -3.74437000   -7.57353000
C   -10.77826000   -1.53933000   -8.61967000
C   -8.24202000   -1.55409000   -8.55087000
C   -9.49091000   -0.80465000   -9.06822000
C   -12.02502000   -0.78888000   -9.14094000
H   -10.81002000   -1.55752000   -7.50483000
H   -8.27171000   -1.57556000   -7.43600000
H   -11.99101000   -0.77221000   -10.25604000
H   -9.45958000   -0.78508000   -10.18328000
C   -13.32054000   -1.51616000   -8.69490000
C   -13.31935000   -2.97886000   -9.20486000
C   -13.34596000   -5.92789000   -8.75051000
C   -14.54850000   -0.74490000   -9.21677000
C   -14.58849000   -3.72519000   -8.75231000
C   -14.58342000   -5.16852000   -9.26498000
H   -14.56200000   -0.74380000   -10.32893000
H   -13.36221000   -1.52845000   -7.58139000
H   -13.29929000   -2.96644000   -10.31898000
H   -14.66431000   -3.72663000   -7.64273000
H   -14.60449000   -5.16665000   -10.37693000
H   -13.38073000   -5.93998000   -7.63681000
C   -14.54080000   0.70025000   -8.70621000
C   -13.25898000   1.42054000   -9.13775000
C   -12.02086000   0.67208000   -8.62217000
C   -10.73687000   1.39676000   -9.06126000
C   -9.49340000   0.65380000   -8.54606000
C   -8.20970000   1.38258000   -8.98326000
H   -14.62226000   0.70777000   -7.59801000
H   -12.05494000   0.66781000   -7.50922000
H   -9.52683000   0.64693000   -7.43319000
H   -13.23539000   1.49129000   -10.24766000
H   -10.70268000   1.46555000   -10.17208000
H   -8.17649000   1.45525000   -10.09380000
C   -8.25887000   5.85218000   -9.16075000
C   -9.53788000   5.11621000   -8.70111000
C   -10.79472000   5.86381000   -9.21085000
H   -8.23829000   5.87305000   -10.27588000
C   -9.53107000   3.65725000   -9.22191000
H   -9.55896000   5.09757000   -7.58587000
C   -10.80531000   2.92788000   -8.76631000
C   -12.05877000   3.66539000   -9.26796000
C   -12.07303000   5.12678000   -8.75061000
H   -9.51210000   3.66317000   -10.33516000
H   -10.77272000   5.88153000   -10.32596000
H   -12.09364000   5.11070000   -7.63517000
H   -12.03832000   3.66899000   -10.38128000
H   -10.82542000   2.86017000   -7.65510000
C   -8.27663000   2.91594000   -8.72481000
H   -8.29431000   2.84511000   -7.61385000
C   -13.33744000   5.86721000   -9.25987000
C   -13.32845000   2.93033000   -8.81371000
C   -14.59760000   5.10913000   -8.79904000
C   -14.57981000   3.66359000   -9.30825000
H   -13.32422000   5.87921000   -10.37412000
H   -14.66593000   5.10899000   -7.68893000
H   -14.60656000   3.65603000   -10.41913000
H   -13.36028000   2.86032000   -7.70395000
C   -3.20340000   -5.93683000   -8.69032000
C   -0.66489000   -5.94975000   -8.63618000
C   -1.92029000   -5.20166000   -9.14648000
H   -0.68790000   -5.97079000   -7.52115000
H   -0.61253000   -2.98825000   -10.19124000
C   -0.63969000   -3.00986000   -9.07627000
C   -1.92485000   -3.74490000   -8.62462000
H   -1.89554000   -5.18220000   -10.26152000
C   -3.17719000   -2.99644000   -9.14093000
C   -4.46432000   -3.72849000   -8.68856000
C   -4.45941000   -5.19162000   -9.20458000
H   -4.43206000   -5.17583000   -10.31963000
H   -3.22847000   -5.95445000   -7.57535000
H   -1.95234000   -3.76440000   -7.50969000
H   -3.14859000   -2.97846000   -10.25584000
H   -4.49147000   -3.74437000   -7.57353000
C   -3.17926000   -1.53933000   -8.61967000
C   -0.64302000   -1.55409000   -8.55087000
C   -1.89191000   -0.80465000   -9.06822000
C   -4.42602000   -0.78888000   -9.14094000
H   -3.21102000   -1.55752000   -7.50483000
H   -0.67271000   -1.57556000   -7.43600000
H   -4.39201000   -0.77221000   -10.25604000
H   -1.86058000   -0.78508000   -10.18328000
C   -5.72154000   -1.51616000   -8.69490000
C   -5.72035000   -2.97886000   -9.20486000
C   -5.74696000   -5.92789000   -8.75051000
C   -6.94950000   -0.74490000   -9.21677000
C   -6.98949000   -3.72519000   -8.75231000
C   -6.98442000   -5.16852000   -9.26498000
H   -6.96300000   -0.74380000   -10.32893000
H   -5.76321000   -1.52845000   -7.58139000
H   -5.70029000   -2.96644000   -10.31898000
H   -7.06531000   -3.72663000   -7.64273000
H   -7.00549000   -5.16665000   -10.37693000
H   -5.78173000   -5.93998000   -7.63681000
C   -6.94180000   0.70025000   -8.70621000
C   -5.65998000   1.42054000   -9.13775000
C   -4.42186000   0.67208000   -8.62217000
C   -3.13787000   1.39676000   -9.06126000
C   -1.89440000   0.65380000   -8.54606000
C   -0.61070000   1.38258000   -8.98326000
H   -7.02326000   0.70777000   -7.59801000
H   -4.45594000   0.66781000   -7.50922000
H   -1.92783000   0.64693000   -7.43319000
H   -5.63639000   1.49129000   -10.24766000
H   -3.10368000   1.46555000   -10.17208000
H   -0.57749000   1.45525000   -10.09380000
C   -0.65987000   5.85218000   -9.16075000
C   -1.93888000   5.11621000   -8.70111000
C   -3.19572000   5.86381000   -9.21085000
H   -0.63929000   5.87305000   -10.27588000
C   -1.93207000   3.65725000   -9.22191000
H   -1.95996000   5.09757000   -7.58587000
C   -3.20631000   2.92788000   -8.76631000
C   -4.45977000   3.66539000   -9.26796000
C   -4.47403000   5.12678000   -8.75061000
H   -1.91310000   3.66317000   -10.33516000
H   -3.17372000   5.88153000   -10.32596000
H   -4.49464000   5.11070000   -7.63517000
H   -4.43932000   3.66899000   -10.38128000
H   -3.22642000   2.86017000   -7.65510000
C   -0.67763000   2.91594000   -8.72481000
H   -0.69531000   2.84511000   -7.61385000
C   -5.73844000   5.86721000   -9.25987000
C   -5.72945000   2.93033000   -8.81371000
C   -6.99860000   5.10913000   -8.79904000
C   -6.98081000   3.66359000   -9.30825000
H   -5.72522000   5.87921000   -10.37412000
H   -7.06693000   5.10899000   -7.68893000
H   -7.00756000   3.65603000   -10.41913000
H   -5.76128000   2.86032000   -7.70395000
C   4.39560000   -5.93683000   -8.69032000
C   6.93411000   -5.94975000   -8.63618000
C   5.67871000   -5.20166000   -9.14648000
H   6.91110000   -5.97079000   -7.52115000
H   6.98647000   -2.98825000   -10.19124000
C   6.95931000   -3.00986000   -9.07627000
C   5.67415000   -3.74490000   -8.62462000
H   5.70346000   -5.18220000   -10.26152000
C   4.42181000   -2.99644000   -9.14093000
C   3.13468000   -3.72849000   -8.68856000
C   3.13959000   -5.19162000   -9.20458000
H   3.16694000   -5.17583000   -10.31963000
H   4.37053000   -5.95445000   -7.57535000
H   5.64666000   -3.76440000   -7.50969000
H   4.45041000   -2.97846000   -10.25584000
H   3.10753000   -3.74437000   -7.57353000
C   4.41974000   -1.53933000   -8.61967000
C   6.95598000   -1.55409000   -8.55087000
C   5.70709000   -0.80465000   -9.06822000
C   3.17298000   -0.78888000   -9.14094000
H   4.38798000   -1.55752000   -7.50483000
H   6.92629000   -1.57556000   -7.43600000
H   3.20699000   -0.77221000   -10.25604000
H   5.73842000   -0.78508000   -10.18328000
C   1.87746000   -1.51616000   -8.69490000
C   1.87865000   -2.97886000   -9.20486000
C   1.85204000   -5.92789000   -8.75051000
C   0.64950000   -0.74490000   -9.21677000
C   0.60951000   -3.72519000   -8.75231000
C   0.61458000   -5.16852000   -9.26498000
H   0.63600000   -0.74380000   -10.32893000
H   1.83579000   -1.52845000   -7.58139000
H   1.89871000   -2.96644000   -10.31898000
H   0.53369000   -3.72663000   -7.64273000
H   0.59351000   -5.16665000   -10.37693000
H   1.81727000   -5.93998000   -7.63681000
C   0.65720000   0.70025000   -8.70621000
C   1.93902000   1.42054000   -9.13775000
C   3.17714000   0.67208000   -8.62217000
C   4.46113000   1.39676000   -9.06126000
C   5.70460000   0.65380000   -8.54606000
C   6.98830000   1.38258000   -8.98326000
H   0.57574000   0.70777000   -7.59801000
H   3.14306000   0.66781000   -7.50922000
H   5.67117000   0.64693000   -7.43319000
H   1.96261000   1.49129000   -10.24766000
H   4.49532000   1.46555000   -10.17208000
H   7.02151000   1.45525000   -10.09380000
C   6.93913000   5.85218000   -9.16075000
C   5.66012000   5.11621000   -8.70111000
C   4.40328000   5.86381000   -9.21085000
H   6.95971000   5.87305000   -10.27588000
C   5.66693000   3.65725000   -9.22191000
H   5.63904000   5.09757000   -7.58587000
C   4.39269000   2.92788000   -8.76631000
C   3.13923000   3.66539000   -9.26796000
C   3.12497000   5.12678000   -8.75061000
H   5.68590000   3.66317000   -10.33516000
H   4.42528000   5.88153000   -10.32596000
H   3.10436000   5.11070000   -7.63517000
H   3.15968000   3.66899000   -10.38128000
H   4.37258000   2.86017000   -7.65510000
C   6.92137000   2.91594000   -8.72481000
H   6.90369000   2.84511000   -7.61385000
C   1.86056000   5.86721000   -9.25987000
C   1.86955000   2.93033000   -8.81371000
C   0.60040000   5.10913000   -8.79904000
C   0.61819000   3.66359000   -9.30825000
H   1.87378000   5.87921000   -10.37412000
H   0.53207000   5.10899000   -7.68893000
H   0.59144000   3.65603000   -10.41913000
H   1.83772000   2.86032000   -7.70395000
C   11.99460000   -5.93683000   -8.69032000
C   14.53311000   -5.94975000   -8.63618000
C   13.27771000   -5.20166000   -9.14648000
H   14.51010000   -5.97079000   -7.52115000
H   14.58547000   -2.98825000   -10.19124000
C   14.55831000   -3.00986000   -9.07627000
C   13.27315000   -3.74490000   -8.62462000
H   13.30246000   -5.18220000   -10.26152000
C   12.02081000   -2.99644000   -9.14093000
C   10.73368000   -3.72849000   -8.68856000
C   10.73859000   -5.19162000   -9.20458000
H   10.76594000   -5.17583000   -10.31963000
H   11.96953000   -5.95445000   -7.57535000
H   13.24566000   -3.76440000   -7.50969000
H   12.04941000   -2.97846000   -10.25584000
H   10.70653000   -3.74437000   -7.57353000
C   12.01874000   -1.53933000   -8.61967000
C   14.55498000   -1.55409000   -8.55087000
C   13.30609000   -0.80465000   -9.06822000
C   10.77198000   -0.78888000   -9.14094000
H   11.98698000   -1.55752000   -7.50483000
H   14.52529000   -1.57556000   -7.43600000
H   10.80599000   -0.77221000   -10.25604000
H   13.33742000   -0.78508000   -10.18328000
C   9.47646000   -1.51616000   -8.69490000
C   9.47765000   -2.97886000   -9.20486000
C   9.45104000   -5.92789000   -8.75051000
C   8.24850000   -0.74490000   -9.21677000
C   8.20851000   -3.72519000   -8.75231000
C   8.21358000   -5.16852000   -9.26498000
H   8.23500000   -0.74380000   -10.32893000
H   9.43479000   -1.52845000   -7.58139000
H   9.49771000   -2.96644000   -10.31898000
H   8.13269000   -3.72663000   -7.64273000
H   8.19251000   -5.16665000   -10.37693000
H   9.41627000   -5.93998000   -7.63681000
C   8.25620000   0.70025000   -8.70621000
C   9.53802000   1.42054000   -9.13775000
C   10.77614000   0.67208000   -8.62217000
C   12.06013000   1.39676000   -9.06126000
C   13.30360000   0.65380000   -8.54606000
C   14.58730000   1.38258000   -8.98326000
H   8.17474000   0.70777000   -7.59801000
H   10.74206000   0.66781000   -7.50922000
H   13.27017000   0.64693000   -7.43319000
H   9.56161000   1.49129000   -10.24766000
H   12.09432000   1.46555000   -10.17208000
H   14.62051000   1.45525000   -10.09380000
C   14.53813000   5.85218000   -9.16075000
C   13.25912000   5.11621000   -8.70111000
C   12.00228000   5.86381000   -9.21085000
H   14.55871000   5.87305000   -10.27588000
C   13.26593000   3.65725000   -9.22191000
H   13.23804000   5.09757000   -7.58587000
C   11.99169000   2.92788000   -8.76631000
C   10.73823000   3.66539000   -9.26796000
C   10.72397000   5.12678000   -8.75061000
H   13.28490000   3.66317000   -10.33516000
H   12.02428000   5.88153000   -10.32596000
H   10.70336000   5.11070000   -7.63517000
H   10.75868000   3.66899000   -10.38128000
H   11.97158000   2.86017000   -7.65510000
C   14.52037000   2.91594000   -8.72481000
H   14.50269000   2.84511000   -7.61385000
C   9.45956000   5.86721000   -9.25987000
C   9.46855000   2.93033000   -8.81371000
C   8.19940000   5.10913000   -8.79904000
C   8.21719000   3.66359000   -9.30825000
H   9.47278000   5.87921000   -10.37412000
H   8.13107000   5.10899000   -7.68893000
H   8.19044000   3.65603000   -10.41913000
H   9.43672000   2.86032000   -7.70395000
C   -10.80240000   -5.93683000   8.80968000
C   -8.26389000   -5.94975000   8.86382000
C   -9.51929000   -5.20166000   8.35352000
H   -8.28690000   -5.97079000   9.97885000
H   -8.21153000   -2.98825000   7.30876000
C   -8.23869000   -3.00986000   8.42373000
C   -9.52385000   -3.74490000   8.87538000
H   -9.49454000   -5.18220000   7.23848000
C   -10.77619000   -2.99644000   8.35907000
C   -12.06332000   -3.72849000   8.81144000
C   -12.05841000   -5.19162000   8.29542000
H   -12.03106000   -5.17583000   7.18037000
H   -10.82747000   -5.95445000   9.92465000
H   -9.55134000   -3.76440000   9.99031000
H   -10.74759000   -2.97846000   7.24416000
H   -12.09047000   -3.74437000   9.92647000
C   -10.77826000   -1.53933000   8.88033000
C   -8.24202000   -1.55409000   8.94913000
C   -9.49091000   -0.80465000   8.43178000
C   -12.02502000   -0.78888000   8.35906000
H   -10.81002000   -1.55752000   9.99517000
H   -8.27171000   -1.57556000   10.06400000
H   -11.99101000   -0.77221000   7.24396000
H   -9.45958000   -0.78508000   7.31672000
C   -13.32054000   -1.51616000   8.80510000
C   -13.31935000   -2.97886000   8.29514000
C   -13.34596000   -5.92789000   8.74949000
C   -14.54850000   -0.74490000   8.28323000
C   -14.58849000   -3.72519000   8.74769000
C   -14.58342000   -5.16852000   8.23502000
H   -14.56200000   -0.74380000   7.17107000
H   -13.36221000   -1.52845000   9.91861000
H   -13.29929000   -2.96644000   7.18102000
H   -14.66431000   -3.72663000   9.85727000
H   -14.60449000   -5.16665000   7.12307000
H   -13.38073000   -5.93998000   9.86319000
C   -14.54080000   0.70025000   8.79379000
C   -13.25898000   1.42054000   8.36225000
C   -12.02086000   0.67208000   8.87783000
C   -10.73687000   1.39676000   8.43874000
C   -9.49340000   0.65380000   8.95394000
C   -8.20970000   1.38258000   8.51674000
H   -14.62226000   0.70777000   9.90199000
H   -12.05494000   0.66781000   9.99078000
H   -9.52683000   0.64693000   10.06681000
H   -13.23539000   1.49129000   7.25234000
H   -10.70268000   1.46555000   7.32792000
H   -8.17649000   1.45525000   7.40620000
C   -8.25887000   5.85218000   8.33925000
C   -9.53788000   5.11621000   8.79889000
C   -10.79472000   5.86381000   8.28915000
H   -8.23829000   5.87305000   7.22412000
C   -9.53107000   3.65725000   8.27809000
H   -9.55896000   5.09757000   9.91413000
C   -10.80531000   2.92788000   8.73369000
C   -12.05877000   3.66539000   8.23204000
C   -12.07303000   5.12678000   8.74939000
H   -9.51210000   3.66317000   7.16484000
H   -10.77272000   5.88153000   7.17404000
H   -12.09364000   5.11070000   9.86483000
H   -12.03832000   3.66899000   7.11872000
H   -10.82542000   2.86017000   9.84490000
C   -8.27663000   2.91594000   8.77519000
H   -8.29431000   2.84511000   9.88615000
C   -13.33744000   5.86721000   8.24013000
C   -13.32845000   2.93033000   8.68629000
C   -14.59760000   5.10913000   8.70096000
C   -14.57981000   3.66359000   8.19175000
H   -13.32422000   5.87921000   7.12588000
H   -14.66593000   5.10899000   9.81107000
H   -14.60656000   3.65603000   7.08087000
H   -13.36028000   2.86032000   9.79605000
C   -3.20340000   -5.93683000   8.80968000
C   -0.66489000   -5.94975000   8.86382000
C   -1.92029000   -5.20166000   8.35352000
H   -0.68790000   -5.97079000   9.97885000
H   -0.61253000   -2.98825000   7.30876000
C   -0.63969000   -3.00986000   8.42373000
C   -1.92485000   -3.74490000   8.87538000
H   -1.89554000   -5.18220000   7.23848000
C   -3.17719000   -2.99644000   8.35907000
C   -4.46432000   -3.72849000   8.81144000
C   -4.45941000   -5.19162000   8.29542000
H   -4.43206000   -5.17583000   7.18037000
H   -3.22847000   -5.95445000   9.92465000
H   -1.95234000   -3.76440000   9.99031000
H   -3.14859000   -2.97846000   7.24416000
H   -4.49147000   -3.74437000   9.92647000
C   -3.17926000   -1.53933000   8.88033000
C   -0.64302000   -1.55409000   8.94913000
C   -1.89191000   -0.80465000   8.43178000
C   -4.42602000   -0.78888000   8.35906000
H   -3.21102000   -1.55752000   9.99517000
H   -0.67271000   -1.57556000   10.06400000
H   -1.86058000   -0.78508000   7.31672000
C   -5.72154000   -1.51616000   8.80510000
C   -5.72035000   -2.97886000   8.29514000
C   -5.74696000   -5.92789000   8.74949000
C   -6.94950000   -0.74490000   8.28323000
C   -6.98949000   -3.72519000   8.74769000
C   -6.98442000   -5.16852000   8.23502000
H   -6.96300000   -0.74380000   7.17107000
H   -5.76321000   -1.52845000   9.91861000
H   -5.70029000   -2.96644000   7.18102000
H   -7.06531000   -3.72663000   9.85727000
H   -7.00549000   -5.16665000   7.12307000
H   -5.78173000   -5.93998000   9.86319000
C   -6.94180000   0.70025000   8.79379000
C   -5.65998000   1.42054000   8.36225000
C   -4.42186000   0.67208000   8.87783000
C   -3.13787000   1.39676000   8.43874000
C   -1.89440000   0.65380000   8.95394000
C   -0.61070000   1.38258000   8.51674000
H   -7.02326000   0.70777000   9.90199000
H   -4.45594000   0.66781000   9.99078000
H   -1.92783000   0.64693000   10.06681000
H   -5.63639000   1.49129000   7.25234000
H   -3.10368000   1.46555000   7.32792000
H   -0.57749000   1.45525000   7.40620000
C   -0.65987000   5.85218000   8.33925000
C   -1.93888000   5.11621000   8.79889000
C   -3.19572000   5.86381000   8.28915000
H   -0.63929000   5.87305000   7.22412000
C   -1.93207000   3.65725000   8.27809000
H   -1.95996000   5.09757000   9.91413000
C   -3.20631000   2.92788000   8.73369000
C   -4.45977000   3.66539000   8.23204000
C   -4.47403000   5.12678000   8.74939000
H   -1.91310000   3.66317000   7.16484000
H   -3.17372000   5.88153000   7.17404000
H   -4.49464000   5.11070000   9.86483000
H   -4.43932000   3.66899000   7.11872000
H   -3.22642000   2.86017000   9.84490000
C   -0.67763000   2.91594000   8.77519000
H   -0.69531000   2.84511000   9.88615000
C   -5.73844000   5.86721000   8.24013000
C   -5.72945000   2.93033000   8.68629000
C   -6.99860000   5.10913000   8.70096000
C   -6.98081000   3.66359000   8.19175000
H   -5.72522000   5.87921000   7.12588000
H   -7.06693000   5.10899000   9.81107000
H   -7.00756000   3.65603000   7.08087000
H   -5.76128000   2.86032000   9.79605000
C   4.39560000   -5.93683000   8.80968000
C   6.93411000   -5.94975000   8.86382000
C   5.67871000   -5.20166000   8.35352000
H   6.91110000   -5.97079000   9.97885000
H   6.98647000   -2.98825000   7.30876000
C   6.95931000   -3.00986000   8.42373000
C   5.67415000   -3.74490000   8.87538000
H   5.70346000   -5.18220000   7.23848000
C   4.42181000   -2.99644000   8.35907000
C   3.13468000   -3.72849000   8.81144000
C   3.13959000   -5.19162000   8.29542000
H   3.16694000   -5.17583000   7.18037000
H   4.37053000   -5.95445000   9.92465000
H   5.64666000   -3.76440000   9.99031000
H   4.45041000   -2.97846000   7.24416000
H   3.10753000   -3.74437000   9.92647000
C   4.41974000   -1.53933000   8.88033000
C   6.95598000   -1.55409000   8.94913000
C   5.70709000   -0.80465000   8.43178000
C   3.17298000   -0.78888000   8.35906000
H   4.38798000   -1.55752000   9.99517000
H   6.92629000   -1.57556000   10.06400000
H   3.20699000   -0.77221000   7.24396000
C   1.87746000   -1.51616000   8.80510000
C   1.87865000   -2.97886000   8.29514000
C   1.85204000   -5.92789000   8.74949000
C   0.64950000   -0.74490000   8.28323000
C   0.60951000   -3.72519000   8.74769000
C   0.61458000   -5.16852000   8.23502000
H   0.63600000   -0.74380000   7.17107000
H   1.83579000   -1.52845000   9.91861000
H   1.89871000   -2.96644000   7.18102000
H   0.53369000   -3.72663000   9.85727000
H   0.59351000   -5.16665000   7.12307000
H   1.81727000   -5.93998000   9.86319000
C   0.65720000   0.70025000   8.79379000
C   1.93902000   1.42054000   8.36225000
C   3.17714000   0.67208000   8.87783000
C   4.46113000   1.39676000   8.43874000
C   5.70460000   0.65380000   8.95394000
C   6.98830000   1.38258000   8.51674000
H   0.57574000   0.70777000   9.90199000
H   3.14306000   0.66781000   9.99078000
H   5.67117000   0.64693000   10.06681000
H   1.96261000   1.49129000   7.25234000
H   4.49532000   1.46555000   7.32792000
H   7.02151000   1.45525000   7.40620000
C   6.93913000   5.85218000   8.33925000
C   5.66012000   5.11621000   8.79889000
C   4.40328000   5.86381000   8.28915000
H   6.95971000   5.87305000   7.22412000
C   5.66693000   3.65725000   8.27809000
H   5.63904000   5.09757000   9.91413000
C   4.39269000   2.92788000   8.73369000
C   3.13923000   3.66539000   8.23204000
C   3.12497000   5.12678000   8.74939000
H   5.68590000   3.66317000   7.16484000
H   4.42528000   5.88153000   7.17404000
H   3.10436000   5.11070000   9.86483000
H   3.15968000   3.66899000   7.11872000
H   4.37258000   2.86017000   9.84490000
C   6.92137000   2.91594000   8.77519000
H   6.90369000   2.84511000   9.88615000
C   1.86056000   5.86721000   8.24013000
C   1.86955000   2.93033000   8.68629000
C   0.60040000   5.10913000   8.70096000
C   0.61819000   3.66359000   8.19175000
H   1.87378000   5.87921000   7.12588000
H   0.53207000   5.10899000   9.81107000
H   0.59144000   3.65603000   7.08087000
H   1.83772000   2.86032000   9.79605000
C   11.99460000   -5.93683000   8.80968000
C   14.53311000   -5.94975000   8.86382000
C   13.27771000   -5.20166000   8.35352000
H   14.51010000   -5.97079000   9.97885000
H   14.58547000   -2.98825000   7.30876000
C   14.55831000   -3.00986000   8.42373000
C   13.27315000   -3.74490000   8.87538000
H   13.30246000   -5.18220000   7.23848000
C   12.02081000   -2.99644000   8.35907000
C   10.73368000   -3.72849000   8.81144000
C   10.73859000   -5.19162000   8.29542000
H   10.76594000   -5.17583000   7.18037000
H   11.96953000   -5.95445000   9.92465000
H   13.24566000   -3.76440000   9.99031000
H   12.04941000   -2.97846000   7.24416000
H   10.70653000   -3.74437000   9.92647000
C   12.01874000   -1.53933000   8.88033000
C   14.55498000   -1.55409000   8.94913000
C   13.30609000   -0.80465000   8.43178000
C   10.77198000   -0.78888000   8.35906000
H   11.98698000   -1.55752000   9.99517000
H   14.52529000   -1.57556000   10.06400000
H   10.80599000   -0.77221000   7.24396000
H   13.33742000   -0.78508000   7.31672000
C   9.47646000   -1.51616000   8.80510000
C   9.47765000   -2.97886000   8.29514000
C   9.45104000   -5.92789000   8.74949000
C   8.24850000   -0.74490000   8.28323000
C   8.20851000   -3.72519000   8.74769000
C   8.21358000   -5.16852000   8.23502000
H   8.23500000   -0.74380000   7.17107000
H   9.43479000   -1.52845000   9.91861000
H   9.49771000   -2.96644000   7.18102000
H   8.13269000   -3.72663000   9.85727000
H   8.19251000   -5.16665000   7.12307000
H   9.41627000   -5.93998000   9.86319000
C   8.25620000   0.70025000   8.79379000
C   9.53802000   1.42054000   8.36225000
C   10.77614000   0.67208000   8.87783000
C   12.06013000   1.39676000   8.43874000
C   13.30360000   0.65380000   8.95394000
C   14.58730000   1.38258000   8.51674000
H   8.17474000   0.70777000   9.90199000
H   10.74206000   0.66781000   9.99078000
H   13.27017000   0.64693000   10.06681000
H   9.56161000   1.49129000   7.25234000
H   12.09432000   1.46555000   7.32792000
H   14.62051000   1.45525000   7.40620000
C   14.53813000   5.85218000   8.33925000
C   13.25912000   5.11621000   8.79889000
C   12.00228000   5.86381000   8.28915000
H   14.55871000   5.87305000   7.22412000
C   13.26593000   3.65725000   8.27809000
H   13.23804000   5.09757000   9.91413000
C   11.99169000   2.92788000   8.73369000
C   10.73823000   3.66539000   8.23204000
C   10.72397000   5.12678000   8.74939000
H   13.28490000   3.66317000   7.16484000
H   12.02428000   5.88153000   7.17404000
H   10.70336000   5.11070000   9.86483000
H   10.75868000   3.66899000   7.11872000
H   11.97158000   2.86017000   9.84490000
C   14.52037000   2.91594000   8.77519000
H   14.50269000   2.84511000   9.88615000
C   9.45956000   5.86721000   8.24013000
C   9.46855000   2.93033000   8.68629000
C   8.19940000   5.10913000   8.70096000
C   8.21719000   3.66359000   8.19175000
H   9.47278000   5.87921000   7.12588000
H   8.13107000   5.10899000   9.81107000
H   8.19044000   3.65603000   7.08087000
H   9.43672000   2.86032000   9.79605000
N   -4.05926079   -1.01595888   4.18122646
C   -3.38033662   -0.96013029   5.76118870
H   -2.78138035   -1.92189591   5.83910057
H   -2.66222020   -0.11324579   5.73370775
C   -4.47831967   -0.70959523   6.69816531
H   -4.73754421   0.31744670   6.41212809
H   -5.29437437   -1.35215399   6.39697049
C   -4.88698359   -2.18279445   3.99564862
H   -5.88438884   -2.01247606   4.42501628
H   -5.10937425   -2.19905046   2.93120214
H   -4.47161006   -3.06814771   4.35789894
C   -2.89388742   -1.08239704   3.20381253
H   -2.11155763   -0.35170413   3.32836288
H   -2.39670897   -2.09907600   3.16401177
H   -3.29640211   -0.97233721   2.16218390
C   -4.86563766   0.22440445   3.91939771
H   -4.20869181   1.04453342   4.22606898
H   -5.14043585   0.31451840   2.85730112
H   -5.71198874   0.27592664   4.61878330
N   5.85107414   -2.17552247   -0.67578043
C   5.51982594   -2.65748386   0.75893953
H   4.42735110   -3.04035273   0.76821842
H   6.17293014   -3.44936765   1.04206188
C   5.62623946   -1.65995152   1.83989119
H   6.46329287   -1.01566430   1.64453116
H   4.75376893   -1.00817885   1.68038320
C   5.81354972   -0.69069009   6.81539458
H   6.57637068   0.07776173   6.53685598
H   4.93224991   -0.11198519   6.43114714
C   6.09037707   -1.80341008   5.76196570
H   7.12889362   -2.10307760   5.70702476
H   5.59962814   -2.71065249   5.89053757
C   5.73107838   -1.19564164   4.40540822
H   6.59819859   -0.51311294   4.20849800
H   4.83172807   -0.64325716   4.61583001
C   5.68511758   -2.24582067   3.28168481
H   6.60742133   -2.87371221   3.36215829
H   4.83547162   -2.94852475   3.41826426
C   5.18072318   -0.89836938   -1.07969072
H   5.53818563   -0.11164419   -0.46815422
H   4.10833094   -0.97575779   -1.07090302
H   5.34548100   -0.68512489   -2.15637515
C   5.36140927   -3.19959936   -1.61660082
H   4.24328785   -3.31254612   -1.52550777
H   5.68650418   -4.18463567   -1.32091999
H   5.66357207   -3.04722155   -2.62453214
C   7.37217681   -2.06969750   -0.89840359
H   7.76984290   -1.37447474   -0.23060093
H   7.53997852   -1.67854277   -1.90713103
H   7.74455607   -3.08987905   -0.79591501
O   13.92766636   -5.19713765   -1.58969385
H   14.18206819   -5.94398278   -1.07250515
H   13.43778279   -4.58695584   -1.04429417
O   10.65147784   -4.89606605   -2.00161510
H   11.56965153   -5.15660774   -2.01138658
H   10.48037998   -4.24034417   -1.25458353
O   -11.60523044   1.94008095   -5.34602604
H   -12.02392733   1.01865051   -5.41303711
H   -11.20897642   1.99828906   -4.45166189
O   9.46195603   1.73514318   -4.99524361
H   9.50573676   1.67891234   -5.94538983
H   9.00134488   1.07526104   -4.59394576
O   -14.65556972   4.69496396   3.11730784
H   -15.06081648   5.40069456   2.54865193
H   -14.93718175   3.77005025   2.95839212
O   -1.95146934   2.28261245   -0.71872067
H   -1.35245844   2.68056560   -0.09107895
H   -1.89019099   1.32149757   -0.73472997
O   -14.36552692   -6.03439845   1.28233068
H   15.04810806   -5.96692931   1.35232906
H   -14.25908087   -5.98970512   0.31659444
O   0.55116570   0.60886124   -0.91932577
H   -0.30358888   0.30706710   -0.37235475
H   0.34990731   1.37740833   -1.46668173
O   14.90301068   2.35937739   1.21794783
H   14.72674754   3.27688818   0.95558470
H   -14.74104504   2.14303055   0.66518098
O   -0.74463753   -4.20506219   -3.89499332
H   -1.42906607   -4.06125451   -4.52850652
H   -0.66890539   -3.44526495   -3.28837709
O   2.13990703   -1.80619804   -0.53895471
H   1.43350295   -1.32690763   -0.15131147
H   2.33896010   -1.41467585   -1.41085796
O   -3.41046551   3.02270809   3.28310610
H   -2.64204351   2.56192681   2.94863766
H   0.23222431   2.92563363   1.58990866
O   10.25249943   6.62355909   -4.41948230
H   10.57891808   -6.24951522   -3.68266922
H   10.94304475   6.11311653   -4.74514263
O   -8.66399686   -1.55351392   0.68181542
H   -7.75938995   -1.73445760   0.98191220
H   -8.95112064   -0.66184444   1.09472986
O   -0.59453937   -3.38448278   3.84542021
H   -1.02624516   -3.89226953   3.14646450
H   0.35392734   -3.36141968   3.56505024
O   7.07629312   2.11554256   -1.55312613
H   7.91152135   1.98560015   -1.15219432
H   7.09024978   2.84360011   -2.14823487
O   -10.44358419   0.25488346   2.46466213
H   -10.96872921   0.76518253   1.85355572
H   -10.99626609   -0.31469335   2.93357919
O   -1.32448035   -4.01772208   -0.28889539
H   -0.58780637   -4.40306237   -0.82631795
H   -1.44782290   -3.11499561   -0.53841597
O   0.72014532   6.38445402   -2.99444395
H   -0.03839146   5.77794912   -3.00391377
H   0.54108105   -6.05211207   -3.20581475
O   13.18562284   -1.96347347   -0.45540945
H   13.83830633   -1.70816822   0.15250012
H   13.16832099   -2.90190935   -0.40981096
O   10.92808377   -5.95921927   1.51895904
H   12.11757383   -6.21526324   1.26124777
H   10.54489977   -6.16501179   2.41381769
O   -2.79136327   6.52468370   4.43540833
H   -2.83682787   5.58558252   4.38486699
H   -2.97809890   -6.51948788   3.57376490
O   14.70249310   -3.52142285   1.48554828
H   -14.94279838   -4.05258787   1.14990495
H   13.90980569   -4.10667592   1.61028984
O   -10.35775233   3.55249740   -0.66425983
H   -10.54172597   3.82298130   0.19024404
H   -9.65389764   2.89535360   -0.63354913
O   -0.21006671   -1.62915056   1.01770011
H   -0.26695850   -2.51852884   0.52264762
H   -0.88851092   -1.04708214   0.56297241
O   -2.37000852   -0.19914041   -3.59438698
H   -2.07199122   0.28275408   -2.82449565
H   -15.07200161   -3.69759648   4.79105562
O   2.32680023   5.80193250   3.10909810
H   3.09250571   6.39098153   3.12110545
H   2.27775789   5.36460236   3.94151660
O   9.25038845   6.60874555   -0.23389570
H   9.70960655   -6.18313688   -0.83587249
H   -3.22409064   -0.53218572   -3.35404414
O   -7.88224543   0.25431514   4.28766766
H   -8.23454378   0.25489033   5.16083066
H   -8.70935052   0.49527022   3.80953031
O   0.56328780   -0.78286272   -4.62048232
H   0.16811170   5.80502561   -0.66268968
H   0.94006565   -1.58515677   -5.02780930
O   12.70657278   0.88064015   0.81379441
H   13.60844464   0.93138047   1.15170705
H   12.59139898   1.70619963   0.33840534
O   6.18779622   -5.76268248   3.54845136
H   7.03464089   -5.81406887   4.08903246
H   6.43146763   -5.52748651   2.63966241
O   7.17671303   -5.52535250   -2.66525515
H   7.57904708   -6.26719292   -2.20766189
H   7.47340076   -5.45648953   -3.60497501
O   -2.40888196   -6.25615716   1.50005119
H   -1.96321593   -5.43244367   1.11512717
H   -1.84983036   6.38901533   1.24448789
O   -3.83164201   -1.84105910   -1.67894385
H   -4.60487600   -2.30959585   -1.98911329
H   -3.81461037   -2.15296581   -0.76839801
O   -13.90808953   -4.06472100   -2.26409492
H   -14.20410154   -3.94688214   -3.15773643
H   -14.67437324   -4.31395764   -1.76507259
O   7.73342615   -4.86115638   0.91327224
H   7.95492575   -5.84993576   0.74665673
H   8.52799101   -4.40505113   0.76323505
O   2.50748852   4.02947076   -2.08043346
H   3.18781673   3.87883723   -2.71732664
H   2.08440700   4.91664423   -2.16378769
O   11.29330753   4.34866660   -0.54750634
H   10.89495904   3.91748183   -1.32730759
H   10.83630990   5.20177309   -0.49843813
O   -1.58007673   1.41301784   2.08646295
H   -0.73707072   1.01078362   2.27214241
H   -1.90146742   1.00352082   1.26714975
O   4.12803211   -6.67527982   -1.88865549
H   4.93352566   -6.67509038   -2.41179159
H   3.30469523   -6.43097936   -2.42487957
O   7.45348967   5.09576482   -1.25136221
H   6.57266397   5.04496061   -0.90861748
H   7.99738762   5.54422405   -0.60736135
O   10.61683939   2.53310174   -2.49602013
H   10.58530123   1.79755305   -1.90187135
H   10.69088207   2.21369161   -3.42153392
O   -12.60701914   4.06481722   -3.17647866
H   -11.72612800   4.08644939   -2.65213218
H   -12.38154698   3.73797838   -4.05445159
O   -5.58181407   -5.84157497   1.53815389
H   -6.40763264   -6.01827363   1.05759487
H   -5.06897675   -6.59106637   1.79211418
O   -5.65568734   2.50461406   -0.51974149
H   -5.77465462   2.05180005   0.30178020
H   -4.76201491   2.79890213   -0.65523963
O   -2.96821209   2.84997330   -3.60837232
H   -2.58106702   2.41615392   -2.80193933
H   -3.85598446   2.56812753   -3.66564475
O   -4.31590535   -3.38998554   0.84709513
H   -4.83099930   -4.17238781   1.12734476
H   -3.37376226   -3.72476928   0.95513976
O   -3.33432901   -3.19702337   -4.67849206
H   -3.02880504   -2.25970213   -4.44609856
H   -4.27061723   -3.15245494   -4.56563583
O   2.31744932   -3.57318990   -3.55637396
H   2.63992946   -2.97721916   -2.93489291
H   1.34388980   -3.65531327   -3.39857375
O   -0.99333632   4.41583203   -4.90885081
H   -0.45150393   3.91905940   -4.29723464
H   -1.88609798   4.02022833   -5.05967409
O   -15.13582818   -5.77300690   4.28483275
H   15.08321812   -6.04697252   5.16535277
H   -14.34640281   -6.25382967   4.06744015
O   12.30635656   5.50084220   -3.08126395
H   11.77518043   4.86691254   -2.54261215
H   13.17046782   5.12838223   -3.27160521
O   14.06425533   4.46759305   -0.11075091
H   13.11493065   4.17813626   -0.21766235
H   13.92234096   5.33369883   0.37166249
O   2.64630550   0.14053466   -2.84841014
H   2.14098379   -0.18429161   -3.62362271
H   1.95961778   0.52939739   -2.20354859
O   -12.37371332   1.62927562   -0.05318590
H   -12.79975151   2.01912264   0.72966547
H   -12.87605506   1.96254118   -0.86553357
O   9.14719580   -0.77604918   -3.57311052
H   9.62833032   -0.77255732   -2.76540591
H   9.58357943   -1.46971657   -4.08217727
O   14.95058809   6.29796027   -5.00095694
H   14.18852548   -6.51519277   -5.02054237
H   -14.98997393   6.49164868   -4.22384618
O   -7.39586012   5.90966833   0.49189066
H   -7.41984040   5.96597306   -0.45478931
H   -7.92931358   5.14530978   0.74141089
O   10.23692755   -3.58998046   0.82529197
H   10.69137155   -2.84066112   1.24630314
H   10.41407682   -4.44952022   1.34340660
O   -12.50377243   -1.54025489   3.07604577
H   -12.33536533   -1.95162716   2.25677411
H   -13.29174223   -1.90417928   3.52906826
O   -15.16837421   -2.79593924   4.43767150
H   10.23793276   -3.89180666   -3.86842003
H   14.74443774   -2.95106556   3.63480018
O   -1.91995611   -0.16376078   -0.05455867
H   -2.13532197   -0.95994049   -0.59966136
H   0.08956995   -0.34302910   -5.32152899
O   1.99766680   -3.46825103   1.76160842
H   2.23478795   -3.69224964   0.88315695
H   1.56688158   -2.59893236   1.73284559
O   -7.98281636   -3.89312173   3.23027083
H   -8.82905418   -4.28052686   3.56140551
H   -7.36368696   -4.64306744   3.24122756
O   -4.44741182   -0.20954669   0.72977542
H   -3.57022784   0.07451979   0.40126380
H   -4.70866851   -1.03172168   0.26157897
O   1.38003580   -5.11612966   -0.60852996
H   0.80374076   -5.48061489   0.09304916
H   2.12042477   -5.66636278   -0.64428659
O   -13.79995967   5.90477163   -1.36597550
H   -14.40292754   5.22909274   -1.07584813
H   -13.62301608   5.67815604   -2.27618283
O   0.45686197   -0.72856562   3.44815122
H   0.35143243   -1.33594376   2.66675792
H   0.34706531   -1.18655161   4.27376751
O   4.62932725   4.70906917   4.74217814
H   4.46976619   4.62613827   3.80448747
H   5.49704946   5.21815828   4.76747956
O   13.26303354   -6.29243258   1.17174845
H   13.55137969   -6.60377012   2.06853903
H   -3.86289084   3.23751895   2.49593371
O   10.78845992   -0.76758998   -0.83002950
H   11.19576145   0.04405208   -0.42600462
H   11.54708319   -1.40459491   -0.82555990
O   0.10944495   5.87307326   0.28952770
H   9.71248800   6.69005646   0.68205072
H   0.99371648   5.46686265   0.54683777
O   -0.86497684   -1.95798845   -2.17174183
H   -1.49227571   -1.38072364   -2.63849852
H   -0.14078730   -1.48173064   -1.74082659
O   0.78192306   3.21730940   0.91902810
H   1.11507925   2.59021373   0.22904475
O   9.83808519   -3.43732215   -4.64124092
H   10.33408423   -3.84260121   -5.37128610
