850

C   -10.80240000   -5.93683000   -8.69032000
C   -8.26389000   -5.94975000   -8.63618000
C   -9.51929000   -5.20166000   -9.14648000
H   -8.28690000   -5.97079000   -7.52115000
H   -8.21153000   -2.98825000   -10.19124000
C   -8.23869000   -3.00986000   -9.07627000
C   -9.52385000   -3.74490000   -8.62462000
H   -9.49454000   -5.18220000   -10.26152000
C   -10.77619000   -2.99644000   -9.14093000
C   -12.06332000   -3.72849000   -8.68856000
C   -12.05841000   -5.19162000   -9.20458000
H   -12.03106000   -5.17583000   -10.31963000
H   -10.82747000   -5.95445000   -7.57535000
H   -9.55134000   -3.76440000   -7.50969000
H   -10.74759000   -2.97846000   -10.25584000
H   -12.09047000   -3.74437000   -7.57353000
C   -10.77826000   -1.53933000   -8.61967000
C   -8.24202000   -1.55409000   -8.55087000
C   -9.49091000   -0.80465000   -9.06822000
C   -12.02502000   -0.78888000   -9.14094000
H   -10.81002000   -1.55752000   -7.50483000
H   -8.27171000   -1.57556000   -7.43600000
H   -11.99101000   -0.77221000   -10.25604000
H   -9.45958000   -0.78508000   -10.18328000
C   -13.32054000   -1.51616000   -8.69490000
C   -13.31935000   -2.97886000   -9.20486000
C   -13.34596000   -5.92789000   -8.75051000
C   -14.54850000   -0.74490000   -9.21677000
C   -14.58849000   -3.72519000   -8.75231000
C   -14.58342000   -5.16852000   -9.26498000
H   -14.56200000   -0.74380000   -10.32893000
H   -13.36221000   -1.52845000   -7.58139000
H   -13.29929000   -2.96644000   -10.31898000
H   -14.66431000   -3.72663000   -7.64273000
H   -14.60449000   -5.16665000   -10.37693000
H   -13.38073000   -5.93998000   -7.63681000
C   -14.54080000   0.70025000   -8.70621000
C   -13.25898000   1.42054000   -9.13775000
C   -12.02086000   0.67208000   -8.62217000
C   -10.73687000   1.39676000   -9.06126000
C   -9.49340000   0.65380000   -8.54606000
C   -8.20970000   1.38258000   -8.98326000
H   -14.62226000   0.70777000   -7.59801000
H   -12.05494000   0.66781000   -7.50922000
H   -9.52683000   0.64693000   -7.43319000
H   -13.23539000   1.49129000   -10.24766000
H   -10.70268000   1.46555000   -10.17208000
H   -8.17649000   1.45525000   -10.09380000
C   -8.25887000   5.85218000   -9.16075000
C   -9.53788000   5.11621000   -8.70111000
C   -10.79472000   5.86381000   -9.21085000
H   -8.23829000   5.87305000   -10.27588000
C   -9.53107000   3.65725000   -9.22191000
H   -9.55896000   5.09757000   -7.58587000
C   -10.80531000   2.92788000   -8.76631000
C   -12.05877000   3.66539000   -9.26796000
C   -12.07303000   5.12678000   -8.75061000
H   -9.51210000   3.66317000   -10.33516000
H   -10.77272000   5.88153000   -10.32596000
H   -12.09364000   5.11070000   -7.63517000
H   -12.03832000   3.66899000   -10.38128000
H   -10.82542000   2.86017000   -7.65510000
C   -8.27663000   2.91594000   -8.72481000
H   -8.29431000   2.84511000   -7.61385000
C   -13.33744000   5.86721000   -9.25987000
C   -13.32845000   2.93033000   -8.81371000
C   -14.59760000   5.10913000   -8.79904000
C   -14.57981000   3.66359000   -9.30825000
H   -13.32422000   5.87921000   -10.37412000
H   -14.66593000   5.10899000   -7.68893000
H   -14.60656000   3.65603000   -10.41913000
H   -13.36028000   2.86032000   -7.70395000
C   -3.20340000   -5.93683000   -8.69032000
C   -0.66489000   -5.94975000   -8.63618000
C   -1.92029000   -5.20166000   -9.14648000
H   -0.68790000   -5.97079000   -7.52115000
H   -0.61253000   -2.98825000   -10.19124000
C   -0.63969000   -3.00986000   -9.07627000
C   -1.92485000   -3.74490000   -8.62462000
H   -1.89554000   -5.18220000   -10.26152000
C   -3.17719000   -2.99644000   -9.14093000
C   -4.46432000   -3.72849000   -8.68856000
C   -4.45941000   -5.19162000   -9.20458000
H   -4.43206000   -5.17583000   -10.31963000
H   -3.22847000   -5.95445000   -7.57535000
H   -1.95234000   -3.76440000   -7.50969000
H   -3.14859000   -2.97846000   -10.25584000
H   -4.49147000   -3.74437000   -7.57353000
C   -3.17926000   -1.53933000   -8.61967000
C   -0.64302000   -1.55409000   -8.55087000
C   -1.89191000   -0.80465000   -9.06822000
C   -4.42602000   -0.78888000   -9.14094000
H   -3.21102000   -1.55752000   -7.50483000
H   -0.67271000   -1.57556000   -7.43600000
H   -4.39201000   -0.77221000   -10.25604000
H   -1.86058000   -0.78508000   -10.18328000
C   -5.72154000   -1.51616000   -8.69490000
C   -5.72035000   -2.97886000   -9.20486000
C   -5.74696000   -5.92789000   -8.75051000
C   -6.94950000   -0.74490000   -9.21677000
C   -6.98949000   -3.72519000   -8.75231000
C   -6.98442000   -5.16852000   -9.26498000
H   -6.96300000   -0.74380000   -10.32893000
H   -5.76321000   -1.52845000   -7.58139000
H   -5.70029000   -2.96644000   -10.31898000
H   -7.06531000   -3.72663000   -7.64273000
H   -7.00549000   -5.16665000   -10.37693000
H   -5.78173000   -5.93998000   -7.63681000
C   -6.94180000   0.70025000   -8.70621000
C   -5.65998000   1.42054000   -9.13775000
C   -4.42186000   0.67208000   -8.62217000
C   -3.13787000   1.39676000   -9.06126000
C   -1.89440000   0.65380000   -8.54606000
C   -0.61070000   1.38258000   -8.98326000
H   -7.02326000   0.70777000   -7.59801000
H   -4.45594000   0.66781000   -7.50922000
H   -1.92783000   0.64693000   -7.43319000
H   -5.63639000   1.49129000   -10.24766000
H   -3.10368000   1.46555000   -10.17208000
H   -0.57749000   1.45525000   -10.09380000
C   -0.65987000   5.85218000   -9.16075000
C   -1.93888000   5.11621000   -8.70111000
C   -3.19572000   5.86381000   -9.21085000
H   -0.63929000   5.87305000   -10.27588000
C   -1.93207000   3.65725000   -9.22191000
H   -1.95996000   5.09757000   -7.58587000
C   -3.20631000   2.92788000   -8.76631000
C   -4.45977000   3.66539000   -9.26796000
C   -4.47403000   5.12678000   -8.75061000
H   -1.91310000   3.66317000   -10.33516000
H   -3.17372000   5.88153000   -10.32596000
H   -4.49464000   5.11070000   -7.63517000
H   -4.43932000   3.66899000   -10.38128000
H   -3.22642000   2.86017000   -7.65510000
C   -0.67763000   2.91594000   -8.72481000
H   -0.69531000   2.84511000   -7.61385000
C   -5.73844000   5.86721000   -9.25987000
C   -5.72945000   2.93033000   -8.81371000
C   -6.99860000   5.10913000   -8.79904000
C   -6.98081000   3.66359000   -9.30825000
H   -5.72522000   5.87921000   -10.37412000
H   -7.06693000   5.10899000   -7.68893000
H   -7.00756000   3.65603000   -10.41913000
H   -5.76128000   2.86032000   -7.70395000
C   4.39560000   -5.93683000   -8.69032000
C   6.93411000   -5.94975000   -8.63618000
C   5.67871000   -5.20166000   -9.14648000
H   6.91110000   -5.97079000   -7.52115000
H   6.98647000   -2.98825000   -10.19124000
C   6.95931000   -3.00986000   -9.07627000
C   5.67415000   -3.74490000   -8.62462000
H   5.70346000   -5.18220000   -10.26152000
C   4.42181000   -2.99644000   -9.14093000
C   3.13468000   -3.72849000   -8.68856000
C   3.13959000   -5.19162000   -9.20458000
H   3.16694000   -5.17583000   -10.31963000
H   4.37053000   -5.95445000   -7.57535000
H   5.64666000   -3.76440000   -7.50969000
H   4.45041000   -2.97846000   -10.25584000
H   3.10753000   -3.74437000   -7.57353000
C   4.41974000   -1.53933000   -8.61967000
C   6.95598000   -1.55409000   -8.55087000
C   5.70709000   -0.80465000   -9.06822000
C   3.17298000   -0.78888000   -9.14094000
H   4.38798000   -1.55752000   -7.50483000
H   6.92629000   -1.57556000   -7.43600000
H   3.20699000   -0.77221000   -10.25604000
H   5.73842000   -0.78508000   -10.18328000
C   1.87746000   -1.51616000   -8.69490000
C   1.87865000   -2.97886000   -9.20486000
C   1.85204000   -5.92789000   -8.75051000
C   0.64950000   -0.74490000   -9.21677000
C   0.60951000   -3.72519000   -8.75231000
C   0.61458000   -5.16852000   -9.26498000
H   0.63600000   -0.74380000   -10.32893000
H   1.83579000   -1.52845000   -7.58139000
H   1.89871000   -2.96644000   -10.31898000
H   0.53369000   -3.72663000   -7.64273000
H   0.59351000   -5.16665000   -10.37693000
H   1.81727000   -5.93998000   -7.63681000
C   0.65720000   0.70025000   -8.70621000
C   1.93902000   1.42054000   -9.13775000
C   3.17714000   0.67208000   -8.62217000
C   4.46113000   1.39676000   -9.06126000
C   5.70460000   0.65380000   -8.54606000
C   6.98830000   1.38258000   -8.98326000
H   0.57574000   0.70777000   -7.59801000
H   3.14306000   0.66781000   -7.50922000
H   5.67117000   0.64693000   -7.43319000
H   1.96261000   1.49129000   -10.24766000
H   4.49532000   1.46555000   -10.17208000
H   7.02151000   1.45525000   -10.09380000
C   6.93913000   5.85218000   -9.16075000
C   5.66012000   5.11621000   -8.70111000
C   4.40328000   5.86381000   -9.21085000
H   6.95971000   5.87305000   -10.27588000
C   5.66693000   3.65725000   -9.22191000
H   5.63904000   5.09757000   -7.58587000
C   4.39269000   2.92788000   -8.76631000
C   3.13923000   3.66539000   -9.26796000
C   3.12497000   5.12678000   -8.75061000
H   5.68590000   3.66317000   -10.33516000
H   4.42528000   5.88153000   -10.32596000
H   3.10436000   5.11070000   -7.63517000
H   3.15968000   3.66899000   -10.38128000
H   4.37258000   2.86017000   -7.65510000
C   6.92137000   2.91594000   -8.72481000
H   6.90369000   2.84511000   -7.61385000
C   1.86056000   5.86721000   -9.25987000
C   1.86955000   2.93033000   -8.81371000
C   0.60040000   5.10913000   -8.79904000
C   0.61819000   3.66359000   -9.30825000
H   1.87378000   5.87921000   -10.37412000
H   0.53207000   5.10899000   -7.68893000
H   0.59144000   3.65603000   -10.41913000
H   1.83772000   2.86032000   -7.70395000
C   11.99460000   -5.93683000   -8.69032000
C   14.53311000   -5.94975000   -8.63618000
C   13.27771000   -5.20166000   -9.14648000
H   14.51010000   -5.97079000   -7.52115000
H   14.58547000   -2.98825000   -10.19124000
C   14.55831000   -3.00986000   -9.07627000
C   13.27315000   -3.74490000   -8.62462000
H   13.30246000   -5.18220000   -10.26152000
C   12.02081000   -2.99644000   -9.14093000
C   10.73368000   -3.72849000   -8.68856000
C   10.73859000   -5.19162000   -9.20458000
H   10.76594000   -5.17583000   -10.31963000
H   11.96953000   -5.95445000   -7.57535000
H   13.24566000   -3.76440000   -7.50969000
H   12.04941000   -2.97846000   -10.25584000
H   10.70653000   -3.74437000   -7.57353000
C   12.01874000   -1.53933000   -8.61967000
C   14.55498000   -1.55409000   -8.55087000
C   13.30609000   -0.80465000   -9.06822000
C   10.77198000   -0.78888000   -9.14094000
H   11.98698000   -1.55752000   -7.50483000
H   14.52529000   -1.57556000   -7.43600000
H   10.80599000   -0.77221000   -10.25604000
H   13.33742000   -0.78508000   -10.18328000
C   9.47646000   -1.51616000   -8.69490000
C   9.47765000   -2.97886000   -9.20486000
C   9.45104000   -5.92789000   -8.75051000
C   8.24850000   -0.74490000   -9.21677000
C   8.20851000   -3.72519000   -8.75231000
C   8.21358000   -5.16852000   -9.26498000
H   8.23500000   -0.74380000   -10.32893000
H   9.43479000   -1.52845000   -7.58139000
H   9.49771000   -2.96644000   -10.31898000
H   8.13269000   -3.72663000   -7.64273000
H   8.19251000   -5.16665000   -10.37693000
H   9.41627000   -5.93998000   -7.63681000
C   8.25620000   0.70025000   -8.70621000
C   9.53802000   1.42054000   -9.13775000
C   10.77614000   0.67208000   -8.62217000
C   12.06013000   1.39676000   -9.06126000
C   13.30360000   0.65380000   -8.54606000
C   14.58730000   1.38258000   -8.98326000
H   8.17474000   0.70777000   -7.59801000
H   10.74206000   0.66781000   -7.50922000
H   13.27017000   0.64693000   -7.43319000
H   9.56161000   1.49129000   -10.24766000
H   12.09432000   1.46555000   -10.17208000
H   14.62051000   1.45525000   -10.09380000
C   14.53813000   5.85218000   -9.16075000
C   13.25912000   5.11621000   -8.70111000
C   12.00228000   5.86381000   -9.21085000
H   14.55871000   5.87305000   -10.27588000
C   13.26593000   3.65725000   -9.22191000
H   13.23804000   5.09757000   -7.58587000
C   11.99169000   2.92788000   -8.76631000
C   10.73823000   3.66539000   -9.26796000
C   10.72397000   5.12678000   -8.75061000
H   13.28490000   3.66317000   -10.33516000
H   12.02428000   5.88153000   -10.32596000
H   10.70336000   5.11070000   -7.63517000
H   10.75868000   3.66899000   -10.38128000
H   11.97158000   2.86017000   -7.65510000
C   14.52037000   2.91594000   -8.72481000
H   14.50269000   2.84511000   -7.61385000
C   9.45956000   5.86721000   -9.25987000
C   9.46855000   2.93033000   -8.81371000
C   8.19940000   5.10913000   -8.79904000
C   8.21719000   3.66359000   -9.30825000
H   9.47278000   5.87921000   -10.37412000
H   8.13107000   5.10899000   -7.68893000
H   8.19044000   3.65603000   -10.41913000
H   9.43672000   2.86032000   -7.70395000
C   -10.80240000   -5.93683000   8.80968000
C   -8.26389000   -5.94975000   8.86382000
C   -9.51929000   -5.20166000   8.35352000
H   -8.28690000   -5.97079000   9.97885000
H   -8.21153000   -2.98825000   7.30876000
C   -8.23869000   -3.00986000   8.42373000
C   -9.52385000   -3.74490000   8.87538000
H   -9.49454000   -5.18220000   7.23848000
C   -10.77619000   -2.99644000   8.35907000
C   -12.06332000   -3.72849000   8.81144000
C   -12.05841000   -5.19162000   8.29542000
H   -12.03106000   -5.17583000   7.18037000
H   -10.82747000   -5.95445000   9.92465000
H   -9.55134000   -3.76440000   9.99031000
H   -10.74759000   -2.97846000   7.24416000
H   -12.09047000   -3.74437000   9.92647000
C   -10.77826000   -1.53933000   8.88033000
C   -8.24202000   -1.55409000   8.94913000
C   -9.49091000   -0.80465000   8.43178000
C   -12.02502000   -0.78888000   8.35906000
H   -10.81002000   -1.55752000   9.99517000
H   -8.27171000   -1.57556000   10.06400000
H   -11.99101000   -0.77221000   7.24396000
H   -9.45958000   -0.78508000   7.31672000
C   -13.32054000   -1.51616000   8.80510000
C   -13.31935000   -2.97886000   8.29514000
C   -13.34596000   -5.92789000   8.74949000
C   -14.54850000   -0.74490000   8.28323000
C   -14.58849000   -3.72519000   8.74769000
C   -14.58342000   -5.16852000   8.23502000
H   -14.56200000   -0.74380000   7.17107000
H   -13.36221000   -1.52845000   9.91861000
H   -13.29929000   -2.96644000   7.18102000
H   -14.66431000   -3.72663000   9.85727000
H   -14.60449000   -5.16665000   7.12307000
H   -13.38073000   -5.93998000   9.86319000
C   -14.54080000   0.70025000   8.79379000
C   -13.25898000   1.42054000   8.36225000
C   -12.02086000   0.67208000   8.87783000
C   -10.73687000   1.39676000   8.43874000
C   -9.49340000   0.65380000   8.95394000
C   -8.20970000   1.38258000   8.51674000
H   -14.62226000   0.70777000   9.90199000
H   -12.05494000   0.66781000   9.99078000
H   -9.52683000   0.64693000   10.06681000
H   -13.23539000   1.49129000   7.25234000
H   -10.70268000   1.46555000   7.32792000
H   -8.17649000   1.45525000   7.40620000
C   -8.25887000   5.85218000   8.33925000
C   -9.53788000   5.11621000   8.79889000
C   -10.79472000   5.86381000   8.28915000
H   -8.23829000   5.87305000   7.22412000
C   -9.53107000   3.65725000   8.27809000
H   -9.55896000   5.09757000   9.91413000
C   -10.80531000   2.92788000   8.73369000
C   -12.05877000   3.66539000   8.23204000
C   -12.07303000   5.12678000   8.74939000
H   -9.51210000   3.66317000   7.16484000
H   -10.77272000   5.88153000   7.17404000
H   -12.09364000   5.11070000   9.86483000
H   -12.03832000   3.66899000   7.11872000
H   -10.82542000   2.86017000   9.84490000
C   -8.27663000   2.91594000   8.77519000
H   -8.29431000   2.84511000   9.88615000
C   -13.33744000   5.86721000   8.24013000
C   -13.32845000   2.93033000   8.68629000
C   -14.59760000   5.10913000   8.70096000
C   -14.57981000   3.66359000   8.19175000
H   -13.32422000   5.87921000   7.12588000
H   -14.66593000   5.10899000   9.81107000
H   -14.60656000   3.65603000   7.08087000
H   -13.36028000   2.86032000   9.79605000
C   -3.20340000   -5.93683000   8.80968000
C   -0.66489000   -5.94975000   8.86382000
C   -1.92029000   -5.20166000   8.35352000
H   -0.68790000   -5.97079000   9.97885000
H   -0.61253000   -2.98825000   7.30876000
C   -0.63969000   -3.00986000   8.42373000
C   -1.92485000   -3.74490000   8.87538000
H   -1.89554000   -5.18220000   7.23848000
C   -3.17719000   -2.99644000   8.35907000
C   -4.46432000   -3.72849000   8.81144000
C   -4.45941000   -5.19162000   8.29542000
H   -4.43206000   -5.17583000   7.18037000
H   -3.22847000   -5.95445000   9.92465000
H   -1.95234000   -3.76440000   9.99031000
H   -3.14859000   -2.97846000   7.24416000
H   -4.49147000   -3.74437000   9.92647000
C   -3.17926000   -1.53933000   8.88033000
C   -0.64302000   -1.55409000   8.94913000
C   -1.89191000   -0.80465000   8.43178000
C   -4.42602000   -0.78888000   8.35906000
H   -3.21102000   -1.55752000   9.99517000
H   -0.67271000   -1.57556000   10.06400000
H   -1.86058000   -0.78508000   7.31672000
C   -5.72154000   -1.51616000   8.80510000
C   -5.72035000   -2.97886000   8.29514000
C   -5.74696000   -5.92789000   8.74949000
C   -6.94950000   -0.74490000   8.28323000
C   -6.98949000   -3.72519000   8.74769000
C   -6.98442000   -5.16852000   8.23502000
H   -6.96300000   -0.74380000   7.17107000
H   -5.76321000   -1.52845000   9.91861000
H   -5.70029000   -2.96644000   7.18102000
H   -7.06531000   -3.72663000   9.85727000
H   -7.00549000   -5.16665000   7.12307000
H   -5.78173000   -5.93998000   9.86319000
C   -6.94180000   0.70025000   8.79379000
C   -5.65998000   1.42054000   8.36225000
C   -4.42186000   0.67208000   8.87783000
C   -3.13787000   1.39676000   8.43874000
C   -1.89440000   0.65380000   8.95394000
C   -0.61070000   1.38258000   8.51674000
H   -7.02326000   0.70777000   9.90199000
H   -4.45594000   0.66781000   9.99078000
H   -1.92783000   0.64693000   10.06681000
H   -5.63639000   1.49129000   7.25234000
H   -3.10368000   1.46555000   7.32792000
H   -0.57749000   1.45525000   7.40620000
C   -0.65987000   5.85218000   8.33925000
C   -1.93888000   5.11621000   8.79889000
C   -3.19572000   5.86381000   8.28915000
H   -0.63929000   5.87305000   7.22412000
C   -1.93207000   3.65725000   8.27809000
H   -1.95996000   5.09757000   9.91413000
C   -3.20631000   2.92788000   8.73369000
C   -4.45977000   3.66539000   8.23204000
C   -4.47403000   5.12678000   8.74939000
H   -1.91310000   3.66317000   7.16484000
H   -3.17372000   5.88153000   7.17404000
H   -4.49464000   5.11070000   9.86483000
H   -4.43932000   3.66899000   7.11872000
H   -3.22642000   2.86017000   9.84490000
C   -0.67763000   2.91594000   8.77519000
H   -0.69531000   2.84511000   9.88615000
C   -5.73844000   5.86721000   8.24013000
C   -5.72945000   2.93033000   8.68629000
C   -6.99860000   5.10913000   8.70096000
C   -6.98081000   3.66359000   8.19175000
H   -5.72522000   5.87921000   7.12588000
H   -7.06693000   5.10899000   9.81107000
H   -7.00756000   3.65603000   7.08087000
H   -5.76128000   2.86032000   9.79605000
C   4.39560000   -5.93683000   8.80968000
C   6.93411000   -5.94975000   8.86382000
C   5.67871000   -5.20166000   8.35352000
H   6.91110000   -5.97079000   9.97885000
H   6.98647000   -2.98825000   7.30876000
C   6.95931000   -3.00986000   8.42373000
C   5.67415000   -3.74490000   8.87538000
H   5.70346000   -5.18220000   7.23848000
C   4.42181000   -2.99644000   8.35907000
C   3.13468000   -3.72849000   8.81144000
C   3.13959000   -5.19162000   8.29542000
H   3.16694000   -5.17583000   7.18037000
H   4.37053000   -5.95445000   9.92465000
H   5.64666000   -3.76440000   9.99031000
H   4.45041000   -2.97846000   7.24416000
H   3.10753000   -3.74437000   9.92647000
C   4.41974000   -1.53933000   8.88033000
C   6.95598000   -1.55409000   8.94913000
C   5.70709000   -0.80465000   8.43178000
C   3.17298000   -0.78888000   8.35906000
H   4.38798000   -1.55752000   9.99517000
H   6.92629000   -1.57556000   10.06400000
H   3.20699000   -0.77221000   7.24396000
C   1.87746000   -1.51616000   8.80510000
C   1.87865000   -2.97886000   8.29514000
C   1.85204000   -5.92789000   8.74949000
C   0.64950000   -0.74490000   8.28323000
C   0.60951000   -3.72519000   8.74769000
C   0.61458000   -5.16852000   8.23502000
H   0.63600000   -0.74380000   7.17107000
H   1.83579000   -1.52845000   9.91861000
H   1.89871000   -2.96644000   7.18102000
H   0.53369000   -3.72663000   9.85727000
H   0.59351000   -5.16665000   7.12307000
H   1.81727000   -5.93998000   9.86319000
C   0.65720000   0.70025000   8.79379000
C   1.93902000   1.42054000   8.36225000
C   3.17714000   0.67208000   8.87783000
C   4.46113000   1.39676000   8.43874000
C   5.70460000   0.65380000   8.95394000
C   6.98830000   1.38258000   8.51674000
H   0.57574000   0.70777000   9.90199000
H   3.14306000   0.66781000   9.99078000
H   5.67117000   0.64693000   10.06681000
H   1.96261000   1.49129000   7.25234000
H   4.49532000   1.46555000   7.32792000
H   7.02151000   1.45525000   7.40620000
C   6.93913000   5.85218000   8.33925000
C   5.66012000   5.11621000   8.79889000
C   4.40328000   5.86381000   8.28915000
H   6.95971000   5.87305000   7.22412000
C   5.66693000   3.65725000   8.27809000
H   5.63904000   5.09757000   9.91413000
C   4.39269000   2.92788000   8.73369000
C   3.13923000   3.66539000   8.23204000
C   3.12497000   5.12678000   8.74939000
H   5.68590000   3.66317000   7.16484000
H   4.42528000   5.88153000   7.17404000
H   3.10436000   5.11070000   9.86483000
H   3.15968000   3.66899000   7.11872000
H   4.37258000   2.86017000   9.84490000
C   6.92137000   2.91594000   8.77519000
H   6.90369000   2.84511000   9.88615000
C   1.86056000   5.86721000   8.24013000
C   1.86955000   2.93033000   8.68629000
C   0.60040000   5.10913000   8.70096000
C   0.61819000   3.66359000   8.19175000
H   1.87378000   5.87921000   7.12588000
H   0.53207000   5.10899000   9.81107000
H   0.59144000   3.65603000   7.08087000
H   1.83772000   2.86032000   9.79605000
C   11.99460000   -5.93683000   8.80968000
C   14.53311000   -5.94975000   8.86382000
C   13.27771000   -5.20166000   8.35352000
H   14.51010000   -5.97079000   9.97885000
H   14.58547000   -2.98825000   7.30876000
C   14.55831000   -3.00986000   8.42373000
C   13.27315000   -3.74490000   8.87538000
H   13.30246000   -5.18220000   7.23848000
C   12.02081000   -2.99644000   8.35907000
C   10.73368000   -3.72849000   8.81144000
C   10.73859000   -5.19162000   8.29542000
H   10.76594000   -5.17583000   7.18037000
H   11.96953000   -5.95445000   9.92465000
H   13.24566000   -3.76440000   9.99031000
H   12.04941000   -2.97846000   7.24416000
H   10.70653000   -3.74437000   9.92647000
C   12.01874000   -1.53933000   8.88033000
C   14.55498000   -1.55409000   8.94913000
C   13.30609000   -0.80465000   8.43178000
C   10.77198000   -0.78888000   8.35906000
H   11.98698000   -1.55752000   9.99517000
H   14.52529000   -1.57556000   10.06400000
H   10.80599000   -0.77221000   7.24396000
H   13.33742000   -0.78508000   7.31672000
C   9.47646000   -1.51616000   8.80510000
C   9.47765000   -2.97886000   8.29514000
C   9.45104000   -5.92789000   8.74949000
C   8.24850000   -0.74490000   8.28323000
C   8.20851000   -3.72519000   8.74769000
C   8.21358000   -5.16852000   8.23502000
H   8.23500000   -0.74380000   7.17107000
H   9.43479000   -1.52845000   9.91861000
H   9.49771000   -2.96644000   7.18102000
H   8.13269000   -3.72663000   9.85727000
H   8.19251000   -5.16665000   7.12307000
H   9.41627000   -5.93998000   9.86319000
C   8.25620000   0.70025000   8.79379000
C   9.53802000   1.42054000   8.36225000
C   10.77614000   0.67208000   8.87783000
C   12.06013000   1.39676000   8.43874000
C   13.30360000   0.65380000   8.95394000
C   14.58730000   1.38258000   8.51674000
H   8.17474000   0.70777000   9.90199000
H   10.74206000   0.66781000   9.99078000
H   13.27017000   0.64693000   10.06681000
H   9.56161000   1.49129000   7.25234000
H   12.09432000   1.46555000   7.32792000
H   14.62051000   1.45525000   7.40620000
C   14.53813000   5.85218000   8.33925000
C   13.25912000   5.11621000   8.79889000
C   12.00228000   5.86381000   8.28915000
H   14.55871000   5.87305000   7.22412000
C   13.26593000   3.65725000   8.27809000
H   13.23804000   5.09757000   9.91413000
C   11.99169000   2.92788000   8.73369000
C   10.73823000   3.66539000   8.23204000
C   10.72397000   5.12678000   8.74939000
H   13.28490000   3.66317000   7.16484000
H   12.02428000   5.88153000   7.17404000
H   10.70336000   5.11070000   9.86483000
H   10.75868000   3.66899000   7.11872000
H   11.97158000   2.86017000   9.84490000
C   14.52037000   2.91594000   8.77519000
H   14.50269000   2.84511000   9.88615000
C   9.45956000   5.86721000   8.24013000
C   9.46855000   2.93033000   8.68629000
C   8.19940000   5.10913000   8.70096000
C   8.21719000   3.66359000   8.19175000
H   9.47278000   5.87921000   7.12588000
H   8.13107000   5.10899000   9.81107000
H   8.19044000   3.65603000   7.08087000
H   9.43672000   2.86032000   9.79605000
N   -3.95124983   -0.47919980   4.10313467
C   -3.85048867   0.09509753   5.62016850
H   -2.77141631   0.27384916   5.72192720
H   -4.37340739   1.02071639   5.58351103
C   -4.38113421   -0.85137741   6.69580280
H   -5.43477600   -0.89041172   6.40284838
H   -3.96646578   -1.76765274   6.43447256
C   -5.14517174   -1.36159644   3.93701238
H   -5.07306319   -2.29185180   4.46379896
H   -6.05491233   -0.82543871   4.30389761
H   -5.36530178   -1.45766616   2.82843435
C   -2.71188060   -1.21488521   3.69979191
H   -2.58084819   -2.05963904   4.38279093
H   -2.95526623   -1.59726144   2.66540722
H   -1.86750394   -0.49945732   3.75288900
C   -4.12746203   0.72831416   3.15215186
H   -4.18676943   0.46346133   2.07702953
H   -5.00431940   1.21422975   3.53773917
H   -3.18496815   1.37317112   3.10161850
N   5.13321846   1.01794534   0.00893077
C   4.83827640   0.95502634   1.54377012
H   4.26869136   1.86464894   1.85477984
H   4.33143709   -0.01658986   1.53553605
C   6.06461980   0.84673321   2.38617826
H   6.58489562   -0.00557483   2.00286880
H   6.62812484   1.69238557   2.14691753
C   5.81437996   -0.81881159   6.77739000
H   6.20119566   -1.80193674   6.52679115
H   6.52867097   0.00422995   6.44939425
C   4.68732181   -0.65493249   5.69030524
H   4.01053413   -1.48630654   5.64235433
H   4.11078279   0.28340539   5.73774717
C   5.29543794   -0.63527192   4.28897958
H   4.57934118   -0.85970457   3.51948153
H   6.06286647   -1.31734512   4.15529949
C   5.83855342   0.73720796   3.90287499
H   5.20527890   1.53951628   4.24172994
H   6.79473648   0.89155771   4.47615062
C   5.84234514   2.29157770   -0.30660601
H   5.18215437   3.02790530   0.11026853
H   5.96933913   2.32297438   -1.40319518
H   6.83803735   2.15136789   0.12524427
C   3.77768561   0.93431823   -0.72272123
H   3.00866872   1.51223059   -0.07354525
H   3.46649603   -0.07250934   -0.55751319
H   3.95171158   1.19311587   -1.76257784
C   5.97483306   -0.22529829   -0.43395644
H   7.07827178   -0.10268360   -0.25784538
H   5.83902261   -0.45422739   -1.50112861
H   5.67626416   -1.09972095   0.03961758
O   6.45488088   -4.72423804   -5.15849237
H   6.88663823   -5.11434492   -4.39395945
H   5.54150882   -5.05541698   -5.09284958
O   11.65723921   5.84528035   -0.38190584
H   10.88313205   5.51259910   0.06728775
H   11.81121770   5.33192529   -1.19042772
O   0.52024380   -2.52556903   -1.92857941
H   1.51490290   -2.92522869   -1.87160705
H   -0.06981259   -3.21819812   -1.92723428
O   1.54256464   -6.16815178   1.31989506
H   1.07596544   -5.33370046   1.54668620
H   0.73338156   6.54515604   1.26492544
O   14.21635410   4.99967881   -1.48291288
H   13.85921432   4.15180295   -1.12585160
H   13.66385441   5.74167070   -1.19453791
O   -5.71912440   0.64557313   0.53844864
H   -5.39496778   1.25690781   -0.13992841
H   -6.67197828   0.48057199   0.37597833
O   8.44521086   -2.83544596   1.23380195
H   8.98922109   -2.60735157   1.97824260
H   8.66427347   -3.71187139   0.92172165
O   -3.42951438   -6.35461798   2.33627319
H   -4.22425485   -6.17380042   1.79330586
H   -2.72050706   6.52978518   1.85516894
O   11.90658169   -0.10059077   3.99770575
H   11.88106000   0.06467812   4.95149372
H   12.78442936   -0.10134709   3.62090581
O   1.33640167   -3.00718666   0.90156953
H   0.94654460   -2.12583102   0.96272342
H   0.79267335   -3.41476763   0.20519789
O   0.58373781   0.35029896   -2.64184342
H   0.66740847   -0.16693702   -3.47776002
H   4.48276896   -5.97351118   2.16157947
O   4.75962478   -6.21447453   3.07015441
H   5.60219261   -5.77301075   3.15010620
H   -8.44878380   6.65252225   -2.07927994
O   9.77435966   -2.42532868   -3.42672944
H   9.23601749   -2.39546488   -2.61188531
H   10.54067819   -1.90600434   -3.15847687
O   -8.65029983   2.83768137   -0.23795757
H   -8.74117595   3.68125363   -0.70618669
H   -7.75587448   2.80802855   0.11814427
O   7.31478625   4.69007092   -2.73982835
H   7.52040447   5.71290620   -2.57986814
H   7.08158049   4.41604537   -3.60650846
O   -3.93965985   -5.94371244   -0.57600849
H   -3.44847288   -6.46783445   -1.28034110
H   -3.23545160   -5.53638861   -0.07462211
O   -2.07746455   0.76010157   -2.38657272
H   -10.09009047   -2.24555601   -5.25463317
H   -1.55724330   0.04552222   -2.76218918
O   -3.02471107   4.65915832   0.23373783
H   -2.26454564   5.07676563   0.69206616
H   -3.72105176   5.22443350   -0.08061383
O   3.95523280   5.10149498   0.66656954
H   3.34281386   5.86161374   0.80872674
H   4.89364314   5.43163624   0.60618945
O   5.93862852   4.55118029   3.41347620
H   5.87263639   5.30726852   2.82052533
H   5.11694257   4.54134218   3.88518735
O   14.80740377   -3.24358520   -0.07987365
H   15.07616387   -4.01144398   -0.57701939
H   13.96732501   -3.49573613   0.38924044
O   14.76111906   0.03923508   0.14781420
H   -15.18128141   -0.80248170   0.41497711
H   14.25682462   -0.18666081   -0.71335251
O   0.73892105   3.95155185   1.36548494
H   -0.01319777   4.64926473   1.34357675
H   1.55547497   4.44212487   1.45909050
O   6.35860774   -4.47493353   2.01736628
H   6.48714421   -3.67542789   1.53505445
H   6.93142424   -5.06978209   1.58008616
O   1.43790170   6.06766127   -4.08741334
H   1.06315873   5.22542317   -3.82035089
H   2.38189792   5.82242529   -4.03312003
O   9.94709692   4.92434644   2.42119364
H   10.12910278   5.12529514   1.49077305
H   -2.65723901   3.56485626   4.78574197
O   8.17093141   -6.22078028   -1.91802731
H   8.85270208   -6.06937952   -2.62191806
H   -7.76633012   -0.93462123   -4.30973800
O   -9.70352895   -1.37584800   -5.09687776
H   -9.90872403   -1.03390372   -6.00997699
H   10.69826430   5.18315746   2.97394952
O   -11.24476442   -0.00492211   0.72478410
H   -11.52313491   0.91541529   0.60176085
H   -13.62244128   1.87923010   -2.00517672
O   -4.35873397   2.42808147   -1.35380493
H   -3.53523236   1.96484245   -1.52889108
H   -4.09211456   3.31780359   -1.10882952
O   13.37463196   -1.28239591   -2.04268070
H   13.85098695   -1.12626020   -2.88861713
H   13.85500986   -1.87419273   -1.47600623
O   2.29748220   -4.96201029   4.60894652
H   3.12280576   -5.08730320   4.08842164
H   2.04229665   -5.85771599   4.94281789
O   -3.38125365   -3.97672674   4.81593289
H   -3.66625379   -4.77050011   4.28201331
H   -2.44773281   -3.87729333   4.60264837
O   9.79638543   -1.90113140   4.15516794
H   10.60341688   -1.47201776   3.86925107
H   9.59473835   -1.51290162   4.97858367
O   -6.83439536   -0.71630371   -4.25968179
H   -12.02461565   -0.34336246   1.16854024
H   -6.69040576   -0.00484662   -3.63823131
O   1.18304561   1.19904752   1.03008001
H   1.06271688   2.18196118   1.26698486
H   0.53933036   1.13298374   0.35127616
O   -11.14900453   1.80549252   3.34728416
H   -10.64674104   2.47043090   2.88642041
H   -10.68871887   1.00483953   3.66328372
O   -14.97956506   -0.32699185   -4.53882275
H   -14.62816923   0.12577352   -3.75706636
H   -15.05250152   0.30922207   -5.27415183
O   -8.74300169   -4.13599153   -5.04983447
H   -8.23293849   -4.96520451   -5.10155413
H   -8.19820330   -3.32997353   -4.96689322
O   -6.03795177   -3.46547474   -4.52622853
H   -6.42500022   -2.60128589   -4.26466139
H   -6.02376659   -4.09043466   -3.78747409
O   -2.13025289   6.38672297   -3.12074211
H   -1.45483805   -6.36751137   -3.24505231
H   -2.84741902   6.61781106   -3.74618917
O   5.52147528   -5.64257572   -1.65883727
H   5.61794127   -4.81786345   -1.13716693
H   6.49032979   -5.81449584   -1.95394486
O   7.32624775   -1.89212805   -4.68913324
H   8.32358651   -1.98731461   -4.43017946
H   6.91493636   -2.78033366   -4.68194480
O   6.49620843   6.37925182   0.67228459
H   7.35383296   5.98423862   0.61028791
H   6.44552794   -6.56580129   -0.25027525
O   3.03715466   -2.71341135   -2.00403360
H   3.24635151   -3.52048879   -2.56919367
H   2.89086466   -1.92915010   -2.54965787
O   12.07020226   1.56126179   0.94795678
H   11.90315596   0.87615994   0.27185355
H   13.02366147   1.57517356   1.09211365
O   -1.57655656   -4.94467960   0.42559219
H   -1.34383655   -5.84956054   0.74037970
H   -2.18521847   -4.54431589   1.12081727
O   1.45767294   -5.00919155   -2.25358248
H   1.13984274   -5.64758741   -1.61004690
H   1.94564103   -5.64463066   -2.85124357
O   -10.19092586   4.47094137   -5.40966813
H   -11.10165475   4.78742862   -5.15907647
H   -10.25413043   3.68333107   -5.98621477
O   -0.83069093   2.44930628   3.32434420
H   -0.49930792   3.33827957   3.52812829
H   -0.24558056   2.28409778   2.57024997
O   -0.77716094   5.99794826   0.98732281
H   -0.53467835   5.74903848   0.02746971
H   1.07761521   -0.05729476   -1.92615876
O   -3.31641703   -5.26027228   -4.74955475
H   -4.25214936   -5.12580973   -4.61230908
H   -2.87594212   -4.59907136   -5.30988026
O   -14.19136644   -3.20841932   -4.63178849
H   -14.44670588   -2.26649780   -4.84734711
H   -14.79168184   -3.81566327   -5.12434793
O   -8.48272108   -0.22440239   -0.08407141
H   -3.69204596   4.78425591   4.78634911
H   -8.81175136   0.66915737   -0.26462682
O   2.60590418   5.47582352   4.29411297
H   3.18884088   5.98368783   3.60679242
H   1.76556480   5.27855959   3.85079058
O   4.83562270   -0.85702681   -3.39417404
H   4.41348398   -0.95221133   -4.30072806
H   5.79764743   -1.19275408   -3.64255948
O   10.73914257   -6.21548499   4.59458273
H   9.80394385   -6.50168555   4.71781578
H   10.59050981   -5.25639079   4.56263564
O   -2.86680198   -0.29659588   0.59990290
H   -2.45324628   0.28342914   0.00288351
H   -3.66920782   -0.52873518   0.12379410
O   -13.53917842   0.98997861   -1.62460585
H   -14.04865103   0.91949895   -0.86749621
H   -9.23624451   -0.75866210   -0.42095530
O   8.98542033   2.26574141   1.10568801
H   9.06570097   3.00365330   1.74673446
H   9.67480367   1.67156290   1.51390078
O   9.31678927   -5.33560557   0.31951026
H   10.29989114   -5.37629858   0.16362133
H   8.89737054   -5.79669108   -0.42246771
O   -3.58683218   3.81247999   4.97528398
H   -6.57552516   5.93223382   -4.15498312
H   -1.47958015   1.25230111   -1.80242290
O   -8.98814470   -0.84137521   2.61572116
H   -9.65796447   -1.50670528   2.57989506
H   -9.13026328   -0.29039174   1.83484769
O   7.82626708   -3.36731420   -1.83343163
H   7.89784820   -4.26595944   -1.88525054
H   7.71429312   -3.15667879   -0.87412395
O   -0.93753341   5.47884668   3.76192193
H   -0.38543865   5.68343201   2.98752311
H   -1.80028195   5.89422433   3.51000550
O   12.00991837   -4.78733848   -0.66896700
H   12.34853296   -5.66226796   -0.53453260
H   11.73336130   -4.58327467   -1.55618674
O   8.91106024   5.09909392   -0.23204808
H   8.89093649   5.88588413   -0.90240190
H   8.51027725   4.33544313   -0.71837253
O   -1.00369087   2.41830087   -0.32401910
H   -0.43828098   3.19962385   -0.32082028
H   -1.77167770   2.65809877   0.10059999
O   -6.54233611   -6.64679174   -0.57938657
H   -7.04874394   -6.20938392   0.11504099
H   -5.62188782   -6.51935874   -0.29734907
O   -0.29931125   -3.11404509   4.87737951
H   0.12705887   -2.87674354   4.04233332
H   0.39157251   -3.70873587   5.18486136
O   8.43544821   4.20572338   4.91435457
H   9.21082171   4.68242450   5.20545534
H   7.94645622   4.73613428   4.27784461
O   0.35915551   -2.18310016   -4.63767370
H   0.77718485   -2.87120548   -4.07836753
H   -0.54490450   -2.12170533   -4.18573039
O   3.98813863   -2.22433738   0.92668241
H   3.29375106   -2.34361094   0.32006587
H   3.81319609   -2.72841581   1.72103876
O   4.05471243   5.15530286   -2.43938892
H   4.88504693   5.61077066   -2.50773054
H   3.96372386   4.96956283   -1.53870426
O   -9.24519485   6.19226793   -2.32375048
H   -9.20320712   6.22740641   -3.30230490
O   -7.18942341   6.35032743   -4.70786910
H   -7.72633324   5.69810765   -5.09144520
