850

C   -10.76634000   -5.88392000   -7.40642000
C   -8.22783000   -5.89684000   -7.35228000
C   -9.48323000   -5.14875000   -7.86258000
H   -8.25084000   -5.91788000   -6.23725000
H   -8.17547000   -2.93534000   -8.90734000
C   -8.20263000   -2.95695000   -7.79237000
C   -9.48779000   -3.69199000   -7.34072000
H   -9.45848000   -5.12929000   -8.97762000
C   -10.74013000   -2.94353000   -7.85703000
C   -12.02726000   -3.67558000   -7.40466000
C   -12.02235000   -5.13871000   -7.92068000
H   -11.99500000   -5.12292000   -9.03573000
H   -10.79141000   -5.90154000   -6.29145000
H   -9.51528000   -3.71149000   -6.22579000
H   -10.71153000   -2.92555000   -8.97194000
H   -12.05441000   -3.69146000   -6.28963000
C   -10.74220000   -1.48642000   -7.33577000
C   -8.20596000   -1.50118000   -7.26697000
C   -9.45485000   -0.75174000   -7.78432000
C   -11.98896000   -0.73597000   -7.85704000
H   -10.77396000   -1.50461000   -6.22093000
H   -8.23565000   -1.52265000   -6.15210000
H   -11.95495000   -0.71930000   -8.97214000
H   -9.42352000   -0.73217000   -8.89938000
C   -13.28448000   -1.46325000   -7.41100000
C   -13.28329000   -2.92595000   -7.92096000
C   -13.30990000   -5.87498000   -7.46661000
C   -14.51244000   -0.69199000   -7.93287000
C   -14.55243000   -3.67228000   -7.46841000
C   -14.54736000   -5.11561000   -7.98108000
H   -14.52594000   -0.69089000   -9.04503000
H   -13.32615000   -1.47554000   -6.29749000
H   -13.26323000   -2.91353000   -9.03508000
H   -14.62825000   -3.67372000   -6.35883000
H   -14.56843000   -5.11374000   -9.09303000
H   -13.34467000   -5.88707000   -6.35291000
C   -14.50474000   0.75316000   -7.42231000
C   -13.22292000   1.47345000   -7.85385000
C   -11.98480000   0.72499000   -7.33827000
C   -10.70081000   1.44967000   -7.77736000
C   -9.45734000   0.70671000   -7.26216000
C   -8.17364000   1.43549000   -7.69936000
H   -14.58620000   0.76068000   -6.31411000
H   -12.01888000   0.72072000   -6.22532000
H   -9.49077000   0.69984000   -6.14929000
H   -13.19933000   1.54420000   -8.96376000
H   -10.66662000   1.51846000   -8.88818000
H   -8.14043000   1.50816000   -8.80990000
C   -8.22281000   5.90509000   -7.87685000
C   -9.50182000   5.16912000   -7.41721000
C   -10.75866000   5.91672000   -7.92695000
H   -8.20223000   5.92596000   -8.99198000
C   -9.49501000   3.71016000   -7.93801000
H   -9.52290000   5.15048000   -6.30197000
C   -10.76925000   2.98079000   -7.48241000
C   -12.02271000   3.71830000   -7.98406000
C   -12.03697000   5.17969000   -7.46671000
H   -9.47604000   3.71608000   -9.05126000
H   -10.73666000   5.93444000   -9.04206000
H   -12.05758000   5.16361000   -6.35127000
H   -12.00226000   3.72190000   -9.09738000
H   -10.78936000   2.91308000   -6.37120000
C   -8.24057000   2.96885000   -7.44091000
H   -8.25825000   2.89802000   -6.32995000
C   -13.30138000   5.92012000   -7.97597000
C   -13.29239000   2.98324000   -7.52981000
C   -14.56154000   5.16204000   -7.51514000
C   -14.54375000   3.71650000   -8.02435000
H   -13.28816000   5.93212000   -9.09022000
H   -14.62987000   5.16190000   -6.40503000
H   -14.57050000   3.70894000   -9.13523000
H   -13.32422000   2.91323000   -6.42005000
C   -3.16734000   -5.88392000   -7.40642000
C   -0.62883000   -5.89684000   -7.35228000
C   -1.88423000   -5.14875000   -7.86258000
H   -0.65184000   -5.91788000   -6.23725000
H   -0.57647000   -2.93534000   -8.90734000
C   -0.60363000   -2.95695000   -7.79237000
C   -1.88879000   -3.69199000   -7.34072000
H   -1.85948000   -5.12929000   -8.97762000
C   -3.14113000   -2.94353000   -7.85703000
C   -4.42826000   -3.67558000   -7.40466000
C   -4.42335000   -5.13871000   -7.92068000
H   -4.39600000   -5.12292000   -9.03573000
H   -3.19241000   -5.90154000   -6.29145000
H   -1.91628000   -3.71149000   -6.22579000
H   -3.11253000   -2.92555000   -8.97194000
H   -4.45541000   -3.69146000   -6.28963000
C   -3.14320000   -1.48642000   -7.33577000
C   -0.60696000   -1.50118000   -7.26697000
C   -1.85585000   -0.75174000   -7.78432000
C   -4.38996000   -0.73597000   -7.85704000
H   -3.17496000   -1.50461000   -6.22093000
H   -0.63665000   -1.52265000   -6.15210000
H   -4.35595000   -0.71930000   -8.97214000
H   -1.82452000   -0.73217000   -8.89938000
C   -5.68548000   -1.46325000   -7.41100000
C   -5.68429000   -2.92595000   -7.92096000
C   -5.71090000   -5.87498000   -7.46661000
C   -6.91344000   -0.69199000   -7.93287000
C   -6.95343000   -3.67228000   -7.46841000
C   -6.94836000   -5.11561000   -7.98108000
H   -6.92694000   -0.69089000   -9.04503000
H   -5.72715000   -1.47554000   -6.29749000
H   -5.66423000   -2.91353000   -9.03508000
H   -7.02925000   -3.67372000   -6.35883000
H   -6.96943000   -5.11374000   -9.09303000
H   -5.74567000   -5.88707000   -6.35291000
C   -6.90574000   0.75316000   -7.42231000
C   -5.62392000   1.47345000   -7.85385000
C   -4.38580000   0.72499000   -7.33827000
C   -3.10181000   1.44967000   -7.77736000
C   -1.85834000   0.70671000   -7.26216000
C   -0.57464000   1.43549000   -7.69936000
H   -6.98720000   0.76068000   -6.31411000
H   -4.41988000   0.72072000   -6.22532000
H   -1.89177000   0.69984000   -6.14929000
H   -5.60033000   1.54420000   -8.96376000
H   -3.06762000   1.51846000   -8.88818000
H   -0.54143000   1.50816000   -8.80990000
C   -0.62381000   5.90509000   -7.87685000
C   -1.90282000   5.16912000   -7.41721000
C   -3.15966000   5.91672000   -7.92695000
H   -0.60323000   5.92596000   -8.99198000
C   -1.89601000   3.71016000   -7.93801000
H   -1.92390000   5.15048000   -6.30197000
C   -3.17025000   2.98079000   -7.48241000
C   -4.42371000   3.71830000   -7.98406000
C   -4.43797000   5.17969000   -7.46671000
H   -1.87704000   3.71608000   -9.05126000
H   -3.13766000   5.93444000   -9.04206000
H   -4.45858000   5.16361000   -6.35127000
H   -4.40326000   3.72190000   -9.09738000
H   -3.19036000   2.91308000   -6.37120000
C   -0.64157000   2.96885000   -7.44091000
H   -0.65925000   2.89802000   -6.32995000
C   -5.70238000   5.92012000   -7.97597000
C   -5.69339000   2.98324000   -7.52981000
C   -6.96254000   5.16204000   -7.51514000
C   -6.94475000   3.71650000   -8.02435000
H   -5.68916000   5.93212000   -9.09022000
H   -7.03087000   5.16190000   -6.40503000
H   -6.97150000   3.70894000   -9.13523000
H   -5.72522000   2.91323000   -6.42005000
C   4.43166000   -5.88392000   -7.40642000
C   6.97017000   -5.89684000   -7.35228000
C   5.71477000   -5.14875000   -7.86258000
H   6.94716000   -5.91788000   -6.23725000
H   7.02253000   -2.93534000   -8.90734000
C   6.99537000   -2.95695000   -7.79237000
C   5.71021000   -3.69199000   -7.34072000
H   5.73952000   -5.12929000   -8.97762000
C   4.45787000   -2.94353000   -7.85703000
C   3.17074000   -3.67558000   -7.40466000
C   3.17565000   -5.13871000   -7.92068000
H   3.20300000   -5.12292000   -9.03573000
H   4.40659000   -5.90154000   -6.29145000
H   5.68272000   -3.71149000   -6.22579000
H   4.48647000   -2.92555000   -8.97194000
H   3.14359000   -3.69146000   -6.28963000
C   4.45580000   -1.48642000   -7.33577000
C   6.99204000   -1.50118000   -7.26697000
C   5.74315000   -0.75174000   -7.78432000
C   3.20904000   -0.73597000   -7.85704000
H   4.42404000   -1.50461000   -6.22093000
H   6.96235000   -1.52265000   -6.15210000
H   3.24305000   -0.71930000   -8.97214000
H   5.77448000   -0.73217000   -8.89938000
C   1.91352000   -1.46325000   -7.41100000
C   1.91471000   -2.92595000   -7.92096000
C   1.88810000   -5.87498000   -7.46661000
C   0.68556000   -0.69199000   -7.93287000
C   0.64557000   -3.67228000   -7.46841000
C   0.65064000   -5.11561000   -7.98108000
H   0.67206000   -0.69089000   -9.04503000
H   1.87185000   -1.47554000   -6.29749000
H   1.93477000   -2.91353000   -9.03508000
H   0.56975000   -3.67372000   -6.35883000
H   0.62957000   -5.11374000   -9.09303000
H   1.85333000   -5.88707000   -6.35291000
C   0.69326000   0.75316000   -7.42231000
C   1.97508000   1.47345000   -7.85385000
C   3.21320000   0.72499000   -7.33827000
C   4.49719000   1.44967000   -7.77736000
C   5.74066000   0.70671000   -7.26216000
C   7.02436000   1.43549000   -7.69936000
H   0.61180000   0.76068000   -6.31411000
H   3.17912000   0.72072000   -6.22532000
H   5.70723000   0.69984000   -6.14929000
H   1.99867000   1.54420000   -8.96376000
H   4.53138000   1.51846000   -8.88818000
H   7.05757000   1.50816000   -8.80990000
C   6.97519000   5.90509000   -7.87685000
C   5.69618000   5.16912000   -7.41721000
C   4.43934000   5.91672000   -7.92695000
H   6.99577000   5.92596000   -8.99198000
C   5.70299000   3.71016000   -7.93801000
H   5.67510000   5.15048000   -6.30197000
C   4.42875000   2.98079000   -7.48241000
C   3.17529000   3.71830000   -7.98406000
C   3.16103000   5.17969000   -7.46671000
H   5.72196000   3.71608000   -9.05126000
H   4.46134000   5.93444000   -9.04206000
H   3.14042000   5.16361000   -6.35127000
H   3.19574000   3.72190000   -9.09738000
H   4.40864000   2.91308000   -6.37120000
C   6.95743000   2.96885000   -7.44091000
H   6.93975000   2.89802000   -6.32995000
C   1.89662000   5.92012000   -7.97597000
C   1.90561000   2.98324000   -7.52981000
C   0.63646000   5.16204000   -7.51514000
C   0.65425000   3.71650000   -8.02435000
H   1.90984000   5.93212000   -9.09022000
H   0.56813000   5.16190000   -6.40503000
H   0.62750000   3.70894000   -9.13523000
H   1.87378000   2.91323000   -6.42005000
C   12.03066000   -5.88392000   -7.40642000
C   14.56917000   -5.89684000   -7.35228000
C   13.31377000   -5.14875000   -7.86258000
H   14.54616000   -5.91788000   -6.23725000
H   14.62153000   -2.93534000   -8.90734000
C   14.59437000   -2.95695000   -7.79237000
C   13.30921000   -3.69199000   -7.34072000
H   13.33852000   -5.12929000   -8.97762000
C   12.05687000   -2.94353000   -7.85703000
C   10.76974000   -3.67558000   -7.40466000
C   10.77465000   -5.13871000   -7.92068000
H   10.80200000   -5.12292000   -9.03573000
H   12.00559000   -5.90154000   -6.29145000
H   13.28172000   -3.71149000   -6.22579000
H   12.08547000   -2.92555000   -8.97194000
H   10.74259000   -3.69146000   -6.28963000
C   12.05480000   -1.48642000   -7.33577000
C   14.59104000   -1.50118000   -7.26697000
C   13.34215000   -0.75174000   -7.78432000
C   10.80804000   -0.73597000   -7.85704000
H   12.02304000   -1.50461000   -6.22093000
H   14.56135000   -1.52265000   -6.15210000
H   10.84205000   -0.71930000   -8.97214000
H   13.37348000   -0.73217000   -8.89938000
C   9.51252000   -1.46325000   -7.41100000
C   9.51371000   -2.92595000   -7.92096000
C   9.48710000   -5.87498000   -7.46661000
C   8.28456000   -0.69199000   -7.93287000
C   8.24457000   -3.67228000   -7.46841000
C   8.24964000   -5.11561000   -7.98108000
H   8.27106000   -0.69089000   -9.04503000
H   9.47085000   -1.47554000   -6.29749000
H   9.53377000   -2.91353000   -9.03508000
H   8.16875000   -3.67372000   -6.35883000
H   8.22857000   -5.11374000   -9.09303000
H   9.45233000   -5.88707000   -6.35291000
C   8.29226000   0.75316000   -7.42231000
C   9.57408000   1.47345000   -7.85385000
C   10.81220000   0.72499000   -7.33827000
C   12.09619000   1.44967000   -7.77736000
C   13.33966000   0.70671000   -7.26216000
C   14.62336000   1.43549000   -7.69936000
H   8.21080000   0.76068000   -6.31411000
H   10.77812000   0.72072000   -6.22532000
H   13.30623000   0.69984000   -6.14929000
H   9.59767000   1.54420000   -8.96376000
H   12.13038000   1.51846000   -8.88818000
H   14.65657000   1.50816000   -8.80990000
C   14.57419000   5.90509000   -7.87685000
C   13.29518000   5.16912000   -7.41721000
C   12.03834000   5.91672000   -7.92695000
H   14.59477000   5.92596000   -8.99198000
C   13.30199000   3.71016000   -7.93801000
H   13.27410000   5.15048000   -6.30197000
C   12.02775000   2.98079000   -7.48241000
C   10.77429000   3.71830000   -7.98406000
C   10.76003000   5.17969000   -7.46671000
H   13.32096000   3.71608000   -9.05126000
H   12.06034000   5.93444000   -9.04206000
H   10.73942000   5.16361000   -6.35127000
H   10.79474000   3.72190000   -9.09738000
H   12.00764000   2.91308000   -6.37120000
C   14.55643000   2.96885000   -7.44091000
H   14.53875000   2.89802000   -6.32995000
C   9.49562000   5.92012000   -7.97597000
C   9.50461000   2.98324000   -7.52981000
C   8.23546000   5.16204000   -7.51514000
C   8.25325000   3.71650000   -8.02435000
H   9.50884000   5.93212000   -9.09022000
H   8.16713000   5.16190000   -6.40503000
H   8.22650000   3.70894000   -9.13523000
H   9.47278000   2.91323000   -6.42005000
C   -10.76634000   -5.88392000   7.59358000
C   -8.22783000   -5.89684000   7.64772000
C   -9.48323000   -5.14875000   7.13742000
H   -8.25084000   -5.91788000   8.76275000
H   -8.17547000   -2.93534000   6.09266000
C   -8.20263000   -2.95695000   7.20763000
C   -9.48779000   -3.69199000   7.65928000
H   -9.45848000   -5.12929000   6.02238000
C   -10.74013000   -2.94353000   7.14297000
C   -12.02726000   -3.67558000   7.59534000
C   -12.02235000   -5.13871000   7.07932000
H   -11.99500000   -5.12292000   5.96427000
H   -10.79141000   -5.90154000   8.70855000
H   -9.51528000   -3.71149000   8.77421000
H   -10.71153000   -2.92555000   6.02806000
H   -12.05441000   -3.69146000   8.71037000
C   -10.74220000   -1.48642000   7.66423000
C   -8.20596000   -1.50118000   7.73303000
C   -9.45485000   -0.75174000   7.21568000
C   -11.98896000   -0.73597000   7.14296000
H   -10.77396000   -1.50461000   8.77907000
H   -8.23565000   -1.52265000   8.84790000
H   -11.95495000   -0.71930000   6.02786000
H   -9.42352000   -0.73217000   6.10062000
C   -13.28448000   -1.46325000   7.58900000
C   -13.28329000   -2.92595000   7.07904000
C   -13.30990000   -5.87498000   7.53339000
C   -14.51244000   -0.69199000   7.06713000
C   -14.55243000   -3.67228000   7.53159000
C   -14.54736000   -5.11561000   7.01892000
H   -14.52594000   -0.69089000   5.95497000
H   -13.32615000   -1.47554000   8.70251000
H   -13.26323000   -2.91353000   5.96492000
H   -14.62825000   -3.67372000   8.64117000
H   -14.56843000   -5.11374000   5.90697000
H   -13.34467000   -5.88707000   8.64709000
C   -14.50474000   0.75316000   7.57769000
C   -13.22292000   1.47345000   7.14615000
C   -11.98480000   0.72499000   7.66173000
C   -10.70081000   1.44967000   7.22264000
C   -9.45734000   0.70671000   7.73784000
C   -8.17364000   1.43549000   7.30064000
H   -14.58620000   0.76068000   8.68589000
H   -12.01888000   0.72072000   8.77468000
H   -9.49077000   0.69984000   8.85071000
H   -13.19933000   1.54420000   6.03624000
H   -10.66662000   1.51846000   6.11182000
H   -8.14043000   1.50816000   6.19010000
C   -8.22281000   5.90509000   7.12315000
C   -9.50182000   5.16912000   7.58279000
C   -10.75866000   5.91672000   7.07305000
H   -8.20223000   5.92596000   6.00802000
C   -9.49501000   3.71016000   7.06199000
H   -9.52290000   5.15048000   8.69803000
C   -10.76925000   2.98079000   7.51759000
C   -12.02271000   3.71830000   7.01594000
C   -12.03697000   5.17969000   7.53329000
H   -9.47604000   3.71608000   5.94874000
H   -10.73666000   5.93444000   5.95794000
H   -12.05758000   5.16361000   8.64873000
H   -12.00226000   3.72190000   5.90262000
H   -10.78936000   2.91308000   8.62880000
C   -8.24057000   2.96885000   7.55909000
H   -8.25825000   2.89802000   8.67005000
C   -13.30138000   5.92012000   7.02403000
C   -13.29239000   2.98324000   7.47019000
C   -14.56154000   5.16204000   7.48486000
C   -14.54375000   3.71650000   6.97565000
H   -13.28816000   5.93212000   5.90978000
H   -14.62987000   5.16190000   8.59497000
H   -14.57050000   3.70894000   5.86477000
H   -13.32422000   2.91323000   8.57995000
C   -3.16734000   -5.88392000   7.59358000
C   -0.62883000   -5.89684000   7.64772000
C   -1.88423000   -5.14875000   7.13742000
H   -0.65184000   -5.91788000   8.76275000
H   -0.57647000   -2.93534000   6.09266000
C   -0.60363000   -2.95695000   7.20763000
C   -1.88879000   -3.69199000   7.65928000
H   -1.85948000   -5.12929000   6.02238000
C   -3.14113000   -2.94353000   7.14297000
C   -4.42826000   -3.67558000   7.59534000
C   -4.42335000   -5.13871000   7.07932000
H   -4.39600000   -5.12292000   5.96427000
H   -3.19241000   -5.90154000   8.70855000
H   -1.91628000   -3.71149000   8.77421000
H   -3.11253000   -2.92555000   6.02806000
H   -4.45541000   -3.69146000   8.71037000
C   -3.14320000   -1.48642000   7.66423000
C   -0.60696000   -1.50118000   7.73303000
C   -1.85585000   -0.75174000   7.21568000
C   -4.38996000   -0.73597000   7.14296000
H   -3.17496000   -1.50461000   8.77907000
H   -0.63665000   -1.52265000   8.84790000
H   -1.82452000   -0.73217000   6.10062000
C   -5.68548000   -1.46325000   7.58900000
C   -5.68429000   -2.92595000   7.07904000
C   -5.71090000   -5.87498000   7.53339000
C   -6.91344000   -0.69199000   7.06713000
C   -6.95343000   -3.67228000   7.53159000
C   -6.94836000   -5.11561000   7.01892000
H   -6.92694000   -0.69089000   5.95497000
H   -5.72715000   -1.47554000   8.70251000
H   -5.66423000   -2.91353000   5.96492000
H   -7.02925000   -3.67372000   8.64117000
H   -6.96943000   -5.11374000   5.90697000
H   -5.74567000   -5.88707000   8.64709000
C   -6.90574000   0.75316000   7.57769000
C   -5.62392000   1.47345000   7.14615000
C   -4.38580000   0.72499000   7.66173000
C   -3.10181000   1.44967000   7.22264000
C   -1.85834000   0.70671000   7.73784000
C   -0.57464000   1.43549000   7.30064000
H   -6.98720000   0.76068000   8.68589000
H   -4.41988000   0.72072000   8.77468000
H   -1.89177000   0.69984000   8.85071000
H   -5.60033000   1.54420000   6.03624000
H   -3.06762000   1.51846000   6.11182000
H   -0.54143000   1.50816000   6.19010000
C   -0.62381000   5.90509000   7.12315000
C   -1.90282000   5.16912000   7.58279000
C   -3.15966000   5.91672000   7.07305000
H   -0.60323000   5.92596000   6.00802000
C   -1.89601000   3.71016000   7.06199000
H   -1.92390000   5.15048000   8.69803000
C   -3.17025000   2.98079000   7.51759000
C   -4.42371000   3.71830000   7.01594000
C   -4.43797000   5.17969000   7.53329000
H   -1.87704000   3.71608000   5.94874000
H   -3.13766000   5.93444000   5.95794000
H   -4.45858000   5.16361000   8.64873000
H   -4.40326000   3.72190000   5.90262000
H   -3.19036000   2.91308000   8.62880000
C   -0.64157000   2.96885000   7.55909000
H   -0.65925000   2.89802000   8.67005000
C   -5.70238000   5.92012000   7.02403000
C   -5.69339000   2.98324000   7.47019000
C   -6.96254000   5.16204000   7.48486000
C   -6.94475000   3.71650000   6.97565000
H   -5.68916000   5.93212000   5.90978000
H   -7.03087000   5.16190000   8.59497000
H   -6.97150000   3.70894000   5.86477000
H   -5.72522000   2.91323000   8.57995000
C   4.43166000   -5.88392000   7.59358000
C   6.97017000   -5.89684000   7.64772000
C   5.71477000   -5.14875000   7.13742000
H   6.94716000   -5.91788000   8.76275000
H   7.02253000   -2.93534000   6.09266000
C   6.99537000   -2.95695000   7.20763000
C   5.71021000   -3.69199000   7.65928000
H   5.73952000   -5.12929000   6.02238000
C   4.45787000   -2.94353000   7.14297000
C   3.17074000   -3.67558000   7.59534000
C   3.17565000   -5.13871000   7.07932000
H   3.20300000   -5.12292000   5.96427000
H   4.40659000   -5.90154000   8.70855000
H   5.68272000   -3.71149000   8.77421000
H   4.48647000   -2.92555000   6.02806000
H   3.14359000   -3.69146000   8.71037000
C   4.45580000   -1.48642000   7.66423000
C   6.99204000   -1.50118000   7.73303000
C   5.74315000   -0.75174000   7.21568000
C   3.20904000   -0.73597000   7.14296000
H   4.42404000   -1.50461000   8.77907000
H   6.96235000   -1.52265000   8.84790000
H   3.24305000   -0.71930000   6.02786000
C   1.91352000   -1.46325000   7.58900000
C   1.91471000   -2.92595000   7.07904000
C   1.88810000   -5.87498000   7.53339000
C   0.68556000   -0.69199000   7.06713000
C   0.64557000   -3.67228000   7.53159000
C   0.65064000   -5.11561000   7.01892000
H   0.67206000   -0.69089000   5.95497000
H   1.87185000   -1.47554000   8.70251000
H   1.93477000   -2.91353000   5.96492000
H   0.56975000   -3.67372000   8.64117000
H   0.62957000   -5.11374000   5.90697000
H   1.85333000   -5.88707000   8.64709000
C   0.69326000   0.75316000   7.57769000
C   1.97508000   1.47345000   7.14615000
C   3.21320000   0.72499000   7.66173000
C   4.49719000   1.44967000   7.22264000
C   5.74066000   0.70671000   7.73784000
C   7.02436000   1.43549000   7.30064000
H   0.61180000   0.76068000   8.68589000
H   3.17912000   0.72072000   8.77468000
H   5.70723000   0.69984000   8.85071000
H   1.99867000   1.54420000   6.03624000
H   4.53138000   1.51846000   6.11182000
H   7.05757000   1.50816000   6.19010000
C   6.97519000   5.90509000   7.12315000
C   5.69618000   5.16912000   7.58279000
C   4.43934000   5.91672000   7.07305000
H   6.99577000   5.92596000   6.00802000
C   5.70299000   3.71016000   7.06199000
H   5.67510000   5.15048000   8.69803000
C   4.42875000   2.98079000   7.51759000
C   3.17529000   3.71830000   7.01594000
C   3.16103000   5.17969000   7.53329000
H   5.72196000   3.71608000   5.94874000
H   4.46134000   5.93444000   5.95794000
H   3.14042000   5.16361000   8.64873000
H   3.19574000   3.72190000   5.90262000
H   4.40864000   2.91308000   8.62880000
C   6.95743000   2.96885000   7.55909000
H   6.93975000   2.89802000   8.67005000
C   1.89662000   5.92012000   7.02403000
C   1.90561000   2.98324000   7.47019000
C   0.63646000   5.16204000   7.48486000
C   0.65425000   3.71650000   6.97565000
H   1.90984000   5.93212000   5.90978000
H   0.56813000   5.16190000   8.59497000
H   0.62750000   3.70894000   5.86477000
H   1.87378000   2.91323000   8.57995000
C   12.03066000   -5.88392000   7.59358000
C   14.56917000   -5.89684000   7.64772000
C   13.31377000   -5.14875000   7.13742000
H   14.54616000   -5.91788000   8.76275000
H   14.62153000   -2.93534000   6.09266000
C   14.59437000   -2.95695000   7.20763000
C   13.30921000   -3.69199000   7.65928000
H   13.33852000   -5.12929000   6.02238000
C   12.05687000   -2.94353000   7.14297000
C   10.76974000   -3.67558000   7.59534000
C   10.77465000   -5.13871000   7.07932000
H   10.80200000   -5.12292000   5.96427000
H   12.00559000   -5.90154000   8.70855000
H   13.28172000   -3.71149000   8.77421000
H   12.08547000   -2.92555000   6.02806000
H   10.74259000   -3.69146000   8.71037000
C   12.05480000   -1.48642000   7.66423000
C   14.59104000   -1.50118000   7.73303000
C   13.34215000   -0.75174000   7.21568000
C   10.80804000   -0.73597000   7.14296000
H   12.02304000   -1.50461000   8.77907000
H   14.56135000   -1.52265000   8.84790000
H   10.84205000   -0.71930000   6.02786000
H   13.37348000   -0.73217000   6.10062000
C   9.51252000   -1.46325000   7.58900000
C   9.51371000   -2.92595000   7.07904000
C   9.48710000   -5.87498000   7.53339000
C   8.28456000   -0.69199000   7.06713000
C   8.24457000   -3.67228000   7.53159000
C   8.24964000   -5.11561000   7.01892000
H   8.27106000   -0.69089000   5.95497000
H   9.47085000   -1.47554000   8.70251000
H   9.53377000   -2.91353000   5.96492000
H   8.16875000   -3.67372000   8.64117000
H   8.22857000   -5.11374000   5.90697000
H   9.45233000   -5.88707000   8.64709000
C   8.29226000   0.75316000   7.57769000
C   9.57408000   1.47345000   7.14615000
C   10.81220000   0.72499000   7.66173000
C   12.09619000   1.44967000   7.22264000
C   13.33966000   0.70671000   7.73784000
C   14.62336000   1.43549000   7.30064000
H   8.21080000   0.76068000   8.68589000
H   10.77812000   0.72072000   8.77468000
H   13.30623000   0.69984000   8.85071000
H   9.59767000   1.54420000   6.03624000
H   12.13038000   1.51846000   6.11182000
H   14.65657000   1.50816000   6.19010000
C   14.57419000   5.90509000   7.12315000
C   13.29518000   5.16912000   7.58279000
C   12.03834000   5.91672000   7.07305000
H   14.59477000   5.92596000   6.00802000
C   13.30199000   3.71016000   7.06199000
H   13.27410000   5.15048000   8.69803000
C   12.02775000   2.98079000   7.51759000
C   10.77429000   3.71830000   7.01594000
C   10.76003000   5.17969000   7.53329000
H   13.32096000   3.71608000   5.94874000
H   12.06034000   5.93444000   5.95794000
H   10.73942000   5.16361000   8.64873000
H   10.79474000   3.72190000   5.90262000
H   12.00764000   2.91308000   8.62880000
C   14.55643000   2.96885000   7.55909000
H   14.53875000   2.89802000   8.67005000
C   9.49562000   5.92012000   7.02403000
C   9.50461000   2.98324000   7.47019000
C   8.23546000   5.16204000   7.48486000
C   8.25325000   3.71650000   6.97565000
H   9.50884000   5.93212000   5.90978000
H   8.16713000   5.16190000   8.59497000
H   8.22650000   3.70894000   5.86477000
H   9.47278000   2.91323000   8.57995000
N   -3.58206397   -0.16722999   2.97532739
C   -4.29673888   -0.76388396   5.44570511
H   -5.28260446   -0.82291618   5.04826302
H   -3.86986075   -1.74667486   5.14835050
C   -3.58056569   0.23489598   4.53833032
H   -2.49294482   0.25827657   4.75497673
H   -3.88083814   1.32888120   4.61426852
C   -3.43726933   1.04301646   2.10648834
H   -4.24341698   1.80758612   2.28796430
H   -2.44202489   1.42667619   2.22347601
H   -3.52958483   0.74265715   1.12404036
C   -4.87158333   -0.87078933   2.65568193
H   -5.11541469   -0.82551455   1.59818557
H   -4.78326763   -1.90958247   2.95806702
H   -5.69792220   -0.29328432   3.19366884
C   -2.35535899   -1.06545678   2.75731123
H   -2.22028015   -1.34162670   1.67869217
H   -1.45008514   -0.61597003   3.15233528
H   -2.56578044   -1.97634978   3.20365945
N   6.94782205   -2.08496328   -0.74863488
C   5.73833362   -0.76837786   5.49059264
H   4.71847476   -0.91126202   5.20106686
H   6.24831615   -1.71396233   5.25109937
C   6.24113495   0.24257744   4.48596357
H   5.80695368   1.24716321   4.66723550
H   7.32176572   0.17981529   4.42053858
C   5.69689913   -0.01329160   3.04187975
H   4.61012405   0.31825402   3.09133352
H   5.63311252   -1.11350747   2.73393064
C   6.53086036   0.71567533   2.00572048
H   6.23795076   1.77723728   2.15724201
H   7.54742702   0.61067719   2.32193002
C   6.30610898   0.09290346   0.60184771
H   6.62244730   0.78508518   -0.15047869
H   5.21922421   -0.00070973   0.48522454
C   7.00791979   -1.35383080   0.58077566
H   6.46921737   -2.04096484   1.28080156
H   7.98603825   -1.27391943   0.89199686
C   7.03895829   -3.59309349   -0.49776677
H   6.92925457   -3.98032161   -1.42430497
H   6.09518314   -3.79631124   0.00278045
H   8.01127320   -3.89283199   -0.04895784
C   8.16577155   -1.57747708   -1.46476033
H   8.24736953   -2.04784278   -2.45011975
H   8.92889862   -2.00166960   -0.87105000
H   8.09589453   -0.50695007   -1.40744199
C   5.72824511   -1.80139418   -1.58034100
H   4.82225343   -1.76960876   -1.01123015
H   5.72508935   -2.56544315   -2.38258902
H   5.89401799   -0.77595451   -2.02232127
O   1.16060000   3.70447482   2.88229323
H   1.01378108   4.47301637   2.28239168
H   1.33456135   3.02918886   2.24686817
O   -8.49322548   -28.18301076   1.04258068
H   -8.71706853   -28.18406025   0.08307353
H   -8.20336085   -27.29849868   1.23089004
O   -10.91565531   -16.83305963   0.76690119
H   -11.38936656   -16.46402205   0.00003191
H   -10.30860801   -16.23075292   1.22803180
O   8.33953807   -19.28249153   0.84068890
H   8.57980553   -19.65956453   1.72348522
H   9.23704662   -19.25478493   0.46996784
O   10.98006373   -0.66111630   -0.40372782
H   11.40706511   -14.87449709   -0.11200848
H   10.66832785   -0.33503081   0.44980153
O   -31.71390391   -36.11838706   -2.35581451
H   -31.48883996   -36.77957602   -1.75085908
H   -32.68261255   -36.13242351   -2.56452804
O   -4.42338194   -1.14068958   -3.70852475
H   -4.43667362   12.90441473   -4.44871824
H   -3.48736315   -1.30053691   -3.52859786
O   -28.94871181   -35.73683090   -4.05678459
H   -28.42872089   -35.25829931   -3.37321830
H   -29.85395316   -35.80958911   -3.67105325
O   -18.03145961   7.49298610   2.63651616
H   -17.08405737   7.40180760   2.41134841
H   -18.17028854   8.42440680   2.39933619
O   9.81102151   10.60610610   1.15282059
H   10.54030447   23.48742609   0.80584788
H   9.86458968   10.45880692   2.08492855
O   -21.13887474   5.44113455   -1.47719335
H   -21.30660455   6.09606827   -0.84851207
H   -20.33589784   5.67263230   -1.88281295
O   -16.48927847   2.74070112   -3.47522710
H   -15.64400266   3.04869055   -3.81085097
H   -24.05528008   -20.37100067   2.52329129
O   1.12190119   -13.30733891   2.29331576
H   0.64715585   -0.73795630   2.10367715
H   1.81402005   -13.23364884   1.63235847
O   -3.76418059   -2.78295050   -0.74362174
H   -3.00295360   -2.27986821   -0.44131825
H   -3.97673169   -2.23061738   -1.48753602
O   -16.08788736   -6.17883212   -0.94207682
H   -16.80250366   -5.72348348   -0.56633159
H   -15.58915385   -5.59436141   -1.50730049
O   -4.77347147   9.41575864   1.76373757
H   -4.66704223   9.90315994   0.93671090
H   -5.43235425   8.69824096   1.54576753
O   17.95466748   10.64040731   -3.21007716
H   17.26779170   11.19244267   -2.89473079
H   5.18334615   -20.51182514   -2.46391567
O   -4.82214893   3.47838651   -3.65551757
H   -4.47883835   4.41359792   -3.79526988
H   -4.10736494   2.96159765   -3.30500755
O   -1.69046383   -0.97615104   -3.04474647
H   -1.56268756   -1.01219073   -2.02696497
H   -0.93507951   -1.50701513   -3.24986612
O   -1.68413634   -5.67224785   -1.82226447
H   -2.59275013   -5.44066317   -1.76233659
H   -1.57573819   -6.28470755   -1.05248279
O   11.28369416   -13.37988937   2.71323766
H   11.18627510   -13.15312596   3.61899127
H   11.80105779   -14.18699135   2.57583752
O   12.64180879   -3.54564982   0.25805902
H   19.14682301   -1.52687826   2.92718872
H   13.22943278   -4.23756908   0.58141231
O   -11.03458666   5.28526376   3.16718500
H   -11.29688474   5.41726903   2.27760908
H   -11.63879476   4.74424512   3.57928172
O   32.43475762   -11.10920826   -2.09367182
H   32.54719213   -12.06274433   -2.25689819
H   32.63870732   -10.66250478   -2.94837831
O   15.26460217   -32.92185063   2.81625336
H   16.10214415   -32.37843008   2.90195383
H   15.46512073   -33.83936206   3.07875874
O   6.92790653   -22.82194484   0.52093267
H   7.23924184   -23.44709112   1.21419711
H   7.36640874   -21.95623234   0.69464553
O   -10.65332988   -27.57927478   3.17783749
H   -12.79764771   -3.64115264   -3.37485758
H   -9.97859083   -27.33776594   2.46785136
O   -0.83806091   -12.10390297   -0.64028964
H   -1.05280754   -13.02516111   -0.65479844
H   0.11901014   -12.16120024   -0.88738904
O   3.36466995   10.45506061   1.83903192
H   4.26606151   10.07880703   2.03143844
H   3.19299917   11.35796973   1.48924927
O   -14.51027778   -23.48046369   1.04632327
H   -14.86978564   -23.68220423   0.16295229
H   -15.05183655   -23.74109343   1.76189627
O   -23.42549294   -30.86005770   -3.74069143
H   -22.90930639   -31.32560510   -4.39619460
H   -16.02599202   -27.75400675   0.96725143
O   -19.46017220   7.93818723   -0.08993418
H   -19.55325022   7.84396430   -1.01152059
H   -18.72897157   8.64045827   -0.01627808
O   -13.03818817   3.35199598   3.69719447
H   -12.49837652   2.53914466   3.55220649
H   -13.66937986   3.47704121   2.99011816
O   15.05761401   -16.97926130   -1.41668703
H   15.51948465   -16.45045680   -0.80027022
H   14.13838495   -17.05201797   -1.11462928
O   30.54618584   10.94001370   1.61734361
H   31.31802600   10.44540574   1.37208597
H   30.19720970   11.33034395   0.79719554
O   6.67333528   -17.25246453   2.40867506
H   7.51033870   -17.09831437   2.82391395
H   6.33395060   -18.13617715   2.55313558
O   -23.71313600   17.65662492   -2.84915408
H   -23.79980611   17.04854991   -2.13411322
H   -22.93884621   18.19336389   -2.58020011
O   -9.77413128   -12.14395432   -0.79577783
H   -9.22887442   -11.41952858   -1.10576283
H   -9.14175173   -12.76432072   -0.38323961
O   6.84217674   1.21777845   -2.95101874
H   7.48520364   1.94177457   -2.97017490
H   6.42546865   1.20064994   -3.83661632
O   7.51291746   4.75246045   3.34025448
H   7.45893486   5.50114409   3.94746906
H   8.41008986   4.43565699   3.37095614
O   -7.29973765   3.10442347   -2.05147065
H   -0.28602960   2.62892120   3.27850484
H   -7.18099245   3.52606683   -1.17758377
O   9.47395937   -10.85845838   1.62160681
H   9.75341110   -11.80352550   1.66765014
H   10.29345112   -10.41244921   1.88313717
O   -29.35834652   26.00987992   -2.04837562
H   -28.96698138   25.20052615   -2.49915011
H   -30.08238964   25.74472660   -1.41253694
O   -6.81669475   -22.81049215   0.79550081
H   -7.60446317   -22.70731378   1.34944989
H   -6.09936260   -22.61276687   1.41070491
O   -17.92483564   -15.75369749   2.55629189
H   -17.02293721   -15.79006623   2.86985864
H   -17.82337646   -16.13777171   1.57359029
O   -10.79725188   12.20103994   -1.39721628
H   -9.98107065   11.71468310   -1.56390169
H   -10.82697706   12.91438624   -2.03962073
O   -0.34606542   23.08298268   -3.80163253
H   0.24297625   22.45120704   -4.31841890
H   -1.11136769   22.59162709   -3.46678345
O   1.16490846   -33.62527733   -2.37104895
H   0.16549514   -33.52626771   -2.44364802
H   1.56069088   -32.82028903   -2.05087317
O   -17.30229252   -8.98309996   -1.45164818
H   -16.96265674   -8.11959090   -1.21516206
H   -17.20600613   -9.14547799   -2.40633598
O   -6.40548766   15.09233777   3.53213203
H   -7.10238486   15.20367079   4.17585279
H   -6.64416814   15.56037999   2.72005719
O   -1.03369729   11.84450315   -0.55286631
H   -6.43529611   3.19072805   -2.51071396
H   -1.02827294   10.95219210   -0.95224734
O   -16.74260711   1.89850148   3.53141172
H   -17.40728004   1.57913854   2.91495451
H   -16.27523253   1.18294635   3.95591355
O   -19.58700283   2.66500606   -2.79389085
H   -18.82735945   2.97590252   -3.37000251
H   -19.27489154   2.92557030   -1.92721068
O   -15.18943838   -13.14884210   -1.93228826
H   -14.89242727   -12.39717931   -1.36040910
H   -15.77955136   -13.71163279   -1.44546916
O   -32.31002448   5.50696704   0.09627134
H   -31.85664926   5.03133855   -0.57323070
H   -31.73803342   5.41379225   0.85079394
O   -17.62496765   -11.18802404   0.31449240
H   -17.39295079   -10.45865715   -0.24975319
H   -17.40851638   -12.02125046   -0.09153014
O   -18.32346810   13.42147126   -3.03651635
H   -18.07680106   13.06797256   -2.17634694
H   -19.00358667   14.09064238   -2.93396555
O   4.20073888   18.03307669   2.40712484
H   4.14940952   18.31147880   3.33022163
H   5.14081068   17.79369709   2.34653869
O   -2.80191306   -7.19928119   2.93238287
H   -2.13128907   -7.19904338   2.27766973
H   -3.15539007   -6.34737466   3.02552598
O   1.79575224   10.01306312   -1.90040937
H   1.62582914   9.83021138   -1.02801264
H   0.96080729   9.93963795   -2.41963380
O   5.22875752   -19.55170822   -2.42008910
H   4.91145750   -19.32272490   -1.59128814
H   -5.81476110   -13.71320426   -2.48942032
O   23.44941836   -39.33435412   0.39165944
H   23.43056882   -39.60496014   -0.57462744
H   23.24934292   -38.37774947   0.35568924
O   -6.70440918   -13.43103370   -2.21595888
H   -24.14864191   -31.41981754   -3.45646279
H   -7.25899784   -13.39071907   -2.98277246
O   1.16709410   3.90964564   0.10051019
H   0.83548559   3.14422391   -0.36876777
H   1.85140399   4.17219143   -0.47653596
O   -16.66728380   -27.77793033   0.25352077
H   -4.26886346   5.03680830   2.98018984
H   -17.24229711   -28.54374782   0.35549690
O   -2.76265605   -11.68125522   -2.76141452
H   -1.88751613   -11.66796598   -2.25773983
H   -2.77371797   -12.57503930   -3.09335938
O   -19.23955109   -17.34520535   -2.68309469
H   -18.70609817   -16.72447628   -2.20154472
H   -19.84052479   -16.80451171   -3.20702932
O   -32.33633005   -4.76104633   1.64257338
H   -33.21524625   -4.34815907   1.75307009
H   -31.66736207   -4.12570705   1.58292615
O   10.05601068   19.12600135   3.26175020
H   10.60944392   18.44713140   3.68765852
H   10.69677815   6.45390326   2.96767732
O   33.55249264   -0.33220131   -0.49142244
H   32.79732996   -0.57659539   -1.11576919
H   33.76166307   0.56079658   -0.78766626
O   -0.84370364   1.80552393   3.24645511
H   -0.24368224   1.21606117   2.73650975
H   -16.46605780   1.83145998   -3.33741734
O   -10.12652747   -11.32649309   2.88159208
H   -10.30596030   -11.89393628   3.68121472
H   -9.87082514   -11.85306222   2.10208283
O   -5.79242301   33.61178783   0.67370478
H   -6.62886446   33.25153486   0.40279421
H   -5.17936282   32.84445014   0.56189390
O   -8.49297540   -8.96565004   3.17635145
H   -9.41816488   -9.23761197   3.27700571
H   -8.50553671   -8.03474554   3.37870595
O   -24.80810668   -19.74890356   2.65116658
H   -25.45185568   -20.08909366   2.02189613
O   -5.14206109   4.58302511   2.97995286
H   -4.94946852   3.71271028   3.42649637
