850

C   -10.76634000   -5.88392000   -7.40642000
C   -8.22783000   -5.89684000   -7.35228000
C   -9.48323000   -5.14875000   -7.86258000
H   -8.25084000   -5.91788000   -6.23725000
H   -8.17547000   -2.93534000   -8.90734000
C   -8.20263000   -2.95695000   -7.79237000
C   -9.48779000   -3.69199000   -7.34072000
H   -9.45848000   -5.12929000   -8.97762000
C   -10.74013000   -2.94353000   -7.85703000
C   -12.02726000   -3.67558000   -7.40466000
C   -12.02235000   -5.13871000   -7.92068000
H   -11.99500000   -5.12292000   -9.03573000
H   -10.79141000   -5.90154000   -6.29145000
H   -9.51528000   -3.71149000   -6.22579000
H   -10.71153000   -2.92555000   -8.97194000
H   -12.05441000   -3.69146000   -6.28963000
C   -10.74220000   -1.48642000   -7.33577000
C   -8.20596000   -1.50118000   -7.26697000
C   -9.45485000   -0.75174000   -7.78432000
C   -11.98896000   -0.73597000   -7.85704000
H   -10.77396000   -1.50461000   -6.22093000
H   -8.23565000   -1.52265000   -6.15210000
H   -11.95495000   -0.71930000   -8.97214000
H   -9.42352000   -0.73217000   -8.89938000
C   -13.28448000   -1.46325000   -7.41100000
C   -13.28329000   -2.92595000   -7.92096000
C   -13.30990000   -5.87498000   -7.46661000
C   -14.51244000   -0.69199000   -7.93287000
C   -14.55243000   -3.67228000   -7.46841000
C   -14.54736000   -5.11561000   -7.98108000
H   -14.52594000   -0.69089000   -9.04503000
H   -13.32615000   -1.47554000   -6.29749000
H   -13.26323000   -2.91353000   -9.03508000
H   -14.62825000   -3.67372000   -6.35883000
H   -14.56843000   -5.11374000   -9.09303000
H   -13.34467000   -5.88707000   -6.35291000
C   -14.50474000   0.75316000   -7.42231000
C   -13.22292000   1.47345000   -7.85385000
C   -11.98480000   0.72499000   -7.33827000
C   -10.70081000   1.44967000   -7.77736000
C   -9.45734000   0.70671000   -7.26216000
C   -8.17364000   1.43549000   -7.69936000
H   -14.58620000   0.76068000   -6.31411000
H   -12.01888000   0.72072000   -6.22532000
H   -9.49077000   0.69984000   -6.14929000
H   -13.19933000   1.54420000   -8.96376000
H   -10.66662000   1.51846000   -8.88818000
H   -8.14043000   1.50816000   -8.80990000
C   -8.22281000   5.90509000   -7.87685000
C   -9.50182000   5.16912000   -7.41721000
C   -10.75866000   5.91672000   -7.92695000
H   -8.20223000   5.92596000   -8.99198000
C   -9.49501000   3.71016000   -7.93801000
H   -9.52290000   5.15048000   -6.30197000
C   -10.76925000   2.98079000   -7.48241000
C   -12.02271000   3.71830000   -7.98406000
C   -12.03697000   5.17969000   -7.46671000
H   -9.47604000   3.71608000   -9.05126000
H   -10.73666000   5.93444000   -9.04206000
H   -12.05758000   5.16361000   -6.35127000
H   -12.00226000   3.72190000   -9.09738000
H   -10.78936000   2.91308000   -6.37120000
C   -8.24057000   2.96885000   -7.44091000
H   -8.25825000   2.89802000   -6.32995000
C   -13.30138000   5.92012000   -7.97597000
C   -13.29239000   2.98324000   -7.52981000
C   -14.56154000   5.16204000   -7.51514000
C   -14.54375000   3.71650000   -8.02435000
H   -13.28816000   5.93212000   -9.09022000
H   -14.62987000   5.16190000   -6.40503000
H   -14.57050000   3.70894000   -9.13523000
H   -13.32422000   2.91323000   -6.42005000
C   -3.16734000   -5.88392000   -7.40642000
C   -0.62883000   -5.89684000   -7.35228000
C   -1.88423000   -5.14875000   -7.86258000
H   -0.65184000   -5.91788000   -6.23725000
H   -0.57647000   -2.93534000   -8.90734000
C   -0.60363000   -2.95695000   -7.79237000
C   -1.88879000   -3.69199000   -7.34072000
H   -1.85948000   -5.12929000   -8.97762000
C   -3.14113000   -2.94353000   -7.85703000
C   -4.42826000   -3.67558000   -7.40466000
C   -4.42335000   -5.13871000   -7.92068000
H   -4.39600000   -5.12292000   -9.03573000
H   -3.19241000   -5.90154000   -6.29145000
H   -1.91628000   -3.71149000   -6.22579000
H   -3.11253000   -2.92555000   -8.97194000
H   -4.45541000   -3.69146000   -6.28963000
C   -3.14320000   -1.48642000   -7.33577000
C   -0.60696000   -1.50118000   -7.26697000
C   -1.85585000   -0.75174000   -7.78432000
C   -4.38996000   -0.73597000   -7.85704000
H   -3.17496000   -1.50461000   -6.22093000
H   -0.63665000   -1.52265000   -6.15210000
H   -4.35595000   -0.71930000   -8.97214000
H   -1.82452000   -0.73217000   -8.89938000
C   -5.68548000   -1.46325000   -7.41100000
C   -5.68429000   -2.92595000   -7.92096000
C   -5.71090000   -5.87498000   -7.46661000
C   -6.91344000   -0.69199000   -7.93287000
C   -6.95343000   -3.67228000   -7.46841000
C   -6.94836000   -5.11561000   -7.98108000
H   -6.92694000   -0.69089000   -9.04503000
H   -5.72715000   -1.47554000   -6.29749000
H   -5.66423000   -2.91353000   -9.03508000
H   -7.02925000   -3.67372000   -6.35883000
H   -6.96943000   -5.11374000   -9.09303000
H   -5.74567000   -5.88707000   -6.35291000
C   -6.90574000   0.75316000   -7.42231000
C   -5.62392000   1.47345000   -7.85385000
C   -4.38580000   0.72499000   -7.33827000
C   -3.10181000   1.44967000   -7.77736000
C   -1.85834000   0.70671000   -7.26216000
C   -0.57464000   1.43549000   -7.69936000
H   -6.98720000   0.76068000   -6.31411000
H   -4.41988000   0.72072000   -6.22532000
H   -1.89177000   0.69984000   -6.14929000
H   -5.60033000   1.54420000   -8.96376000
H   -3.06762000   1.51846000   -8.88818000
H   -0.54143000   1.50816000   -8.80990000
C   -0.62381000   5.90509000   -7.87685000
C   -1.90282000   5.16912000   -7.41721000
C   -3.15966000   5.91672000   -7.92695000
H   -0.60323000   5.92596000   -8.99198000
C   -1.89601000   3.71016000   -7.93801000
H   -1.92390000   5.15048000   -6.30197000
C   -3.17025000   2.98079000   -7.48241000
C   -4.42371000   3.71830000   -7.98406000
C   -4.43797000   5.17969000   -7.46671000
H   -1.87704000   3.71608000   -9.05126000
H   -3.13766000   5.93444000   -9.04206000
H   -4.45858000   5.16361000   -6.35127000
H   -4.40326000   3.72190000   -9.09738000
H   -3.19036000   2.91308000   -6.37120000
C   -0.64157000   2.96885000   -7.44091000
H   -0.65925000   2.89802000   -6.32995000
C   -5.70238000   5.92012000   -7.97597000
C   -5.69339000   2.98324000   -7.52981000
C   -6.96254000   5.16204000   -7.51514000
C   -6.94475000   3.71650000   -8.02435000
H   -5.68916000   5.93212000   -9.09022000
H   -7.03087000   5.16190000   -6.40503000
H   -6.97150000   3.70894000   -9.13523000
H   -5.72522000   2.91323000   -6.42005000
C   4.43166000   -5.88392000   -7.40642000
C   6.97017000   -5.89684000   -7.35228000
C   5.71477000   -5.14875000   -7.86258000
H   6.94716000   -5.91788000   -6.23725000
H   7.02253000   -2.93534000   -8.90734000
C   6.99537000   -2.95695000   -7.79237000
C   5.71021000   -3.69199000   -7.34072000
H   5.73952000   -5.12929000   -8.97762000
C   4.45787000   -2.94353000   -7.85703000
C   3.17074000   -3.67558000   -7.40466000
C   3.17565000   -5.13871000   -7.92068000
H   3.20300000   -5.12292000   -9.03573000
H   4.40659000   -5.90154000   -6.29145000
H   5.68272000   -3.71149000   -6.22579000
H   4.48647000   -2.92555000   -8.97194000
H   3.14359000   -3.69146000   -6.28963000
C   4.45580000   -1.48642000   -7.33577000
C   6.99204000   -1.50118000   -7.26697000
C   5.74315000   -0.75174000   -7.78432000
C   3.20904000   -0.73597000   -7.85704000
H   4.42404000   -1.50461000   -6.22093000
H   6.96235000   -1.52265000   -6.15210000
H   3.24305000   -0.71930000   -8.97214000
H   5.77448000   -0.73217000   -8.89938000
C   1.91352000   -1.46325000   -7.41100000
C   1.91471000   -2.92595000   -7.92096000
C   1.88810000   -5.87498000   -7.46661000
C   0.68556000   -0.69199000   -7.93287000
C   0.64557000   -3.67228000   -7.46841000
C   0.65064000   -5.11561000   -7.98108000
H   0.67206000   -0.69089000   -9.04503000
H   1.87185000   -1.47554000   -6.29749000
H   1.93477000   -2.91353000   -9.03508000
H   0.56975000   -3.67372000   -6.35883000
H   0.62957000   -5.11374000   -9.09303000
H   1.85333000   -5.88707000   -6.35291000
C   0.69326000   0.75316000   -7.42231000
C   1.97508000   1.47345000   -7.85385000
C   3.21320000   0.72499000   -7.33827000
C   4.49719000   1.44967000   -7.77736000
C   5.74066000   0.70671000   -7.26216000
C   7.02436000   1.43549000   -7.69936000
H   0.61180000   0.76068000   -6.31411000
H   3.17912000   0.72072000   -6.22532000
H   5.70723000   0.69984000   -6.14929000
H   1.99867000   1.54420000   -8.96376000
H   4.53138000   1.51846000   -8.88818000
H   7.05757000   1.50816000   -8.80990000
C   6.97519000   5.90509000   -7.87685000
C   5.69618000   5.16912000   -7.41721000
C   4.43934000   5.91672000   -7.92695000
H   6.99577000   5.92596000   -8.99198000
C   5.70299000   3.71016000   -7.93801000
H   5.67510000   5.15048000   -6.30197000
C   4.42875000   2.98079000   -7.48241000
C   3.17529000   3.71830000   -7.98406000
C   3.16103000   5.17969000   -7.46671000
H   5.72196000   3.71608000   -9.05126000
H   4.46134000   5.93444000   -9.04206000
H   3.14042000   5.16361000   -6.35127000
H   3.19574000   3.72190000   -9.09738000
H   4.40864000   2.91308000   -6.37120000
C   6.95743000   2.96885000   -7.44091000
H   6.93975000   2.89802000   -6.32995000
C   1.89662000   5.92012000   -7.97597000
C   1.90561000   2.98324000   -7.52981000
C   0.63646000   5.16204000   -7.51514000
C   0.65425000   3.71650000   -8.02435000
H   1.90984000   5.93212000   -9.09022000
H   0.56813000   5.16190000   -6.40503000
H   0.62750000   3.70894000   -9.13523000
H   1.87378000   2.91323000   -6.42005000
C   12.03066000   -5.88392000   -7.40642000
C   14.56917000   -5.89684000   -7.35228000
C   13.31377000   -5.14875000   -7.86258000
H   14.54616000   -5.91788000   -6.23725000
H   14.62153000   -2.93534000   -8.90734000
C   14.59437000   -2.95695000   -7.79237000
C   13.30921000   -3.69199000   -7.34072000
H   13.33852000   -5.12929000   -8.97762000
C   12.05687000   -2.94353000   -7.85703000
C   10.76974000   -3.67558000   -7.40466000
C   10.77465000   -5.13871000   -7.92068000
H   10.80200000   -5.12292000   -9.03573000
H   12.00559000   -5.90154000   -6.29145000
H   13.28172000   -3.71149000   -6.22579000
H   12.08547000   -2.92555000   -8.97194000
H   10.74259000   -3.69146000   -6.28963000
C   12.05480000   -1.48642000   -7.33577000
C   14.59104000   -1.50118000   -7.26697000
C   13.34215000   -0.75174000   -7.78432000
C   10.80804000   -0.73597000   -7.85704000
H   12.02304000   -1.50461000   -6.22093000
H   14.56135000   -1.52265000   -6.15210000
H   10.84205000   -0.71930000   -8.97214000
H   13.37348000   -0.73217000   -8.89938000
C   9.51252000   -1.46325000   -7.41100000
C   9.51371000   -2.92595000   -7.92096000
C   9.48710000   -5.87498000   -7.46661000
C   8.28456000   -0.69199000   -7.93287000
C   8.24457000   -3.67228000   -7.46841000
C   8.24964000   -5.11561000   -7.98108000
H   8.27106000   -0.69089000   -9.04503000
H   9.47085000   -1.47554000   -6.29749000
H   9.53377000   -2.91353000   -9.03508000
H   8.16875000   -3.67372000   -6.35883000
H   8.22857000   -5.11374000   -9.09303000
H   9.45233000   -5.88707000   -6.35291000
C   8.29226000   0.75316000   -7.42231000
C   9.57408000   1.47345000   -7.85385000
C   10.81220000   0.72499000   -7.33827000
C   12.09619000   1.44967000   -7.77736000
C   13.33966000   0.70671000   -7.26216000
C   14.62336000   1.43549000   -7.69936000
H   8.21080000   0.76068000   -6.31411000
H   10.77812000   0.72072000   -6.22532000
H   13.30623000   0.69984000   -6.14929000
H   9.59767000   1.54420000   -8.96376000
H   12.13038000   1.51846000   -8.88818000
H   14.65657000   1.50816000   -8.80990000
C   14.57419000   5.90509000   -7.87685000
C   13.29518000   5.16912000   -7.41721000
C   12.03834000   5.91672000   -7.92695000
H   14.59477000   5.92596000   -8.99198000
C   13.30199000   3.71016000   -7.93801000
H   13.27410000   5.15048000   -6.30197000
C   12.02775000   2.98079000   -7.48241000
C   10.77429000   3.71830000   -7.98406000
C   10.76003000   5.17969000   -7.46671000
H   13.32096000   3.71608000   -9.05126000
H   12.06034000   5.93444000   -9.04206000
H   10.73942000   5.16361000   -6.35127000
H   10.79474000   3.72190000   -9.09738000
H   12.00764000   2.91308000   -6.37120000
C   14.55643000   2.96885000   -7.44091000
H   14.53875000   2.89802000   -6.32995000
C   9.49562000   5.92012000   -7.97597000
C   9.50461000   2.98324000   -7.52981000
C   8.23546000   5.16204000   -7.51514000
C   8.25325000   3.71650000   -8.02435000
H   9.50884000   5.93212000   -9.09022000
H   8.16713000   5.16190000   -6.40503000
H   8.22650000   3.70894000   -9.13523000
H   9.47278000   2.91323000   -6.42005000
C   -10.76634000   -5.88392000   7.59358000
C   -8.22783000   -5.89684000   7.64772000
C   -9.48323000   -5.14875000   7.13742000
H   -8.25084000   -5.91788000   8.76275000
H   -8.17547000   -2.93534000   6.09266000
C   -8.20263000   -2.95695000   7.20763000
C   -9.48779000   -3.69199000   7.65928000
H   -9.45848000   -5.12929000   6.02238000
C   -10.74013000   -2.94353000   7.14297000
C   -12.02726000   -3.67558000   7.59534000
C   -12.02235000   -5.13871000   7.07932000
H   -11.99500000   -5.12292000   5.96427000
H   -10.79141000   -5.90154000   8.70855000
H   -9.51528000   -3.71149000   8.77421000
H   -10.71153000   -2.92555000   6.02806000
H   -12.05441000   -3.69146000   8.71037000
C   -10.74220000   -1.48642000   7.66423000
C   -8.20596000   -1.50118000   7.73303000
C   -9.45485000   -0.75174000   7.21568000
C   -11.98896000   -0.73597000   7.14296000
H   -10.77396000   -1.50461000   8.77907000
H   -8.23565000   -1.52265000   8.84790000
H   -11.95495000   -0.71930000   6.02786000
H   -9.42352000   -0.73217000   6.10062000
C   -13.28448000   -1.46325000   7.58900000
C   -13.28329000   -2.92595000   7.07904000
C   -13.30990000   -5.87498000   7.53339000
C   -14.51244000   -0.69199000   7.06713000
C   -14.55243000   -3.67228000   7.53159000
C   -14.54736000   -5.11561000   7.01892000
H   -14.52594000   -0.69089000   5.95497000
H   -13.32615000   -1.47554000   8.70251000
H   -13.26323000   -2.91353000   5.96492000
H   -14.62825000   -3.67372000   8.64117000
H   -14.56843000   -5.11374000   5.90697000
H   -13.34467000   -5.88707000   8.64709000
C   -14.50474000   0.75316000   7.57769000
C   -13.22292000   1.47345000   7.14615000
C   -11.98480000   0.72499000   7.66173000
C   -10.70081000   1.44967000   7.22264000
C   -9.45734000   0.70671000   7.73784000
C   -8.17364000   1.43549000   7.30064000
H   -14.58620000   0.76068000   8.68589000
H   -12.01888000   0.72072000   8.77468000
H   -9.49077000   0.69984000   8.85071000
H   -13.19933000   1.54420000   6.03624000
H   -10.66662000   1.51846000   6.11182000
H   -8.14043000   1.50816000   6.19010000
C   -8.22281000   5.90509000   7.12315000
C   -9.50182000   5.16912000   7.58279000
C   -10.75866000   5.91672000   7.07305000
H   -8.20223000   5.92596000   6.00802000
C   -9.49501000   3.71016000   7.06199000
H   -9.52290000   5.15048000   8.69803000
C   -10.76925000   2.98079000   7.51759000
C   -12.02271000   3.71830000   7.01594000
C   -12.03697000   5.17969000   7.53329000
H   -9.47604000   3.71608000   5.94874000
H   -10.73666000   5.93444000   5.95794000
H   -12.05758000   5.16361000   8.64873000
H   -12.00226000   3.72190000   5.90262000
H   -10.78936000   2.91308000   8.62880000
C   -8.24057000   2.96885000   7.55909000
H   -8.25825000   2.89802000   8.67005000
C   -13.30138000   5.92012000   7.02403000
C   -13.29239000   2.98324000   7.47019000
C   -14.56154000   5.16204000   7.48486000
C   -14.54375000   3.71650000   6.97565000
H   -13.28816000   5.93212000   5.90978000
H   -14.62987000   5.16190000   8.59497000
H   -14.57050000   3.70894000   5.86477000
H   -13.32422000   2.91323000   8.57995000
C   -3.16734000   -5.88392000   7.59358000
C   -0.62883000   -5.89684000   7.64772000
C   -1.88423000   -5.14875000   7.13742000
H   -0.65184000   -5.91788000   8.76275000
H   -0.57647000   -2.93534000   6.09266000
C   -0.60363000   -2.95695000   7.20763000
C   -1.88879000   -3.69199000   7.65928000
H   -1.85948000   -5.12929000   6.02238000
C   -3.14113000   -2.94353000   7.14297000
C   -4.42826000   -3.67558000   7.59534000
C   -4.42335000   -5.13871000   7.07932000
H   -4.39600000   -5.12292000   5.96427000
H   -3.19241000   -5.90154000   8.70855000
H   -1.91628000   -3.71149000   8.77421000
H   -3.11253000   -2.92555000   6.02806000
H   -4.45541000   -3.69146000   8.71037000
C   -3.14320000   -1.48642000   7.66423000
C   -0.60696000   -1.50118000   7.73303000
C   -1.85585000   -0.75174000   7.21568000
C   -4.38996000   -0.73597000   7.14296000
H   -3.17496000   -1.50461000   8.77907000
H   -0.63665000   -1.52265000   8.84790000
H   -1.82452000   -0.73217000   6.10062000
C   -5.68548000   -1.46325000   7.58900000
C   -5.68429000   -2.92595000   7.07904000
C   -5.71090000   -5.87498000   7.53339000
C   -6.91344000   -0.69199000   7.06713000
C   -6.95343000   -3.67228000   7.53159000
C   -6.94836000   -5.11561000   7.01892000
H   -6.92694000   -0.69089000   5.95497000
H   -5.72715000   -1.47554000   8.70251000
H   -5.66423000   -2.91353000   5.96492000
H   -7.02925000   -3.67372000   8.64117000
H   -6.96943000   -5.11374000   5.90697000
H   -5.74567000   -5.88707000   8.64709000
C   -6.90574000   0.75316000   7.57769000
C   -5.62392000   1.47345000   7.14615000
C   -4.38580000   0.72499000   7.66173000
C   -3.10181000   1.44967000   7.22264000
C   -1.85834000   0.70671000   7.73784000
C   -0.57464000   1.43549000   7.30064000
H   -6.98720000   0.76068000   8.68589000
H   -4.41988000   0.72072000   8.77468000
H   -1.89177000   0.69984000   8.85071000
H   -5.60033000   1.54420000   6.03624000
H   -3.06762000   1.51846000   6.11182000
H   -0.54143000   1.50816000   6.19010000
C   -0.62381000   5.90509000   7.12315000
C   -1.90282000   5.16912000   7.58279000
C   -3.15966000   5.91672000   7.07305000
H   -0.60323000   5.92596000   6.00802000
C   -1.89601000   3.71016000   7.06199000
H   -1.92390000   5.15048000   8.69803000
C   -3.17025000   2.98079000   7.51759000
C   -4.42371000   3.71830000   7.01594000
C   -4.43797000   5.17969000   7.53329000
H   -1.87704000   3.71608000   5.94874000
H   -3.13766000   5.93444000   5.95794000
H   -4.45858000   5.16361000   8.64873000
H   -4.40326000   3.72190000   5.90262000
H   -3.19036000   2.91308000   8.62880000
C   -0.64157000   2.96885000   7.55909000
H   -0.65925000   2.89802000   8.67005000
C   -5.70238000   5.92012000   7.02403000
C   -5.69339000   2.98324000   7.47019000
C   -6.96254000   5.16204000   7.48486000
C   -6.94475000   3.71650000   6.97565000
H   -5.68916000   5.93212000   5.90978000
H   -7.03087000   5.16190000   8.59497000
H   -6.97150000   3.70894000   5.86477000
H   -5.72522000   2.91323000   8.57995000
C   4.43166000   -5.88392000   7.59358000
C   6.97017000   -5.89684000   7.64772000
C   5.71477000   -5.14875000   7.13742000
H   6.94716000   -5.91788000   8.76275000
H   7.02253000   -2.93534000   6.09266000
C   6.99537000   -2.95695000   7.20763000
C   5.71021000   -3.69199000   7.65928000
H   5.73952000   -5.12929000   6.02238000
C   4.45787000   -2.94353000   7.14297000
C   3.17074000   -3.67558000   7.59534000
C   3.17565000   -5.13871000   7.07932000
H   3.20300000   -5.12292000   5.96427000
H   4.40659000   -5.90154000   8.70855000
H   5.68272000   -3.71149000   8.77421000
H   4.48647000   -2.92555000   6.02806000
H   3.14359000   -3.69146000   8.71037000
C   4.45580000   -1.48642000   7.66423000
C   6.99204000   -1.50118000   7.73303000
C   5.74315000   -0.75174000   7.21568000
C   3.20904000   -0.73597000   7.14296000
H   4.42404000   -1.50461000   8.77907000
H   6.96235000   -1.52265000   8.84790000
H   3.24305000   -0.71930000   6.02786000
C   1.91352000   -1.46325000   7.58900000
C   1.91471000   -2.92595000   7.07904000
C   1.88810000   -5.87498000   7.53339000
C   0.68556000   -0.69199000   7.06713000
C   0.64557000   -3.67228000   7.53159000
C   0.65064000   -5.11561000   7.01892000
H   0.67206000   -0.69089000   5.95497000
H   1.87185000   -1.47554000   8.70251000
H   1.93477000   -2.91353000   5.96492000
H   0.56975000   -3.67372000   8.64117000
H   0.62957000   -5.11374000   5.90697000
H   1.85333000   -5.88707000   8.64709000
C   0.69326000   0.75316000   7.57769000
C   1.97508000   1.47345000   7.14615000
C   3.21320000   0.72499000   7.66173000
C   4.49719000   1.44967000   7.22264000
C   5.74066000   0.70671000   7.73784000
C   7.02436000   1.43549000   7.30064000
H   0.61180000   0.76068000   8.68589000
H   3.17912000   0.72072000   8.77468000
H   5.70723000   0.69984000   8.85071000
H   1.99867000   1.54420000   6.03624000
H   4.53138000   1.51846000   6.11182000
H   7.05757000   1.50816000   6.19010000
C   6.97519000   5.90509000   7.12315000
C   5.69618000   5.16912000   7.58279000
C   4.43934000   5.91672000   7.07305000
H   6.99577000   5.92596000   6.00802000
C   5.70299000   3.71016000   7.06199000
H   5.67510000   5.15048000   8.69803000
C   4.42875000   2.98079000   7.51759000
C   3.17529000   3.71830000   7.01594000
C   3.16103000   5.17969000   7.53329000
H   5.72196000   3.71608000   5.94874000
H   4.46134000   5.93444000   5.95794000
H   3.14042000   5.16361000   8.64873000
H   3.19574000   3.72190000   5.90262000
H   4.40864000   2.91308000   8.62880000
C   6.95743000   2.96885000   7.55909000
H   6.93975000   2.89802000   8.67005000
C   1.89662000   5.92012000   7.02403000
C   1.90561000   2.98324000   7.47019000
C   0.63646000   5.16204000   7.48486000
C   0.65425000   3.71650000   6.97565000
H   1.90984000   5.93212000   5.90978000
H   0.56813000   5.16190000   8.59497000
H   0.62750000   3.70894000   5.86477000
H   1.87378000   2.91323000   8.57995000
C   12.03066000   -5.88392000   7.59358000
C   14.56917000   -5.89684000   7.64772000
C   13.31377000   -5.14875000   7.13742000
H   14.54616000   -5.91788000   8.76275000
H   14.62153000   -2.93534000   6.09266000
C   14.59437000   -2.95695000   7.20763000
C   13.30921000   -3.69199000   7.65928000
H   13.33852000   -5.12929000   6.02238000
C   12.05687000   -2.94353000   7.14297000
C   10.76974000   -3.67558000   7.59534000
C   10.77465000   -5.13871000   7.07932000
H   10.80200000   -5.12292000   5.96427000
H   12.00559000   -5.90154000   8.70855000
H   13.28172000   -3.71149000   8.77421000
H   12.08547000   -2.92555000   6.02806000
H   10.74259000   -3.69146000   8.71037000
C   12.05480000   -1.48642000   7.66423000
C   14.59104000   -1.50118000   7.73303000
C   13.34215000   -0.75174000   7.21568000
C   10.80804000   -0.73597000   7.14296000
H   12.02304000   -1.50461000   8.77907000
H   14.56135000   -1.52265000   8.84790000
H   10.84205000   -0.71930000   6.02786000
H   13.37348000   -0.73217000   6.10062000
C   9.51252000   -1.46325000   7.58900000
C   9.51371000   -2.92595000   7.07904000
C   9.48710000   -5.87498000   7.53339000
C   8.28456000   -0.69199000   7.06713000
C   8.24457000   -3.67228000   7.53159000
C   8.24964000   -5.11561000   7.01892000
H   8.27106000   -0.69089000   5.95497000
H   9.47085000   -1.47554000   8.70251000
H   9.53377000   -2.91353000   5.96492000
H   8.16875000   -3.67372000   8.64117000
H   8.22857000   -5.11374000   5.90697000
H   9.45233000   -5.88707000   8.64709000
C   8.29226000   0.75316000   7.57769000
C   9.57408000   1.47345000   7.14615000
C   10.81220000   0.72499000   7.66173000
C   12.09619000   1.44967000   7.22264000
C   13.33966000   0.70671000   7.73784000
C   14.62336000   1.43549000   7.30064000
H   8.21080000   0.76068000   8.68589000
H   10.77812000   0.72072000   8.77468000
H   13.30623000   0.69984000   8.85071000
H   9.59767000   1.54420000   6.03624000
H   12.13038000   1.51846000   6.11182000
H   14.65657000   1.50816000   6.19010000
C   14.57419000   5.90509000   7.12315000
C   13.29518000   5.16912000   7.58279000
C   12.03834000   5.91672000   7.07305000
H   14.59477000   5.92596000   6.00802000
C   13.30199000   3.71016000   7.06199000
H   13.27410000   5.15048000   8.69803000
C   12.02775000   2.98079000   7.51759000
C   10.77429000   3.71830000   7.01594000
C   10.76003000   5.17969000   7.53329000
H   13.32096000   3.71608000   5.94874000
H   12.06034000   5.93444000   5.95794000
H   10.73942000   5.16361000   8.64873000
H   10.79474000   3.72190000   5.90262000
H   12.00764000   2.91308000   8.62880000
C   14.55643000   2.96885000   7.55909000
H   14.53875000   2.89802000   8.67005000
C   9.49562000   5.92012000   7.02403000
C   9.50461000   2.98324000   7.47019000
C   8.23546000   5.16204000   7.48486000
C   8.25325000   3.71650000   6.97565000
H   9.50884000   5.93212000   5.90978000
H   8.16713000   5.16190000   8.59497000
H   8.22650000   3.70894000   5.86477000
H   9.47278000   2.91323000   8.57995000
N   -3.79496888   0.06470362   3.04792227
C   -4.51404776   -0.77164178   5.48872858
H   -5.25737375   -0.11907144   5.15771268
H   -4.80622574   -1.74944812   5.06305611
C   -3.36497241   -0.38654007   4.52811766
H   -2.66823191   -1.22767044   4.19978314
H   -2.74866119   0.46516033   4.81107683
C   -2.57509538   0.19083408   2.21312840
H   -1.80183096   0.63271724   2.80755598
H   -2.22159942   -0.77798882   1.97829427
H   -2.61134181   0.66715305   1.20529774
C   -4.61047278   1.33047645   3.09068796
H   -5.36381527   1.23088379   3.96953745
H   -3.94279062   2.15755289   3.24784747
H   -5.15744254   1.42964550   2.15415499
C   -4.60909462   -1.00948424   2.50896111
H   -4.79780250   -0.98461655   1.43554857
H   -4.15282123   -2.00594663   2.71592968
H   -5.54659768   -1.00788433   3.02871787
N   4.76929707   1.45323070   -0.67205049
C   5.65866650   -0.65554272   5.57091117
H   6.01406085   0.38739115   5.35783361
H   4.65676100   -0.75836787   5.16773048
C   6.40390330   -1.53583046   4.49282094
H   7.50342693   -1.53406066   4.48189786
H   6.04489852   -2.55658526   4.37699002
C   6.20893486   -0.95348325   3.08298815
H   7.06386694   -1.28330755   2.46265165
H   6.24298536   0.18624312   3.09686382
C   5.03373991   -1.36763986   2.19818904
H   4.97945845   -2.38560229   2.03120462
H   4.14660930   -1.10845197   2.68988772
C   4.92329142   -0.76941452   0.79885415
H   3.93504312   -1.09975783   0.39640651
H   5.78203648   -1.13841467   0.21398460
C   4.89398777   0.80104248   0.69093201
H   5.72359265   1.17859315   1.27461350
H   4.03646063   1.11870552   1.25683988
C   5.80566335   1.08621862   -1.74133172
H   5.49153965   0.07624313   -2.13436379
H   6.79453651   1.13020724   -1.23586884
H   5.84549354   1.87405702   -2.45657823
C   4.89384855   2.95469627   -0.47996919
H   4.63079363   3.61834810   -1.32694531
H   5.91330745   3.22274674   -0.11470190
H   4.20484782   3.19783944   0.32428566
C   3.36250391   1.16798161   -1.26183086
H   3.46183931   0.25678767   -1.83903916
H   3.08394819   2.00174692   -2.00973681
H   2.55216935   1.08312790   -0.46556554
O   20.23964159   -35.26611702   1.69859629
H   19.65496512   -34.73815880   2.29071850
H   19.59540916   -35.96199124   1.37392669
O   -6.02113932   3.58379767   -4.35095121
H   -6.80715297   4.14612422   -4.17549438
H   -5.30059559   4.10664602   -3.99506516
O   0.89795358   -2.36555137   -0.39587454
H   0.12916866   -2.21378905   -0.98145970
H   0.88695971   -1.57689892   0.10895613
O   -8.04984438   -28.31774327   -2.27074225
H   -7.51019877   -27.55905951   -2.06950288
H   -7.49445205   -28.90103275   -2.80765182
O   3.91227399   -18.70932108   3.88945644
H   3.09437163   -32.59612011   3.76056029
H   4.58888652   -19.12090663   3.35810937
O   -27.15331932   -17.32792688   -2.17675442
H   -27.83614223   -3.47464672   -2.73633299
H   -27.48700458   -17.05786775   -1.29834549
O   7.06139372   3.43437667   1.64053421
H   7.71160661   4.02342225   1.25263418
H   6.69924668   3.76513366   2.52693117
O   -20.00392056   -28.69979009   -0.39876431
H   -19.57722587   -29.56449943   -0.53371419
H   -20.93829996   -28.83668688   -0.45208784
O   -22.11023837   12.46805013   -3.00112381
H   -21.12822142   12.56938563   -2.96114013
H   -22.48201718   11.82575036   -2.35271836
O   -2.63710696   18.28581404   -1.60290215
H   4.60499034   17.09877594   4.14579499
H   -3.01667596   18.06487980   -0.74547597
O   -10.34329544   1.64249686   2.11559510
H   -10.50911248   0.74668138   2.49040352
H   -9.33945996   1.80338140   2.13904451
O   -7.62034860   -2.52539661   0.42529157
H   -7.87186907   -15.15774225   -0.13500773
H   -17.26962216   6.61018602   -3.02553854
O   -45.74704151   -0.82607808   -3.32492333
H   -46.40943880   -0.91882570   -4.02096231
H   -46.04872242   -0.05341777   -2.82523608
O   5.10826163   6.01108234   2.00294370
H   5.85857172   6.12644344   1.43771147
H   5.09063168   5.06606444   2.32717660
O   -2.55011694   11.71126766   -2.01236526
H   -6.79638259   -2.25478922   0.83507607
H   -2.46955979   11.21908979   -2.87136230
O   16.65756565   3.52605148   0.68523692
H   17.27808132   3.35975985   -0.01955564
H   16.99202513   4.36391803   1.06888052
O   -13.45055484   11.72181925   -0.83989557
H   -13.20954889   12.57953663   -1.24827406
H   -12.91433170   11.67984418   -0.05890961
O   -19.52766377   2.43437080   1.73188240
H   -20.06832410   2.82356712   2.46311371
H   -19.03853051   1.68471090   2.15355663
O   1.96350109   -28.25468884   -3.81213955
H   1.44133068   -27.60651361   -3.35333989
H   2.04183959   -27.91742025   -4.75980521
O   -3.97337289   2.15181938   -2.71843026
H   -3.98605640   1.15943655   -2.67750254
H   -4.54958575   2.25757534   -3.51470545
O   -4.70425437   20.73989680   1.52743563
H   -4.36236947   7.57129117   0.62583272
H   -5.57294221   20.32002523   1.41671374
O   2.44973000   -12.88316317   3.44063932
H   2.10729021   -12.04697969   2.92279448
H   3.39598905   -12.83829330   3.62945595
O   -12.91274307   -8.02691504   3.03793425
H   -13.35032991   -8.75770786   3.49812106
H   -13.46819644   -7.24223950   3.31034435
O   17.21111158   -28.64619819   2.57693309
H   16.78688906   -28.52269694   1.69802057
H   17.59364159   -29.54688045   2.61232975
O   0.84607283   -12.37907694   0.89824450
H   1.53185936   -11.74945035   1.23375388
H   15.18285991   10.76427553   -2.68829618
O   -0.79733419   -9.78757004   1.30270727
H   -0.75035663   -9.29297007   0.49876493
H   0.04020585   -10.07072931   1.61810268
O   18.22353682   -6.93534293   -4.16224388
H   18.03691840   -7.59818655   -3.51480097
H   17.57224447   -6.22543010   -3.89038674
O   25.33473149   -9.05717342   1.95330588
H   25.93394491   -8.35625070   2.26185605
H   -18.02746468   -36.29405696   -3.27624283
O   -29.68372512   -6.45514783   -0.01259412
H   -3.37311587   12.26058447   -2.27548329
H   -29.14487191   -7.13493995   0.37669055
O   2.23243461   -23.90426833   2.01584080
H   0.13114229   -25.91792870   1.61559100
H   -7.69646989   5.83723980   0.01099973
O   -7.70166170   -14.24314405   3.61732940
H   -7.84018602   -13.70925499   2.79774647
H   -8.33143652   -14.96898417   3.57795259
O   -8.36643467   0.69557671   -0.16743008
H   -7.88733112   1.11930209   -0.88081897
H   -8.41888105   -0.26030073   -0.36769695
O   -22.51716025   19.31314824   0.80110737
H   -23.11568576   19.76511214   0.16329785
H   -21.63305207   19.25623494   0.46435462
O   -3.78796803   -4.59208151   3.84919760
H   -3.74189562   -5.15076368   3.02409854
H   -3.19167441   -3.86238102   3.60948558
O   23.01142712   -7.50145928   -3.36484170
H   22.55440305   -7.55021818   -2.47813462
H   22.54706366   -6.94009179   -4.04207793
O   22.85659688   22.06584714   -2.39690090
H   23.59259369   22.64426547   -2.67585733
H   22.75750422   22.42755771   -1.50727308
O   -27.35846322   6.42382266   -2.53555929
H   -27.51336351   7.36430734   -2.61713476
H   -27.18554098   6.22366239   -1.58635980
O   1.38770901   -2.42439014   3.25709163
H   1.94869349   -3.06682496   3.73234458
H   1.84513785   -1.54994400   3.40190596
O   16.30794657   -4.47345276   -4.50192990
H   16.06151504   -5.04098939   -3.72131830
H   16.46508561   -3.59510690   -4.23858413
O   -11.23247588   -32.86698150   1.05357640
H   -10.41075107   -32.91288654   0.53429305
H   -11.68901832   -32.15105295   0.60038661
O   4.78047306   3.35928212   3.24393507
H   3.85006164   3.26834170   2.86900287
H   -29.84640413   -6.63295686   -0.94499850
O   15.09633047   23.31385538   -2.17783615
H   15.88445457   23.36916602   -1.57888555
H   1.80587145   -9.70558391   2.44285350
O   4.73150369   -1.59851345   -2.80057811
H   3.95208698   -1.52191945   -3.36091013
H   5.03385289   -2.50512463   -2.78408153
O   -2.55220452   -16.69315419   0.65850290
H   -2.74298439   -16.43874735   -0.24781500
H   -1.67367396   -17.12111154   0.72345049
O   16.43847523   -24.21550334   -3.36974256
H   15.52001729   -24.33966487   -3.03996951
H   17.17341289   -24.56790741   -2.80705620
O   -19.56745804   -11.51852268   -1.67716360
H   -18.76622565   -11.15934703   -2.11405386
H   -19.21184016   -11.79346255   -0.81744345
O   22.32292147   3.87672251   -1.80960432
H   21.91446460   3.54792702   -2.60670848
H   22.96598314   3.16096204   -1.62869728
O   33.62266333   -18.51039367   0.67339972
H   32.88869098   -19.07546486   0.41734495
H   33.17583584   -17.77763361   1.11035856
O   -27.64562836   -8.26960374   0.38342672
H   -27.97862739   -9.12406901   0.74258090
H   -27.07478922   -7.89355529   1.12439079
O   -22.09019777   -10.78476786   -3.42998816
H   -22.35130456   -11.50006531   -4.06612430
H   -21.33317257   -11.11712523   -3.00257124
O   -5.53842060   -0.01585659   -0.44447003
H   -5.49541062   -0.63902149   -1.24336105
H   -5.21466650   0.83445694   -0.75662314
O   -0.36073102   8.48696409   2.56940477
H   0.08224516   9.31263852   2.47059448
H   0.03305979   8.00429965   1.82854914
O   -21.24904043   8.98823288   -1.67725090
H   -20.36457903   9.25196133   -1.95850023
H   -21.40878869   8.06359238   -1.88294831
O   -6.96093033   14.57003908   -2.78486787
H   -6.78984124   15.33173415   -3.35333160
H   -6.06536198   14.03583000   -2.84740787
O   -7.76629143   2.76540478   2.23981469
H   -8.30667405   3.51858192   2.26302775
H   -7.09416872   2.93540171   1.57600068
O   17.78615137   35.70532559   -0.93151921
H   17.99611509   34.82679699   -1.34662425
H   18.17014171   36.44668077   -1.37937344
O   25.73083863   12.94865855   -3.07532853
H   27.59511747   17.54816589   -2.16978753
H   25.84056217   12.95949047   -4.05656451
O   -10.37096522   13.22427323   -3.31252927
H   -9.74558039   -0.66882866   -2.77405706
H   -11.11159203   12.64750232   -3.14175634
O   -13.91861197   -10.55156544   3.63763320
H   -13.10619888   -11.00044624   3.93919079
H   -13.99378852   -10.64924179   2.67685378
O   -10.44562159   -5.26005576   -2.64014693
H   -9.49943610   -5.11311305   -2.56703840
H   -10.55670366   -5.57518591   -3.58023996
O   31.47194170   1.26227405   -3.19066747
H   31.85550755   2.00939629   -3.59101331
H   31.34421153   1.44296400   -2.27563204
O   14.73647555   1.58613690   -0.62920400
H   14.62413471   2.51174453   -0.35221922
H   15.46751581   1.07630217   -0.23484297
O   -7.72075811   5.86025651   0.98555955
H   24.52722969   -21.96894874   1.71048539
H   -8.49972383   5.48232504   1.33168788
O   -17.34293491   -36.91592683   -3.19390578
H   -13.64346165   -21.49837916   -1.56325167
H   -16.60392057   -36.38091408   -3.39604376
O   12.52266234   -30.88894974   -1.63534405
H   13.46450944   -30.90815767   -1.90430435
H   12.45375688   -30.26044609   -0.85537442
O   -5.75133874   -23.92698297   -0.86707970
H   -5.13181767   -23.87890683   -1.62888554
H   -5.22544809   -23.91473957   -0.07557211
O   -4.62874580   -31.86379144   -1.21248050
H   -4.29331065   -31.85786689   -2.07002928
H   -5.59982005   -31.90758741   -1.16990109
O   -5.47613415   -16.24748681   -2.86980780
H   -4.64422494   -16.48167455   -2.42387710
H   -5.34075447   -15.20450522   -2.99506161
O   9.71459305   4.38031237   -0.55691392
H   9.27382786   3.73843084   -1.15647155
H   9.94361975   3.90177609   0.22543437
O   29.58283391   -11.31550260   4.01321518
H   29.45739177   -10.41045434   4.18372529
H   30.50488228   -11.40962986   3.74645371
O   -2.56466930   -21.51511632   3.22635331
H   -2.45735596   -20.62087657   2.95355303
H   -1.96457098   -21.98973000   2.61955763
O   -11.13038728   29.85502545   -0.23346248
H   -10.38712442   30.22302168   -0.72469531
H   -10.77849053   29.36487048   0.52009850
O   -24.09885101   -18.86590336   -0.45548826
H   -24.18263929   -18.16458724   -1.07731486
H   -24.20283379   -18.35853827   0.38927747
O   3.00051199   -9.75000500   -3.16742450
H   3.83616264   -9.45516430   -3.60200437
H   2.63299230   -8.82619215   -3.10365134
O   -16.87890169   6.15259786   -3.80892980
H   -16.79562345   6.82207171   -4.52220618
O   -13.58826122   -20.57683196   -1.29296605
H   -14.08340848   -20.29779606   -0.48415160
