850

C   -10.76634000   -5.88392000   -7.40642000
C   -8.22783000   -5.89684000   -7.35228000
C   -9.48323000   -5.14875000   -7.86258000
H   -8.25084000   -5.91788000   -6.23725000
H   -8.17547000   -2.93534000   -8.90734000
C   -8.20263000   -2.95695000   -7.79237000
C   -9.48779000   -3.69199000   -7.34072000
H   -9.45848000   -5.12929000   -8.97762000
C   -10.74013000   -2.94353000   -7.85703000
C   -12.02726000   -3.67558000   -7.40466000
C   -12.02235000   -5.13871000   -7.92068000
H   -11.99500000   -5.12292000   -9.03573000
H   -10.79141000   -5.90154000   -6.29145000
H   -9.51528000   -3.71149000   -6.22579000
H   -10.71153000   -2.92555000   -8.97194000
H   -12.05441000   -3.69146000   -6.28963000
C   -10.74220000   -1.48642000   -7.33577000
C   -8.20596000   -1.50118000   -7.26697000
C   -9.45485000   -0.75174000   -7.78432000
C   -11.98896000   -0.73597000   -7.85704000
H   -10.77396000   -1.50461000   -6.22093000
H   -8.23565000   -1.52265000   -6.15210000
H   -11.95495000   -0.71930000   -8.97214000
H   -9.42352000   -0.73217000   -8.89938000
C   -13.28448000   -1.46325000   -7.41100000
C   -13.28329000   -2.92595000   -7.92096000
C   -13.30990000   -5.87498000   -7.46661000
C   -14.51244000   -0.69199000   -7.93287000
C   -14.55243000   -3.67228000   -7.46841000
C   -14.54736000   -5.11561000   -7.98108000
H   -14.52594000   -0.69089000   -9.04503000
H   -13.32615000   -1.47554000   -6.29749000
H   -13.26323000   -2.91353000   -9.03508000
H   -14.62825000   -3.67372000   -6.35883000
H   -14.56843000   -5.11374000   -9.09303000
H   -13.34467000   -5.88707000   -6.35291000
C   -14.50474000   0.75316000   -7.42231000
C   -13.22292000   1.47345000   -7.85385000
C   -11.98480000   0.72499000   -7.33827000
C   -10.70081000   1.44967000   -7.77736000
C   -9.45734000   0.70671000   -7.26216000
C   -8.17364000   1.43549000   -7.69936000
H   -14.58620000   0.76068000   -6.31411000
H   -12.01888000   0.72072000   -6.22532000
H   -9.49077000   0.69984000   -6.14929000
H   -13.19933000   1.54420000   -8.96376000
H   -10.66662000   1.51846000   -8.88818000
H   -8.14043000   1.50816000   -8.80990000
C   -8.22281000   5.90509000   -7.87685000
C   -9.50182000   5.16912000   -7.41721000
C   -10.75866000   5.91672000   -7.92695000
H   -8.20223000   5.92596000   -8.99198000
C   -9.49501000   3.71016000   -7.93801000
H   -9.52290000   5.15048000   -6.30197000
C   -10.76925000   2.98079000   -7.48241000
C   -12.02271000   3.71830000   -7.98406000
C   -12.03697000   5.17969000   -7.46671000
H   -9.47604000   3.71608000   -9.05126000
H   -10.73666000   5.93444000   -9.04206000
H   -12.05758000   5.16361000   -6.35127000
H   -12.00226000   3.72190000   -9.09738000
H   -10.78936000   2.91308000   -6.37120000
C   -8.24057000   2.96885000   -7.44091000
H   -8.25825000   2.89802000   -6.32995000
C   -13.30138000   5.92012000   -7.97597000
C   -13.29239000   2.98324000   -7.52981000
C   -14.56154000   5.16204000   -7.51514000
C   -14.54375000   3.71650000   -8.02435000
H   -13.28816000   5.93212000   -9.09022000
H   -14.62987000   5.16190000   -6.40503000
H   -14.57050000   3.70894000   -9.13523000
H   -13.32422000   2.91323000   -6.42005000
C   -3.16734000   -5.88392000   -7.40642000
C   -0.62883000   -5.89684000   -7.35228000
C   -1.88423000   -5.14875000   -7.86258000
H   -0.65184000   -5.91788000   -6.23725000
H   -0.57647000   -2.93534000   -8.90734000
C   -0.60363000   -2.95695000   -7.79237000
C   -1.88879000   -3.69199000   -7.34072000
H   -1.85948000   -5.12929000   -8.97762000
C   -3.14113000   -2.94353000   -7.85703000
C   -4.42826000   -3.67558000   -7.40466000
C   -4.42335000   -5.13871000   -7.92068000
H   -4.39600000   -5.12292000   -9.03573000
H   -3.19241000   -5.90154000   -6.29145000
H   -1.91628000   -3.71149000   -6.22579000
H   -3.11253000   -2.92555000   -8.97194000
H   -4.45541000   -3.69146000   -6.28963000
C   -3.14320000   -1.48642000   -7.33577000
C   -0.60696000   -1.50118000   -7.26697000
C   -1.85585000   -0.75174000   -7.78432000
C   -4.38996000   -0.73597000   -7.85704000
H   -3.17496000   -1.50461000   -6.22093000
H   -0.63665000   -1.52265000   -6.15210000
H   -4.35595000   -0.71930000   -8.97214000
H   -1.82452000   -0.73217000   -8.89938000
C   -5.68548000   -1.46325000   -7.41100000
C   -5.68429000   -2.92595000   -7.92096000
C   -5.71090000   -5.87498000   -7.46661000
C   -6.91344000   -0.69199000   -7.93287000
C   -6.95343000   -3.67228000   -7.46841000
C   -6.94836000   -5.11561000   -7.98108000
H   -6.92694000   -0.69089000   -9.04503000
H   -5.72715000   -1.47554000   -6.29749000
H   -5.66423000   -2.91353000   -9.03508000
H   -7.02925000   -3.67372000   -6.35883000
H   -6.96943000   -5.11374000   -9.09303000
H   -5.74567000   -5.88707000   -6.35291000
C   -6.90574000   0.75316000   -7.42231000
C   -5.62392000   1.47345000   -7.85385000
C   -4.38580000   0.72499000   -7.33827000
C   -3.10181000   1.44967000   -7.77736000
C   -1.85834000   0.70671000   -7.26216000
C   -0.57464000   1.43549000   -7.69936000
H   -6.98720000   0.76068000   -6.31411000
H   -4.41988000   0.72072000   -6.22532000
H   -1.89177000   0.69984000   -6.14929000
H   -5.60033000   1.54420000   -8.96376000
H   -3.06762000   1.51846000   -8.88818000
H   -0.54143000   1.50816000   -8.80990000
C   -0.62381000   5.90509000   -7.87685000
C   -1.90282000   5.16912000   -7.41721000
C   -3.15966000   5.91672000   -7.92695000
H   -0.60323000   5.92596000   -8.99198000
C   -1.89601000   3.71016000   -7.93801000
H   -1.92390000   5.15048000   -6.30197000
C   -3.17025000   2.98079000   -7.48241000
C   -4.42371000   3.71830000   -7.98406000
C   -4.43797000   5.17969000   -7.46671000
H   -1.87704000   3.71608000   -9.05126000
H   -3.13766000   5.93444000   -9.04206000
H   -4.45858000   5.16361000   -6.35127000
H   -4.40326000   3.72190000   -9.09738000
H   -3.19036000   2.91308000   -6.37120000
C   -0.64157000   2.96885000   -7.44091000
H   -0.65925000   2.89802000   -6.32995000
C   -5.70238000   5.92012000   -7.97597000
C   -5.69339000   2.98324000   -7.52981000
C   -6.96254000   5.16204000   -7.51514000
C   -6.94475000   3.71650000   -8.02435000
H   -5.68916000   5.93212000   -9.09022000
H   -7.03087000   5.16190000   -6.40503000
H   -6.97150000   3.70894000   -9.13523000
H   -5.72522000   2.91323000   -6.42005000
C   4.43166000   -5.88392000   -7.40642000
C   6.97017000   -5.89684000   -7.35228000
C   5.71477000   -5.14875000   -7.86258000
H   6.94716000   -5.91788000   -6.23725000
H   7.02253000   -2.93534000   -8.90734000
C   6.99537000   -2.95695000   -7.79237000
C   5.71021000   -3.69199000   -7.34072000
H   5.73952000   -5.12929000   -8.97762000
C   4.45787000   -2.94353000   -7.85703000
C   3.17074000   -3.67558000   -7.40466000
C   3.17565000   -5.13871000   -7.92068000
H   3.20300000   -5.12292000   -9.03573000
H   4.40659000   -5.90154000   -6.29145000
H   5.68272000   -3.71149000   -6.22579000
H   4.48647000   -2.92555000   -8.97194000
H   3.14359000   -3.69146000   -6.28963000
C   4.45580000   -1.48642000   -7.33577000
C   6.99204000   -1.50118000   -7.26697000
C   5.74315000   -0.75174000   -7.78432000
C   3.20904000   -0.73597000   -7.85704000
H   4.42404000   -1.50461000   -6.22093000
H   6.96235000   -1.52265000   -6.15210000
H   3.24305000   -0.71930000   -8.97214000
H   5.77448000   -0.73217000   -8.89938000
C   1.91352000   -1.46325000   -7.41100000
C   1.91471000   -2.92595000   -7.92096000
C   1.88810000   -5.87498000   -7.46661000
C   0.68556000   -0.69199000   -7.93287000
C   0.64557000   -3.67228000   -7.46841000
C   0.65064000   -5.11561000   -7.98108000
H   0.67206000   -0.69089000   -9.04503000
H   1.87185000   -1.47554000   -6.29749000
H   1.93477000   -2.91353000   -9.03508000
H   0.56975000   -3.67372000   -6.35883000
H   0.62957000   -5.11374000   -9.09303000
H   1.85333000   -5.88707000   -6.35291000
C   0.69326000   0.75316000   -7.42231000
C   1.97508000   1.47345000   -7.85385000
C   3.21320000   0.72499000   -7.33827000
C   4.49719000   1.44967000   -7.77736000
C   5.74066000   0.70671000   -7.26216000
C   7.02436000   1.43549000   -7.69936000
H   0.61180000   0.76068000   -6.31411000
H   3.17912000   0.72072000   -6.22532000
H   5.70723000   0.69984000   -6.14929000
H   1.99867000   1.54420000   -8.96376000
H   4.53138000   1.51846000   -8.88818000
H   7.05757000   1.50816000   -8.80990000
C   6.97519000   5.90509000   -7.87685000
C   5.69618000   5.16912000   -7.41721000
C   4.43934000   5.91672000   -7.92695000
H   6.99577000   5.92596000   -8.99198000
C   5.70299000   3.71016000   -7.93801000
H   5.67510000   5.15048000   -6.30197000
C   4.42875000   2.98079000   -7.48241000
C   3.17529000   3.71830000   -7.98406000
C   3.16103000   5.17969000   -7.46671000
H   5.72196000   3.71608000   -9.05126000
H   4.46134000   5.93444000   -9.04206000
H   3.14042000   5.16361000   -6.35127000
H   3.19574000   3.72190000   -9.09738000
H   4.40864000   2.91308000   -6.37120000
C   6.95743000   2.96885000   -7.44091000
H   6.93975000   2.89802000   -6.32995000
C   1.89662000   5.92012000   -7.97597000
C   1.90561000   2.98324000   -7.52981000
C   0.63646000   5.16204000   -7.51514000
C   0.65425000   3.71650000   -8.02435000
H   1.90984000   5.93212000   -9.09022000
H   0.56813000   5.16190000   -6.40503000
H   0.62750000   3.70894000   -9.13523000
H   1.87378000   2.91323000   -6.42005000
C   12.03066000   -5.88392000   -7.40642000
C   14.56917000   -5.89684000   -7.35228000
C   13.31377000   -5.14875000   -7.86258000
H   14.54616000   -5.91788000   -6.23725000
H   14.62153000   -2.93534000   -8.90734000
C   14.59437000   -2.95695000   -7.79237000
C   13.30921000   -3.69199000   -7.34072000
H   13.33852000   -5.12929000   -8.97762000
C   12.05687000   -2.94353000   -7.85703000
C   10.76974000   -3.67558000   -7.40466000
C   10.77465000   -5.13871000   -7.92068000
H   10.80200000   -5.12292000   -9.03573000
H   12.00559000   -5.90154000   -6.29145000
H   13.28172000   -3.71149000   -6.22579000
H   12.08547000   -2.92555000   -8.97194000
H   10.74259000   -3.69146000   -6.28963000
C   12.05480000   -1.48642000   -7.33577000
C   14.59104000   -1.50118000   -7.26697000
C   13.34215000   -0.75174000   -7.78432000
C   10.80804000   -0.73597000   -7.85704000
H   12.02304000   -1.50461000   -6.22093000
H   14.56135000   -1.52265000   -6.15210000
H   10.84205000   -0.71930000   -8.97214000
H   13.37348000   -0.73217000   -8.89938000
C   9.51252000   -1.46325000   -7.41100000
C   9.51371000   -2.92595000   -7.92096000
C   9.48710000   -5.87498000   -7.46661000
C   8.28456000   -0.69199000   -7.93287000
C   8.24457000   -3.67228000   -7.46841000
C   8.24964000   -5.11561000   -7.98108000
H   8.27106000   -0.69089000   -9.04503000
H   9.47085000   -1.47554000   -6.29749000
H   9.53377000   -2.91353000   -9.03508000
H   8.16875000   -3.67372000   -6.35883000
H   8.22857000   -5.11374000   -9.09303000
H   9.45233000   -5.88707000   -6.35291000
C   8.29226000   0.75316000   -7.42231000
C   9.57408000   1.47345000   -7.85385000
C   10.81220000   0.72499000   -7.33827000
C   12.09619000   1.44967000   -7.77736000
C   13.33966000   0.70671000   -7.26216000
C   14.62336000   1.43549000   -7.69936000
H   8.21080000   0.76068000   -6.31411000
H   10.77812000   0.72072000   -6.22532000
H   13.30623000   0.69984000   -6.14929000
H   9.59767000   1.54420000   -8.96376000
H   12.13038000   1.51846000   -8.88818000
H   14.65657000   1.50816000   -8.80990000
C   14.57419000   5.90509000   -7.87685000
C   13.29518000   5.16912000   -7.41721000
C   12.03834000   5.91672000   -7.92695000
H   14.59477000   5.92596000   -8.99198000
C   13.30199000   3.71016000   -7.93801000
H   13.27410000   5.15048000   -6.30197000
C   12.02775000   2.98079000   -7.48241000
C   10.77429000   3.71830000   -7.98406000
C   10.76003000   5.17969000   -7.46671000
H   13.32096000   3.71608000   -9.05126000
H   12.06034000   5.93444000   -9.04206000
H   10.73942000   5.16361000   -6.35127000
H   10.79474000   3.72190000   -9.09738000
H   12.00764000   2.91308000   -6.37120000
C   14.55643000   2.96885000   -7.44091000
H   14.53875000   2.89802000   -6.32995000
C   9.49562000   5.92012000   -7.97597000
C   9.50461000   2.98324000   -7.52981000
C   8.23546000   5.16204000   -7.51514000
C   8.25325000   3.71650000   -8.02435000
H   9.50884000   5.93212000   -9.09022000
H   8.16713000   5.16190000   -6.40503000
H   8.22650000   3.70894000   -9.13523000
H   9.47278000   2.91323000   -6.42005000
C   -10.76634000   -5.88392000   7.59358000
C   -8.22783000   -5.89684000   7.64772000
C   -9.48323000   -5.14875000   7.13742000
H   -8.25084000   -5.91788000   8.76275000
H   -8.17547000   -2.93534000   6.09266000
C   -8.20263000   -2.95695000   7.20763000
C   -9.48779000   -3.69199000   7.65928000
H   -9.45848000   -5.12929000   6.02238000
C   -10.74013000   -2.94353000   7.14297000
C   -12.02726000   -3.67558000   7.59534000
C   -12.02235000   -5.13871000   7.07932000
H   -11.99500000   -5.12292000   5.96427000
H   -10.79141000   -5.90154000   8.70855000
H   -9.51528000   -3.71149000   8.77421000
H   -10.71153000   -2.92555000   6.02806000
H   -12.05441000   -3.69146000   8.71037000
C   -10.74220000   -1.48642000   7.66423000
C   -8.20596000   -1.50118000   7.73303000
C   -9.45485000   -0.75174000   7.21568000
C   -11.98896000   -0.73597000   7.14296000
H   -10.77396000   -1.50461000   8.77907000
H   -8.23565000   -1.52265000   8.84790000
H   -11.95495000   -0.71930000   6.02786000
H   -9.42352000   -0.73217000   6.10062000
C   -13.28448000   -1.46325000   7.58900000
C   -13.28329000   -2.92595000   7.07904000
C   -13.30990000   -5.87498000   7.53339000
C   -14.51244000   -0.69199000   7.06713000
C   -14.55243000   -3.67228000   7.53159000
C   -14.54736000   -5.11561000   7.01892000
H   -14.52594000   -0.69089000   5.95497000
H   -13.32615000   -1.47554000   8.70251000
H   -13.26323000   -2.91353000   5.96492000
H   -14.62825000   -3.67372000   8.64117000
H   -14.56843000   -5.11374000   5.90697000
H   -13.34467000   -5.88707000   8.64709000
C   -14.50474000   0.75316000   7.57769000
C   -13.22292000   1.47345000   7.14615000
C   -11.98480000   0.72499000   7.66173000
C   -10.70081000   1.44967000   7.22264000
C   -9.45734000   0.70671000   7.73784000
C   -8.17364000   1.43549000   7.30064000
H   -14.58620000   0.76068000   8.68589000
H   -12.01888000   0.72072000   8.77468000
H   -9.49077000   0.69984000   8.85071000
H   -13.19933000   1.54420000   6.03624000
H   -10.66662000   1.51846000   6.11182000
H   -8.14043000   1.50816000   6.19010000
C   -8.22281000   5.90509000   7.12315000
C   -9.50182000   5.16912000   7.58279000
C   -10.75866000   5.91672000   7.07305000
H   -8.20223000   5.92596000   6.00802000
C   -9.49501000   3.71016000   7.06199000
H   -9.52290000   5.15048000   8.69803000
C   -10.76925000   2.98079000   7.51759000
C   -12.02271000   3.71830000   7.01594000
C   -12.03697000   5.17969000   7.53329000
H   -9.47604000   3.71608000   5.94874000
H   -10.73666000   5.93444000   5.95794000
H   -12.05758000   5.16361000   8.64873000
H   -12.00226000   3.72190000   5.90262000
H   -10.78936000   2.91308000   8.62880000
C   -8.24057000   2.96885000   7.55909000
H   -8.25825000   2.89802000   8.67005000
C   -13.30138000   5.92012000   7.02403000
C   -13.29239000   2.98324000   7.47019000
C   -14.56154000   5.16204000   7.48486000
C   -14.54375000   3.71650000   6.97565000
H   -13.28816000   5.93212000   5.90978000
H   -14.62987000   5.16190000   8.59497000
H   -14.57050000   3.70894000   5.86477000
H   -13.32422000   2.91323000   8.57995000
C   -3.16734000   -5.88392000   7.59358000
C   -0.62883000   -5.89684000   7.64772000
C   -1.88423000   -5.14875000   7.13742000
H   -0.65184000   -5.91788000   8.76275000
H   -0.57647000   -2.93534000   6.09266000
C   -0.60363000   -2.95695000   7.20763000
C   -1.88879000   -3.69199000   7.65928000
H   -1.85948000   -5.12929000   6.02238000
C   -3.14113000   -2.94353000   7.14297000
C   -4.42826000   -3.67558000   7.59534000
C   -4.42335000   -5.13871000   7.07932000
H   -4.39600000   -5.12292000   5.96427000
H   -3.19241000   -5.90154000   8.70855000
H   -1.91628000   -3.71149000   8.77421000
H   -3.11253000   -2.92555000   6.02806000
H   -4.45541000   -3.69146000   8.71037000
C   -3.14320000   -1.48642000   7.66423000
C   -0.60696000   -1.50118000   7.73303000
C   -1.85585000   -0.75174000   7.21568000
C   -4.38996000   -0.73597000   7.14296000
H   -3.17496000   -1.50461000   8.77907000
H   -0.63665000   -1.52265000   8.84790000
H   -1.82452000   -0.73217000   6.10062000
C   -5.68548000   -1.46325000   7.58900000
C   -5.68429000   -2.92595000   7.07904000
C   -5.71090000   -5.87498000   7.53339000
C   -6.91344000   -0.69199000   7.06713000
C   -6.95343000   -3.67228000   7.53159000
C   -6.94836000   -5.11561000   7.01892000
H   -6.92694000   -0.69089000   5.95497000
H   -5.72715000   -1.47554000   8.70251000
H   -5.66423000   -2.91353000   5.96492000
H   -7.02925000   -3.67372000   8.64117000
H   -6.96943000   -5.11374000   5.90697000
H   -5.74567000   -5.88707000   8.64709000
C   -6.90574000   0.75316000   7.57769000
C   -5.62392000   1.47345000   7.14615000
C   -4.38580000   0.72499000   7.66173000
C   -3.10181000   1.44967000   7.22264000
C   -1.85834000   0.70671000   7.73784000
C   -0.57464000   1.43549000   7.30064000
H   -6.98720000   0.76068000   8.68589000
H   -4.41988000   0.72072000   8.77468000
H   -1.89177000   0.69984000   8.85071000
H   -5.60033000   1.54420000   6.03624000
H   -3.06762000   1.51846000   6.11182000
H   -0.54143000   1.50816000   6.19010000
C   -0.62381000   5.90509000   7.12315000
C   -1.90282000   5.16912000   7.58279000
C   -3.15966000   5.91672000   7.07305000
H   -0.60323000   5.92596000   6.00802000
C   -1.89601000   3.71016000   7.06199000
H   -1.92390000   5.15048000   8.69803000
C   -3.17025000   2.98079000   7.51759000
C   -4.42371000   3.71830000   7.01594000
C   -4.43797000   5.17969000   7.53329000
H   -1.87704000   3.71608000   5.94874000
H   -3.13766000   5.93444000   5.95794000
H   -4.45858000   5.16361000   8.64873000
H   -4.40326000   3.72190000   5.90262000
H   -3.19036000   2.91308000   8.62880000
C   -0.64157000   2.96885000   7.55909000
H   -0.65925000   2.89802000   8.67005000
C   -5.70238000   5.92012000   7.02403000
C   -5.69339000   2.98324000   7.47019000
C   -6.96254000   5.16204000   7.48486000
C   -6.94475000   3.71650000   6.97565000
H   -5.68916000   5.93212000   5.90978000
H   -7.03087000   5.16190000   8.59497000
H   -6.97150000   3.70894000   5.86477000
H   -5.72522000   2.91323000   8.57995000
C   4.43166000   -5.88392000   7.59358000
C   6.97017000   -5.89684000   7.64772000
C   5.71477000   -5.14875000   7.13742000
H   6.94716000   -5.91788000   8.76275000
H   7.02253000   -2.93534000   6.09266000
C   6.99537000   -2.95695000   7.20763000
C   5.71021000   -3.69199000   7.65928000
H   5.73952000   -5.12929000   6.02238000
C   4.45787000   -2.94353000   7.14297000
C   3.17074000   -3.67558000   7.59534000
C   3.17565000   -5.13871000   7.07932000
H   3.20300000   -5.12292000   5.96427000
H   4.40659000   -5.90154000   8.70855000
H   5.68272000   -3.71149000   8.77421000
H   4.48647000   -2.92555000   6.02806000
H   3.14359000   -3.69146000   8.71037000
C   4.45580000   -1.48642000   7.66423000
C   6.99204000   -1.50118000   7.73303000
C   5.74315000   -0.75174000   7.21568000
C   3.20904000   -0.73597000   7.14296000
H   4.42404000   -1.50461000   8.77907000
H   6.96235000   -1.52265000   8.84790000
H   3.24305000   -0.71930000   6.02786000
C   1.91352000   -1.46325000   7.58900000
C   1.91471000   -2.92595000   7.07904000
C   1.88810000   -5.87498000   7.53339000
C   0.68556000   -0.69199000   7.06713000
C   0.64557000   -3.67228000   7.53159000
C   0.65064000   -5.11561000   7.01892000
H   0.67206000   -0.69089000   5.95497000
H   1.87185000   -1.47554000   8.70251000
H   1.93477000   -2.91353000   5.96492000
H   0.56975000   -3.67372000   8.64117000
H   0.62957000   -5.11374000   5.90697000
H   1.85333000   -5.88707000   8.64709000
C   0.69326000   0.75316000   7.57769000
C   1.97508000   1.47345000   7.14615000
C   3.21320000   0.72499000   7.66173000
C   4.49719000   1.44967000   7.22264000
C   5.74066000   0.70671000   7.73784000
C   7.02436000   1.43549000   7.30064000
H   0.61180000   0.76068000   8.68589000
H   3.17912000   0.72072000   8.77468000
H   5.70723000   0.69984000   8.85071000
H   1.99867000   1.54420000   6.03624000
H   4.53138000   1.51846000   6.11182000
H   7.05757000   1.50816000   6.19010000
C   6.97519000   5.90509000   7.12315000
C   5.69618000   5.16912000   7.58279000
C   4.43934000   5.91672000   7.07305000
H   6.99577000   5.92596000   6.00802000
C   5.70299000   3.71016000   7.06199000
H   5.67510000   5.15048000   8.69803000
C   4.42875000   2.98079000   7.51759000
C   3.17529000   3.71830000   7.01594000
C   3.16103000   5.17969000   7.53329000
H   5.72196000   3.71608000   5.94874000
H   4.46134000   5.93444000   5.95794000
H   3.14042000   5.16361000   8.64873000
H   3.19574000   3.72190000   5.90262000
H   4.40864000   2.91308000   8.62880000
C   6.95743000   2.96885000   7.55909000
H   6.93975000   2.89802000   8.67005000
C   1.89662000   5.92012000   7.02403000
C   1.90561000   2.98324000   7.47019000
C   0.63646000   5.16204000   7.48486000
C   0.65425000   3.71650000   6.97565000
H   1.90984000   5.93212000   5.90978000
H   0.56813000   5.16190000   8.59497000
H   0.62750000   3.70894000   5.86477000
H   1.87378000   2.91323000   8.57995000
C   12.03066000   -5.88392000   7.59358000
C   14.56917000   -5.89684000   7.64772000
C   13.31377000   -5.14875000   7.13742000
H   14.54616000   -5.91788000   8.76275000
H   14.62153000   -2.93534000   6.09266000
C   14.59437000   -2.95695000   7.20763000
C   13.30921000   -3.69199000   7.65928000
H   13.33852000   -5.12929000   6.02238000
C   12.05687000   -2.94353000   7.14297000
C   10.76974000   -3.67558000   7.59534000
C   10.77465000   -5.13871000   7.07932000
H   10.80200000   -5.12292000   5.96427000
H   12.00559000   -5.90154000   8.70855000
H   13.28172000   -3.71149000   8.77421000
H   12.08547000   -2.92555000   6.02806000
H   10.74259000   -3.69146000   8.71037000
C   12.05480000   -1.48642000   7.66423000
C   14.59104000   -1.50118000   7.73303000
C   13.34215000   -0.75174000   7.21568000
C   10.80804000   -0.73597000   7.14296000
H   12.02304000   -1.50461000   8.77907000
H   14.56135000   -1.52265000   8.84790000
H   10.84205000   -0.71930000   6.02786000
H   13.37348000   -0.73217000   6.10062000
C   9.51252000   -1.46325000   7.58900000
C   9.51371000   -2.92595000   7.07904000
C   9.48710000   -5.87498000   7.53339000
C   8.28456000   -0.69199000   7.06713000
C   8.24457000   -3.67228000   7.53159000
C   8.24964000   -5.11561000   7.01892000
H   8.27106000   -0.69089000   5.95497000
H   9.47085000   -1.47554000   8.70251000
H   9.53377000   -2.91353000   5.96492000
H   8.16875000   -3.67372000   8.64117000
H   8.22857000   -5.11374000   5.90697000
H   9.45233000   -5.88707000   8.64709000
C   8.29226000   0.75316000   7.57769000
C   9.57408000   1.47345000   7.14615000
C   10.81220000   0.72499000   7.66173000
C   12.09619000   1.44967000   7.22264000
C   13.33966000   0.70671000   7.73784000
C   14.62336000   1.43549000   7.30064000
H   8.21080000   0.76068000   8.68589000
H   10.77812000   0.72072000   8.77468000
H   13.30623000   0.69984000   8.85071000
H   9.59767000   1.54420000   6.03624000
H   12.13038000   1.51846000   6.11182000
H   14.65657000   1.50816000   6.19010000
C   14.57419000   5.90509000   7.12315000
C   13.29518000   5.16912000   7.58279000
C   12.03834000   5.91672000   7.07305000
H   14.59477000   5.92596000   6.00802000
C   13.30199000   3.71016000   7.06199000
H   13.27410000   5.15048000   8.69803000
C   12.02775000   2.98079000   7.51759000
C   10.77429000   3.71830000   7.01594000
C   10.76003000   5.17969000   7.53329000
H   13.32096000   3.71608000   5.94874000
H   12.06034000   5.93444000   5.95794000
H   10.73942000   5.16361000   8.64873000
H   10.79474000   3.72190000   5.90262000
H   12.00764000   2.91308000   8.62880000
C   14.55643000   2.96885000   7.55909000
H   14.53875000   2.89802000   8.67005000
C   9.49562000   5.92012000   7.02403000
C   9.50461000   2.98324000   7.47019000
C   8.23546000   5.16204000   7.48486000
C   8.25325000   3.71650000   6.97565000
H   9.50884000   5.93212000   5.90978000
H   8.16713000   5.16190000   8.59497000
H   8.22650000   3.70894000   5.86477000
H   9.47278000   2.91323000   8.57995000
N   -4.60567024   -1.10579860   2.93185615
C   -4.31036696   -0.58696355   5.46358113
H   -3.25771717   -0.64129329   5.22864242
H   -4.74054209   0.40742981   5.17803110
C   -4.83376655   -1.58699591   4.42172024
H   -5.94221681   -1.64652714   4.47161343
H   -4.50320937   -2.57976882   4.49029603
C   -5.25192338   -2.14166914   2.06211410
H   -5.91214114   -2.75717072   2.61145607
H   -5.69210343   -1.71557779   1.14331638
H   -4.48638741   -2.74810760   1.60721958
C   -3.20959296   -0.87202617   2.49593696
H   -2.62070062   -1.85463910   2.54743677
H   -3.26011190   -0.49820609   1.42414588
H   -2.77993743   -0.03581272   3.12203814
C   -5.32046122   0.16607434   2.70930573
H   -5.66328990   0.26262805   1.66405797
H   -6.21322899   0.08675365   3.28852047
H   -4.74227795   1.06182300   2.85989744
N   5.84917710   -0.94057281   -1.40324445
C   5.81961047   -0.81704077   5.61170074
H   4.81727858   -0.85557235   5.34925951
H   6.21224024   -1.83181811   5.24867969
C   6.27946692   0.22324579   4.59572097
H   5.77487089   1.14701157   4.76091306
H   7.32489618   0.49792575   4.71188303
C   6.08189788   -0.24440118   3.09547733
H   5.11807733   -0.13008268   2.67400733
H   6.24031054   -1.34664708   3.07159853
C   6.92731559   0.53697609   2.20452644
H   6.60466053   1.58646647   2.15057324
H   7.94579262   0.63942020   2.56013186
C   7.10228001   -0.07604641   0.75403553
H   7.61147344   -1.04111647   0.70866754
H   7.84741693   0.50498321   0.16332598
C   5.76161903   -0.17341902   0.02001095
H   5.28118288   0.79532075   -0.22169256
H   5.01970334   -0.78067267   0.54888719
C   7.06667954   -0.52664102   -2.18671116
H   6.92540693   -0.84049726   -3.25752005
H   7.94146565   -0.92950207   -1.75813072
H   7.14548182   0.47783853   -2.15418667
C   4.61741922   -0.76214932   -2.22943917
H   4.52255153   -1.59503484   -2.84849183
H   4.56376377   0.18691749   -2.71495072
H   3.81326368   -0.89675408   -1.51670363
C   5.87472252   -2.42364977   -1.13156952
H   6.79783613   -2.60852671   -0.49860334
H   6.02880749   -2.97385569   -2.07868509
H   4.98283989   -2.74624108   -0.59826146
O   17.56790732   -3.83987594   -2.96777616
H   -12.54899881   -3.31455895   -2.17210669
H   17.60879486   -4.81072032   -2.74008008
O   3.46709197   17.89703964   1.43386582
H   2.62782142   17.61362301   1.11613793
H   -7.80879332   29.82662982   -1.30260720
O   -11.31526418   -20.72924136   1.32363183
H   -3.60224455   -0.46285451   -3.34273141
H   -11.68008966   -19.95209156   0.83935746
O   8.79483573   7.46669035   -3.91125253
H   8.35186421   -6.54310789   -4.45885208
H   9.28723401   -6.40421791   -3.25088604
O   19.40456498   30.25910094   -0.04183807
H   19.18329612   30.20365067   -1.01497498
H   20.40968326   30.34629576   -0.06873220
O   -15.60202715   -11.17027281   -4.09132993
H   -14.68774007   -10.93469102   -4.08069273
H   -7.45511466   -24.23079191   0.58859147
O   -18.00563123   22.61638767   -1.59582732
H   -17.69631529   22.63545124   -0.71120929
H   -17.31949705   22.21328004   -2.09802299
O   5.62906677   -9.91582257   2.91530681
H   5.35978227   -9.51636460   3.73433308
H   4.93061673   -23.27311895   2.28956490
O   -8.61612540   -8.36066398   1.89402242
H   -8.45683057   -8.99803786   1.21247313
H   -9.60850940   -8.36003253   1.88425893
O   -24.40870605   6.42601118   -0.12972176
H   -23.49284853   6.21309910   -0.38777483
H   -24.73673584   5.65483861   0.34717536
O   -9.22672119   19.34739727   -1.15219369
H   -8.84081999   18.44125662   -1.02282394
H   -8.63989321   19.85432091   -0.54670484
O   -6.99072363   -24.77879260   1.28088988
H   -6.51042519   -24.14429068   1.75121182
H   8.86507876   4.06743186   0.10741369
O   3.76529369   15.39875816   -3.32361443
H   4.00578068   15.58487353   -4.22377178
H   2.99938662   15.98291237   -3.14843002
O   -0.75845784   -8.67048444   -3.95178067
H   -0.49925109   -7.80760656   -3.61919142
H   -1.68319351   -8.40566013   -4.27092673
O   -8.35504251   7.70185520   3.24362774
H   -8.52306794   6.89651291   2.75714749
H   -9.11244364   7.80511338   3.83887087
O   -3.96986259   12.10726759   -3.53054266
H   -15.92426044   -11.58351252   -4.94425465
H   -4.78338136   12.19424190   -4.04507469
O   -17.54902017   -6.18721243   2.24784753
H   -17.53539331   -6.05807379   3.19691381
H   -18.02944520   -7.03503549   2.08115088
O   9.95227628   11.65984516   -1.40120364
H   9.82082433   10.87481351   -0.92218360
H   10.89244449   11.90036821   -1.16397808
O   2.17729192   -22.43859765   -3.33689612
H   2.13182902   -21.58607285   -2.80842927
H   1.38018037   -22.42781217   -3.81713903
O   -8.29528394   16.83804768   -0.53751009
H   -11.41033708   -21.48431687   0.71096066
H   -5.79194637   16.75924858   -2.92203051
O   -13.70088372   -22.47296968   3.21843453
H   -12.95160087   -22.42330026   2.58248649
H   -13.59499844   -35.12531937   3.82064525
O   0.61331021   16.41387888   1.31952253
H   0.60894638   17.32129172   1.58971184
H   -0.09525710   15.96830406   1.75100139
O   0.02426860   -3.07230750   0.54800330
H   0.52338749   -2.25282545   0.41808613
H   0.37690794   -3.73652172   -0.04136041
O   -3.84854636   -1.17140128   -0.52778888
H   -3.46606315   -0.90404898   -1.38304579
H   -7.63981937   6.35616086   -3.50723691
O   0.01911182   -6.70725264   0.40618960
H   2.53905266   -16.40366962   0.20538795
H   -0.45066353   -7.43458239   -0.03419275
O   19.74670216   -25.60829425   1.91464830
H   20.10454146   -25.49648851   1.03625697
H   19.18904596   -24.76864444   2.03976150
O   -6.23914824   4.88668643   0.46005008
H   -6.39203493   5.77884740   0.04503511
H   -6.96040598   4.31297807   0.08086189
O   -3.93711148   16.52681313   -0.68145846
H   -4.26067232   17.04950498   -1.43116277
H   -4.75961077   2.84262620   -0.25543208
O   -15.92252886   -13.88998774   1.85270730
H   -16.86788275   -14.05945114   1.95099113
H   -15.71916376   -13.05492783   2.29747229
O   8.24066337   -3.76592507   0.79313855
H   8.95513362   -4.35983963   0.53447184
H   7.43581075   -4.18403242   0.57689697
O   14.41679275   -23.57731583   1.84134463
H   14.80418582   -24.18254770   1.21935258
H   -17.75119010   11.93940284   -0.31944417
O   -26.18574406   -6.32156404   3.31499493
H   -26.12374544   -7.29376271   3.34257423
H   -26.54083954   -5.92214308   4.14334653
O   24.43186234   5.26761008   3.52341982
H   24.14360297   5.10904444   2.59872054
H   23.81256131   5.95751853   3.84989621
O   -10.12109493   -0.31203049   -4.08872289
H   -9.19674562   -0.48516363   -3.97616448
H   -10.62866908   -1.11212244   -4.05206027
O   24.58387883   -3.25918560   -4.29647461
H   24.03771603   -3.85724923   -3.83476648
H   25.43954035   -3.42009856   -3.92861726
O   7.69814761   -16.83583378   -3.78196457
H   8.49674957   -17.17071510   -4.23030441
H   6.89118740   -17.19494169   -4.25655940
O   2.62330063   -1.74912768   3.18749318
H   2.13283093   -1.78505944   2.33213758
H   2.47018474   -2.63836716   3.60323025
O   -3.62680637   -11.83227981   -2.70730608
H   -3.29859019   -11.96976355   -1.76418744
H   -2.98881401   -11.26253789   -3.09828687
O   -5.75846527   -9.20197086   -2.41018759
H   -6.52576069   -9.13502321   -1.82348361
H   0.98505111   -15.54168497   -3.06968506
O   -0.11120154   -18.48603732   2.83531453
H   -0.20891041   -19.40727542   2.75838208
H   0.18147485   -18.16664127   1.96552555
O   -19.59860556   -7.80684459   -2.77692823
H   -19.17730787   -6.97657883   -2.44837381
H   -19.61854491   -8.33636361   -1.95932325
O   11.84546526   4.45924014   1.74742105
H   12.72646811   4.21404967   2.12280491
H   11.92560221   4.31169903   0.79065357
O   26.48885367   -36.81559854   2.85725067
H   25.81923002   -22.77924203   3.14197758
H   26.87261250   -36.51709543   1.98789311
O   22.02310673   13.64268872   4.18715924
H   21.65295795   12.73477565   4.45739093
H   21.77911233   13.88860201   3.25449152
O   -3.74881616   5.09786632   -3.97491529
H   -4.22439618   5.14993009   -3.11355888
H   -4.40999582   5.30543858   -4.63478730
O   -4.78602449   -5.29577445   3.54462988
H   -4.45080780   -5.28814544   2.65122454
H   -4.49872599   -6.21151548   3.78971858
O   12.78168697   -23.11541225   -1.11629355
H   13.26151932   -22.44921634   -1.59329091
H   13.41043598   -23.74282478   -0.75842931
O   -15.03144782   -11.75087795   -0.50303681
H   -14.22590936   -12.07047347   -0.94629118
H   -15.29636389   -12.55008416   -0.03010658
O   -7.14946236   -6.19666569   -3.66083335
H   -7.27607243   -6.07527318   -4.66755972
H   3.56809865   5.40680247   1.07845431
O   -2.68430731   -3.94566370   1.48891024
H   -2.68420464   -4.69601237   0.87645857
H   -1.79556149   -3.51466423   1.33009853
O   -8.28266349   -12.96402457   -0.43308288
H   -7.82126048   -12.12375586   -0.61083085
H   -8.12786468   0.27431028   0.50705243
O   2.34792148   -20.07846987   -1.92779300
H   3.12276357   -6.54741604   -1.39831632
H   1.79270121   -19.29967307   -1.86116871
O   -13.07657060   13.13437010   -2.37361846
H   -13.05601381   12.26169861   -2.81651837
H   -12.11355340   13.30094792   -2.40008342
O   -12.02729941   -3.07530294   -0.04320380
H   -12.20032759   -3.20740982   0.88703303
H   -11.11922052   -2.78382740   -0.19416335
O   -2.15063884   -16.89844812   -1.45927669
H   -2.25261622   -17.84326084   -1.30097446
H   -1.18159317   -16.86375149   -1.46758637
O   1.05980351   18.80605713   2.74588457
H   0.77419891   19.25762531   3.54440249
H   0.73352529   19.36558729   2.05940194
O   29.30315678   0.43654197   -0.98695869
H   30.14339155   0.33678648   -0.53593601
H   29.13573748   -0.45710183   -1.28831453
O   10.02996557   2.39606357   0.96503066
H   10.60502107   1.65174771   0.72896665
H   10.43653109   2.94214336   1.66523096
O   0.93629031   -4.67379086   -1.25709585
H   0.18942734   -5.99888788   -0.24045978
H   0.39829240   -4.55689217   -2.05002798
O   1.15068464   0.33130777   0.91403851
H   1.11571855   1.30629035   1.08963906
H   1.90313893   -0.12925249   1.28967368
O   2.69464059   -2.75329829   -0.73147349
H   2.03588136   -3.39965165   -1.13563128
H   2.03799737   7.15103015   0.93980168
O   5.68377386   -10.03660137   -0.28006738
H   6.49320785   -9.61491323   -0.02682979
H   4.92136511   -9.87296431   0.35735678
O   2.44602472   8.00388530   0.85561605
H   15.08378692   -23.18474733   2.40961973
H   2.11370530   8.38077484   0.00713077
O   -2.78299371   9.05323267   -3.74284097
H   -3.08546406   9.87758512   -3.28584549
H   -1.86079434   9.23845088   -3.93643606
O   12.09587643   12.49650083   0.23387223
H   -1.42995457   9.77231647   4.69049936
H   12.15503570   13.33944336   -0.25153141
O   -1.55986106   -21.98660789   -1.34494115
H   -1.02713408   -22.43981666   -1.98885186
H   -1.89716342   -22.70179617   -0.79559296
O   -20.15298027   -6.09169665   0.44084688
H   -20.30532238   -6.98236914   0.88813892
H   -19.36568399   -5.72850482   0.85834560
O   -7.46997504   -11.33655909   -4.02844974
H   -8.42979570   -11.23846438   -4.23784980
H   -7.30656592   -12.29229084   -3.72207864
O   12.96628312   -12.93656508   -1.91619680
H   13.75920761   -12.42067040   -1.85882663
H   12.35096470   -12.38581793   -2.45529182
O   6.73575139   4.62361471   -2.76622495
H   6.03209875   4.33654905   -2.17204292
H   6.37641931   4.74902646   -3.61420598
O   1.15295111   10.72183490   -3.87085868
H   2.00227296   -3.09954634   -3.87637436
H   -3.64840848   11.31253459   -0.54072057
O   -9.70160965   9.55374284   1.39767209
H   -9.19617515   9.57525870   0.57642204
H   -9.28229264   8.88633576   2.00519862
O   -10.19451302   -11.30996331   -2.32890197
H   -9.52092141   -10.98961464   -1.71581517
H   -10.11516423   -12.27136006   -2.49955657
O   27.10524803   20.61752040   -0.51094629
H   27.40883950   19.74587263   -0.87284343
H   26.43789393   20.94880124   -1.10007950
O   -22.08860592   4.80815375   -0.19957404
H   8.13534919   4.64067262   -1.13235147
O   -2.20260416   10.11273428   4.15510915
H   -2.16258269   9.53950445   3.33552376
