850

C   -10.76634000   -5.88392000   -7.40642000
C   -8.22783000   -5.89684000   -7.35228000
C   -9.48323000   -5.14875000   -7.86258000
H   -8.25084000   -5.91788000   -6.23725000
H   -8.17547000   -2.93534000   -8.90734000
C   -8.20263000   -2.95695000   -7.79237000
C   -9.48779000   -3.69199000   -7.34072000
H   -9.45848000   -5.12929000   -8.97762000
C   -10.74013000   -2.94353000   -7.85703000
C   -12.02726000   -3.67558000   -7.40466000
C   -12.02235000   -5.13871000   -7.92068000
H   -11.99500000   -5.12292000   -9.03573000
H   -10.79141000   -5.90154000   -6.29145000
H   -9.51528000   -3.71149000   -6.22579000
H   -10.71153000   -2.92555000   -8.97194000
H   -12.05441000   -3.69146000   -6.28963000
C   -10.74220000   -1.48642000   -7.33577000
C   -8.20596000   -1.50118000   -7.26697000
C   -9.45485000   -0.75174000   -7.78432000
C   -11.98896000   -0.73597000   -7.85704000
H   -10.77396000   -1.50461000   -6.22093000
H   -8.23565000   -1.52265000   -6.15210000
H   -11.95495000   -0.71930000   -8.97214000
H   -9.42352000   -0.73217000   -8.89938000
C   -13.28448000   -1.46325000   -7.41100000
C   -13.28329000   -2.92595000   -7.92096000
C   -13.30990000   -5.87498000   -7.46661000
C   -14.51244000   -0.69199000   -7.93287000
C   -14.55243000   -3.67228000   -7.46841000
C   -14.54736000   -5.11561000   -7.98108000
H   -14.52594000   -0.69089000   -9.04503000
H   -13.32615000   -1.47554000   -6.29749000
H   -13.26323000   -2.91353000   -9.03508000
H   -14.62825000   -3.67372000   -6.35883000
H   -14.56843000   -5.11374000   -9.09303000
H   -13.34467000   -5.88707000   -6.35291000
C   -14.50474000   0.75316000   -7.42231000
C   -13.22292000   1.47345000   -7.85385000
C   -11.98480000   0.72499000   -7.33827000
C   -10.70081000   1.44967000   -7.77736000
C   -9.45734000   0.70671000   -7.26216000
C   -8.17364000   1.43549000   -7.69936000
H   -14.58620000   0.76068000   -6.31411000
H   -12.01888000   0.72072000   -6.22532000
H   -9.49077000   0.69984000   -6.14929000
H   -13.19933000   1.54420000   -8.96376000
H   -10.66662000   1.51846000   -8.88818000
H   -8.14043000   1.50816000   -8.80990000
C   -8.22281000   5.90509000   -7.87685000
C   -9.50182000   5.16912000   -7.41721000
C   -10.75866000   5.91672000   -7.92695000
H   -8.20223000   5.92596000   -8.99198000
C   -9.49501000   3.71016000   -7.93801000
H   -9.52290000   5.15048000   -6.30197000
C   -10.76925000   2.98079000   -7.48241000
C   -12.02271000   3.71830000   -7.98406000
C   -12.03697000   5.17969000   -7.46671000
H   -9.47604000   3.71608000   -9.05126000
H   -10.73666000   5.93444000   -9.04206000
H   -12.05758000   5.16361000   -6.35127000
H   -12.00226000   3.72190000   -9.09738000
H   -10.78936000   2.91308000   -6.37120000
C   -8.24057000   2.96885000   -7.44091000
H   -8.25825000   2.89802000   -6.32995000
C   -13.30138000   5.92012000   -7.97597000
C   -13.29239000   2.98324000   -7.52981000
C   -14.56154000   5.16204000   -7.51514000
C   -14.54375000   3.71650000   -8.02435000
H   -13.28816000   5.93212000   -9.09022000
H   -14.62987000   5.16190000   -6.40503000
H   -14.57050000   3.70894000   -9.13523000
H   -13.32422000   2.91323000   -6.42005000
C   -3.16734000   -5.88392000   -7.40642000
C   -0.62883000   -5.89684000   -7.35228000
C   -1.88423000   -5.14875000   -7.86258000
H   -0.65184000   -5.91788000   -6.23725000
H   -0.57647000   -2.93534000   -8.90734000
C   -0.60363000   -2.95695000   -7.79237000
C   -1.88879000   -3.69199000   -7.34072000
H   -1.85948000   -5.12929000   -8.97762000
C   -3.14113000   -2.94353000   -7.85703000
C   -4.42826000   -3.67558000   -7.40466000
C   -4.42335000   -5.13871000   -7.92068000
H   -4.39600000   -5.12292000   -9.03573000
H   -3.19241000   -5.90154000   -6.29145000
H   -1.91628000   -3.71149000   -6.22579000
H   -3.11253000   -2.92555000   -8.97194000
H   -4.45541000   -3.69146000   -6.28963000
C   -3.14320000   -1.48642000   -7.33577000
C   -0.60696000   -1.50118000   -7.26697000
C   -1.85585000   -0.75174000   -7.78432000
C   -4.38996000   -0.73597000   -7.85704000
H   -3.17496000   -1.50461000   -6.22093000
H   -0.63665000   -1.52265000   -6.15210000
H   -4.35595000   -0.71930000   -8.97214000
H   -1.82452000   -0.73217000   -8.89938000
C   -5.68548000   -1.46325000   -7.41100000
C   -5.68429000   -2.92595000   -7.92096000
C   -5.71090000   -5.87498000   -7.46661000
C   -6.91344000   -0.69199000   -7.93287000
C   -6.95343000   -3.67228000   -7.46841000
C   -6.94836000   -5.11561000   -7.98108000
H   -6.92694000   -0.69089000   -9.04503000
H   -5.72715000   -1.47554000   -6.29749000
H   -5.66423000   -2.91353000   -9.03508000
H   -7.02925000   -3.67372000   -6.35883000
H   -6.96943000   -5.11374000   -9.09303000
H   -5.74567000   -5.88707000   -6.35291000
C   -6.90574000   0.75316000   -7.42231000
C   -5.62392000   1.47345000   -7.85385000
C   -4.38580000   0.72499000   -7.33827000
C   -3.10181000   1.44967000   -7.77736000
C   -1.85834000   0.70671000   -7.26216000
C   -0.57464000   1.43549000   -7.69936000
H   -6.98720000   0.76068000   -6.31411000
H   -4.41988000   0.72072000   -6.22532000
H   -1.89177000   0.69984000   -6.14929000
H   -5.60033000   1.54420000   -8.96376000
H   -3.06762000   1.51846000   -8.88818000
H   -0.54143000   1.50816000   -8.80990000
C   -0.62381000   5.90509000   -7.87685000
C   -1.90282000   5.16912000   -7.41721000
C   -3.15966000   5.91672000   -7.92695000
H   -0.60323000   5.92596000   -8.99198000
C   -1.89601000   3.71016000   -7.93801000
H   -1.92390000   5.15048000   -6.30197000
C   -3.17025000   2.98079000   -7.48241000
C   -4.42371000   3.71830000   -7.98406000
C   -4.43797000   5.17969000   -7.46671000
H   -1.87704000   3.71608000   -9.05126000
H   -3.13766000   5.93444000   -9.04206000
H   -4.45858000   5.16361000   -6.35127000
H   -4.40326000   3.72190000   -9.09738000
H   -3.19036000   2.91308000   -6.37120000
C   -0.64157000   2.96885000   -7.44091000
H   -0.65925000   2.89802000   -6.32995000
C   -5.70238000   5.92012000   -7.97597000
C   -5.69339000   2.98324000   -7.52981000
C   -6.96254000   5.16204000   -7.51514000
C   -6.94475000   3.71650000   -8.02435000
H   -5.68916000   5.93212000   -9.09022000
H   -7.03087000   5.16190000   -6.40503000
H   -6.97150000   3.70894000   -9.13523000
H   -5.72522000   2.91323000   -6.42005000
C   4.43166000   -5.88392000   -7.40642000
C   6.97017000   -5.89684000   -7.35228000
C   5.71477000   -5.14875000   -7.86258000
H   6.94716000   -5.91788000   -6.23725000
H   7.02253000   -2.93534000   -8.90734000
C   6.99537000   -2.95695000   -7.79237000
C   5.71021000   -3.69199000   -7.34072000
H   5.73952000   -5.12929000   -8.97762000
C   4.45787000   -2.94353000   -7.85703000
C   3.17074000   -3.67558000   -7.40466000
C   3.17565000   -5.13871000   -7.92068000
H   3.20300000   -5.12292000   -9.03573000
H   4.40659000   -5.90154000   -6.29145000
H   5.68272000   -3.71149000   -6.22579000
H   4.48647000   -2.92555000   -8.97194000
H   3.14359000   -3.69146000   -6.28963000
C   4.45580000   -1.48642000   -7.33577000
C   6.99204000   -1.50118000   -7.26697000
C   5.74315000   -0.75174000   -7.78432000
C   3.20904000   -0.73597000   -7.85704000
H   4.42404000   -1.50461000   -6.22093000
H   6.96235000   -1.52265000   -6.15210000
H   3.24305000   -0.71930000   -8.97214000
H   5.77448000   -0.73217000   -8.89938000
C   1.91352000   -1.46325000   -7.41100000
C   1.91471000   -2.92595000   -7.92096000
C   1.88810000   -5.87498000   -7.46661000
C   0.68556000   -0.69199000   -7.93287000
C   0.64557000   -3.67228000   -7.46841000
C   0.65064000   -5.11561000   -7.98108000
H   0.67206000   -0.69089000   -9.04503000
H   1.87185000   -1.47554000   -6.29749000
H   1.93477000   -2.91353000   -9.03508000
H   0.56975000   -3.67372000   -6.35883000
H   0.62957000   -5.11374000   -9.09303000
H   1.85333000   -5.88707000   -6.35291000
C   0.69326000   0.75316000   -7.42231000
C   1.97508000   1.47345000   -7.85385000
C   3.21320000   0.72499000   -7.33827000
C   4.49719000   1.44967000   -7.77736000
C   5.74066000   0.70671000   -7.26216000
C   7.02436000   1.43549000   -7.69936000
H   0.61180000   0.76068000   -6.31411000
H   3.17912000   0.72072000   -6.22532000
H   5.70723000   0.69984000   -6.14929000
H   1.99867000   1.54420000   -8.96376000
H   4.53138000   1.51846000   -8.88818000
H   7.05757000   1.50816000   -8.80990000
C   6.97519000   5.90509000   -7.87685000
C   5.69618000   5.16912000   -7.41721000
C   4.43934000   5.91672000   -7.92695000
H   6.99577000   5.92596000   -8.99198000
C   5.70299000   3.71016000   -7.93801000
H   5.67510000   5.15048000   -6.30197000
C   4.42875000   2.98079000   -7.48241000
C   3.17529000   3.71830000   -7.98406000
C   3.16103000   5.17969000   -7.46671000
H   5.72196000   3.71608000   -9.05126000
H   4.46134000   5.93444000   -9.04206000
H   3.14042000   5.16361000   -6.35127000
H   3.19574000   3.72190000   -9.09738000
H   4.40864000   2.91308000   -6.37120000
C   6.95743000   2.96885000   -7.44091000
H   6.93975000   2.89802000   -6.32995000
C   1.89662000   5.92012000   -7.97597000
C   1.90561000   2.98324000   -7.52981000
C   0.63646000   5.16204000   -7.51514000
C   0.65425000   3.71650000   -8.02435000
H   1.90984000   5.93212000   -9.09022000
H   0.56813000   5.16190000   -6.40503000
H   0.62750000   3.70894000   -9.13523000
H   1.87378000   2.91323000   -6.42005000
C   12.03066000   -5.88392000   -7.40642000
C   14.56917000   -5.89684000   -7.35228000
C   13.31377000   -5.14875000   -7.86258000
H   14.54616000   -5.91788000   -6.23725000
H   14.62153000   -2.93534000   -8.90734000
C   14.59437000   -2.95695000   -7.79237000
C   13.30921000   -3.69199000   -7.34072000
H   13.33852000   -5.12929000   -8.97762000
C   12.05687000   -2.94353000   -7.85703000
C   10.76974000   -3.67558000   -7.40466000
C   10.77465000   -5.13871000   -7.92068000
H   10.80200000   -5.12292000   -9.03573000
H   12.00559000   -5.90154000   -6.29145000
H   13.28172000   -3.71149000   -6.22579000
H   12.08547000   -2.92555000   -8.97194000
H   10.74259000   -3.69146000   -6.28963000
C   12.05480000   -1.48642000   -7.33577000
C   14.59104000   -1.50118000   -7.26697000
C   13.34215000   -0.75174000   -7.78432000
C   10.80804000   -0.73597000   -7.85704000
H   12.02304000   -1.50461000   -6.22093000
H   14.56135000   -1.52265000   -6.15210000
H   10.84205000   -0.71930000   -8.97214000
H   13.37348000   -0.73217000   -8.89938000
C   9.51252000   -1.46325000   -7.41100000
C   9.51371000   -2.92595000   -7.92096000
C   9.48710000   -5.87498000   -7.46661000
C   8.28456000   -0.69199000   -7.93287000
C   8.24457000   -3.67228000   -7.46841000
C   8.24964000   -5.11561000   -7.98108000
H   8.27106000   -0.69089000   -9.04503000
H   9.47085000   -1.47554000   -6.29749000
H   9.53377000   -2.91353000   -9.03508000
H   8.16875000   -3.67372000   -6.35883000
H   8.22857000   -5.11374000   -9.09303000
H   9.45233000   -5.88707000   -6.35291000
C   8.29226000   0.75316000   -7.42231000
C   9.57408000   1.47345000   -7.85385000
C   10.81220000   0.72499000   -7.33827000
C   12.09619000   1.44967000   -7.77736000
C   13.33966000   0.70671000   -7.26216000
C   14.62336000   1.43549000   -7.69936000
H   8.21080000   0.76068000   -6.31411000
H   10.77812000   0.72072000   -6.22532000
H   13.30623000   0.69984000   -6.14929000
H   9.59767000   1.54420000   -8.96376000
H   12.13038000   1.51846000   -8.88818000
H   14.65657000   1.50816000   -8.80990000
C   14.57419000   5.90509000   -7.87685000
C   13.29518000   5.16912000   -7.41721000
C   12.03834000   5.91672000   -7.92695000
H   14.59477000   5.92596000   -8.99198000
C   13.30199000   3.71016000   -7.93801000
H   13.27410000   5.15048000   -6.30197000
C   12.02775000   2.98079000   -7.48241000
C   10.77429000   3.71830000   -7.98406000
C   10.76003000   5.17969000   -7.46671000
H   13.32096000   3.71608000   -9.05126000
H   12.06034000   5.93444000   -9.04206000
H   10.73942000   5.16361000   -6.35127000
H   10.79474000   3.72190000   -9.09738000
H   12.00764000   2.91308000   -6.37120000
C   14.55643000   2.96885000   -7.44091000
H   14.53875000   2.89802000   -6.32995000
C   9.49562000   5.92012000   -7.97597000
C   9.50461000   2.98324000   -7.52981000
C   8.23546000   5.16204000   -7.51514000
C   8.25325000   3.71650000   -8.02435000
H   9.50884000   5.93212000   -9.09022000
H   8.16713000   5.16190000   -6.40503000
H   8.22650000   3.70894000   -9.13523000
H   9.47278000   2.91323000   -6.42005000
C   -10.76634000   -5.88392000   7.59358000
C   -8.22783000   -5.89684000   7.64772000
C   -9.48323000   -5.14875000   7.13742000
H   -8.25084000   -5.91788000   8.76275000
H   -8.17547000   -2.93534000   6.09266000
C   -8.20263000   -2.95695000   7.20763000
C   -9.48779000   -3.69199000   7.65928000
H   -9.45848000   -5.12929000   6.02238000
C   -10.74013000   -2.94353000   7.14297000
C   -12.02726000   -3.67558000   7.59534000
C   -12.02235000   -5.13871000   7.07932000
H   -11.99500000   -5.12292000   5.96427000
H   -10.79141000   -5.90154000   8.70855000
H   -9.51528000   -3.71149000   8.77421000
H   -10.71153000   -2.92555000   6.02806000
H   -12.05441000   -3.69146000   8.71037000
C   -10.74220000   -1.48642000   7.66423000
C   -8.20596000   -1.50118000   7.73303000
C   -9.45485000   -0.75174000   7.21568000
C   -11.98896000   -0.73597000   7.14296000
H   -10.77396000   -1.50461000   8.77907000
H   -8.23565000   -1.52265000   8.84790000
H   -11.95495000   -0.71930000   6.02786000
H   -9.42352000   -0.73217000   6.10062000
C   -13.28448000   -1.46325000   7.58900000
C   -13.28329000   -2.92595000   7.07904000
C   -13.30990000   -5.87498000   7.53339000
C   -14.51244000   -0.69199000   7.06713000
C   -14.55243000   -3.67228000   7.53159000
C   -14.54736000   -5.11561000   7.01892000
H   -14.52594000   -0.69089000   5.95497000
H   -13.32615000   -1.47554000   8.70251000
H   -13.26323000   -2.91353000   5.96492000
H   -14.62825000   -3.67372000   8.64117000
H   -14.56843000   -5.11374000   5.90697000
H   -13.34467000   -5.88707000   8.64709000
C   -14.50474000   0.75316000   7.57769000
C   -13.22292000   1.47345000   7.14615000
C   -11.98480000   0.72499000   7.66173000
C   -10.70081000   1.44967000   7.22264000
C   -9.45734000   0.70671000   7.73784000
C   -8.17364000   1.43549000   7.30064000
H   -14.58620000   0.76068000   8.68589000
H   -12.01888000   0.72072000   8.77468000
H   -9.49077000   0.69984000   8.85071000
H   -13.19933000   1.54420000   6.03624000
H   -10.66662000   1.51846000   6.11182000
H   -8.14043000   1.50816000   6.19010000
C   -8.22281000   5.90509000   7.12315000
C   -9.50182000   5.16912000   7.58279000
C   -10.75866000   5.91672000   7.07305000
H   -8.20223000   5.92596000   6.00802000
C   -9.49501000   3.71016000   7.06199000
H   -9.52290000   5.15048000   8.69803000
C   -10.76925000   2.98079000   7.51759000
C   -12.02271000   3.71830000   7.01594000
C   -12.03697000   5.17969000   7.53329000
H   -9.47604000   3.71608000   5.94874000
H   -10.73666000   5.93444000   5.95794000
H   -12.05758000   5.16361000   8.64873000
H   -12.00226000   3.72190000   5.90262000
H   -10.78936000   2.91308000   8.62880000
C   -8.24057000   2.96885000   7.55909000
H   -8.25825000   2.89802000   8.67005000
C   -13.30138000   5.92012000   7.02403000
C   -13.29239000   2.98324000   7.47019000
C   -14.56154000   5.16204000   7.48486000
C   -14.54375000   3.71650000   6.97565000
H   -13.28816000   5.93212000   5.90978000
H   -14.62987000   5.16190000   8.59497000
H   -14.57050000   3.70894000   5.86477000
H   -13.32422000   2.91323000   8.57995000
C   -3.16734000   -5.88392000   7.59358000
C   -0.62883000   -5.89684000   7.64772000
C   -1.88423000   -5.14875000   7.13742000
H   -0.65184000   -5.91788000   8.76275000
H   -0.57647000   -2.93534000   6.09266000
C   -0.60363000   -2.95695000   7.20763000
C   -1.88879000   -3.69199000   7.65928000
H   -1.85948000   -5.12929000   6.02238000
C   -3.14113000   -2.94353000   7.14297000
C   -4.42826000   -3.67558000   7.59534000
C   -4.42335000   -5.13871000   7.07932000
H   -4.39600000   -5.12292000   5.96427000
H   -3.19241000   -5.90154000   8.70855000
H   -1.91628000   -3.71149000   8.77421000
H   -3.11253000   -2.92555000   6.02806000
H   -4.45541000   -3.69146000   8.71037000
C   -3.14320000   -1.48642000   7.66423000
C   -0.60696000   -1.50118000   7.73303000
C   -1.85585000   -0.75174000   7.21568000
C   -4.38996000   -0.73597000   7.14296000
H   -3.17496000   -1.50461000   8.77907000
H   -0.63665000   -1.52265000   8.84790000
H   -1.82452000   -0.73217000   6.10062000
C   -5.68548000   -1.46325000   7.58900000
C   -5.68429000   -2.92595000   7.07904000
C   -5.71090000   -5.87498000   7.53339000
C   -6.91344000   -0.69199000   7.06713000
C   -6.95343000   -3.67228000   7.53159000
C   -6.94836000   -5.11561000   7.01892000
H   -6.92694000   -0.69089000   5.95497000
H   -5.72715000   -1.47554000   8.70251000
H   -5.66423000   -2.91353000   5.96492000
H   -7.02925000   -3.67372000   8.64117000
H   -6.96943000   -5.11374000   5.90697000
H   -5.74567000   -5.88707000   8.64709000
C   -6.90574000   0.75316000   7.57769000
C   -5.62392000   1.47345000   7.14615000
C   -4.38580000   0.72499000   7.66173000
C   -3.10181000   1.44967000   7.22264000
C   -1.85834000   0.70671000   7.73784000
C   -0.57464000   1.43549000   7.30064000
H   -6.98720000   0.76068000   8.68589000
H   -4.41988000   0.72072000   8.77468000
H   -1.89177000   0.69984000   8.85071000
H   -5.60033000   1.54420000   6.03624000
H   -3.06762000   1.51846000   6.11182000
H   -0.54143000   1.50816000   6.19010000
C   -0.62381000   5.90509000   7.12315000
C   -1.90282000   5.16912000   7.58279000
C   -3.15966000   5.91672000   7.07305000
H   -0.60323000   5.92596000   6.00802000
C   -1.89601000   3.71016000   7.06199000
H   -1.92390000   5.15048000   8.69803000
C   -3.17025000   2.98079000   7.51759000
C   -4.42371000   3.71830000   7.01594000
C   -4.43797000   5.17969000   7.53329000
H   -1.87704000   3.71608000   5.94874000
H   -3.13766000   5.93444000   5.95794000
H   -4.45858000   5.16361000   8.64873000
H   -4.40326000   3.72190000   5.90262000
H   -3.19036000   2.91308000   8.62880000
C   -0.64157000   2.96885000   7.55909000
H   -0.65925000   2.89802000   8.67005000
C   -5.70238000   5.92012000   7.02403000
C   -5.69339000   2.98324000   7.47019000
C   -6.96254000   5.16204000   7.48486000
C   -6.94475000   3.71650000   6.97565000
H   -5.68916000   5.93212000   5.90978000
H   -7.03087000   5.16190000   8.59497000
H   -6.97150000   3.70894000   5.86477000
H   -5.72522000   2.91323000   8.57995000
C   4.43166000   -5.88392000   7.59358000
C   6.97017000   -5.89684000   7.64772000
C   5.71477000   -5.14875000   7.13742000
H   6.94716000   -5.91788000   8.76275000
H   7.02253000   -2.93534000   6.09266000
C   6.99537000   -2.95695000   7.20763000
C   5.71021000   -3.69199000   7.65928000
H   5.73952000   -5.12929000   6.02238000
C   4.45787000   -2.94353000   7.14297000
C   3.17074000   -3.67558000   7.59534000
C   3.17565000   -5.13871000   7.07932000
H   3.20300000   -5.12292000   5.96427000
H   4.40659000   -5.90154000   8.70855000
H   5.68272000   -3.71149000   8.77421000
H   4.48647000   -2.92555000   6.02806000
H   3.14359000   -3.69146000   8.71037000
C   4.45580000   -1.48642000   7.66423000
C   6.99204000   -1.50118000   7.73303000
C   5.74315000   -0.75174000   7.21568000
C   3.20904000   -0.73597000   7.14296000
H   4.42404000   -1.50461000   8.77907000
H   6.96235000   -1.52265000   8.84790000
H   3.24305000   -0.71930000   6.02786000
C   1.91352000   -1.46325000   7.58900000
C   1.91471000   -2.92595000   7.07904000
C   1.88810000   -5.87498000   7.53339000
C   0.68556000   -0.69199000   7.06713000
C   0.64557000   -3.67228000   7.53159000
C   0.65064000   -5.11561000   7.01892000
H   0.67206000   -0.69089000   5.95497000
H   1.87185000   -1.47554000   8.70251000
H   1.93477000   -2.91353000   5.96492000
H   0.56975000   -3.67372000   8.64117000
H   0.62957000   -5.11374000   5.90697000
H   1.85333000   -5.88707000   8.64709000
C   0.69326000   0.75316000   7.57769000
C   1.97508000   1.47345000   7.14615000
C   3.21320000   0.72499000   7.66173000
C   4.49719000   1.44967000   7.22264000
C   5.74066000   0.70671000   7.73784000
C   7.02436000   1.43549000   7.30064000
H   0.61180000   0.76068000   8.68589000
H   3.17912000   0.72072000   8.77468000
H   5.70723000   0.69984000   8.85071000
H   1.99867000   1.54420000   6.03624000
H   4.53138000   1.51846000   6.11182000
H   7.05757000   1.50816000   6.19010000
C   6.97519000   5.90509000   7.12315000
C   5.69618000   5.16912000   7.58279000
C   4.43934000   5.91672000   7.07305000
H   6.99577000   5.92596000   6.00802000
C   5.70299000   3.71016000   7.06199000
H   5.67510000   5.15048000   8.69803000
C   4.42875000   2.98079000   7.51759000
C   3.17529000   3.71830000   7.01594000
C   3.16103000   5.17969000   7.53329000
H   5.72196000   3.71608000   5.94874000
H   4.46134000   5.93444000   5.95794000
H   3.14042000   5.16361000   8.64873000
H   3.19574000   3.72190000   5.90262000
H   4.40864000   2.91308000   8.62880000
C   6.95743000   2.96885000   7.55909000
H   6.93975000   2.89802000   8.67005000
C   1.89662000   5.92012000   7.02403000
C   1.90561000   2.98324000   7.47019000
C   0.63646000   5.16204000   7.48486000
C   0.65425000   3.71650000   6.97565000
H   1.90984000   5.93212000   5.90978000
H   0.56813000   5.16190000   8.59497000
H   0.62750000   3.70894000   5.86477000
H   1.87378000   2.91323000   8.57995000
C   12.03066000   -5.88392000   7.59358000
C   14.56917000   -5.89684000   7.64772000
C   13.31377000   -5.14875000   7.13742000
H   14.54616000   -5.91788000   8.76275000
H   14.62153000   -2.93534000   6.09266000
C   14.59437000   -2.95695000   7.20763000
C   13.30921000   -3.69199000   7.65928000
H   13.33852000   -5.12929000   6.02238000
C   12.05687000   -2.94353000   7.14297000
C   10.76974000   -3.67558000   7.59534000
C   10.77465000   -5.13871000   7.07932000
H   10.80200000   -5.12292000   5.96427000
H   12.00559000   -5.90154000   8.70855000
H   13.28172000   -3.71149000   8.77421000
H   12.08547000   -2.92555000   6.02806000
H   10.74259000   -3.69146000   8.71037000
C   12.05480000   -1.48642000   7.66423000
C   14.59104000   -1.50118000   7.73303000
C   13.34215000   -0.75174000   7.21568000
C   10.80804000   -0.73597000   7.14296000
H   12.02304000   -1.50461000   8.77907000
H   14.56135000   -1.52265000   8.84790000
H   10.84205000   -0.71930000   6.02786000
H   13.37348000   -0.73217000   6.10062000
C   9.51252000   -1.46325000   7.58900000
C   9.51371000   -2.92595000   7.07904000
C   9.48710000   -5.87498000   7.53339000
C   8.28456000   -0.69199000   7.06713000
C   8.24457000   -3.67228000   7.53159000
C   8.24964000   -5.11561000   7.01892000
H   8.27106000   -0.69089000   5.95497000
H   9.47085000   -1.47554000   8.70251000
H   9.53377000   -2.91353000   5.96492000
H   8.16875000   -3.67372000   8.64117000
H   8.22857000   -5.11374000   5.90697000
H   9.45233000   -5.88707000   8.64709000
C   8.29226000   0.75316000   7.57769000
C   9.57408000   1.47345000   7.14615000
C   10.81220000   0.72499000   7.66173000
C   12.09619000   1.44967000   7.22264000
C   13.33966000   0.70671000   7.73784000
C   14.62336000   1.43549000   7.30064000
H   8.21080000   0.76068000   8.68589000
H   10.77812000   0.72072000   8.77468000
H   13.30623000   0.69984000   8.85071000
H   9.59767000   1.54420000   6.03624000
H   12.13038000   1.51846000   6.11182000
H   14.65657000   1.50816000   6.19010000
C   14.57419000   5.90509000   7.12315000
C   13.29518000   5.16912000   7.58279000
C   12.03834000   5.91672000   7.07305000
H   14.59477000   5.92596000   6.00802000
C   13.30199000   3.71016000   7.06199000
H   13.27410000   5.15048000   8.69803000
C   12.02775000   2.98079000   7.51759000
C   10.77429000   3.71830000   7.01594000
C   10.76003000   5.17969000   7.53329000
H   13.32096000   3.71608000   5.94874000
H   12.06034000   5.93444000   5.95794000
H   10.73942000   5.16361000   8.64873000
H   10.79474000   3.72190000   5.90262000
H   12.00764000   2.91308000   8.62880000
C   14.55643000   2.96885000   7.55909000
H   14.53875000   2.89802000   8.67005000
C   9.49562000   5.92012000   7.02403000
C   9.50461000   2.98324000   7.47019000
C   8.23546000   5.16204000   7.48486000
C   8.25325000   3.71650000   6.97565000
H   9.50884000   5.93212000   5.90978000
H   8.16713000   5.16190000   8.59497000
H   8.22650000   3.70894000   5.86477000
H   9.47278000   2.91323000   8.57995000
N   -4.74074001   -0.30596695   2.99833820
C   -4.18957873   -0.61802310   5.53338915
H   -3.53505772   -1.37560453   5.14703597
H   -3.61717924   0.29884101   5.41640459
C   -5.30697267   -0.55272462   4.45016889
H   -6.03245187   0.32028488   4.50474346
H   -5.89030039   -1.50602769   4.37392953
C   -5.88777058   -0.50273484   2.04134156
H   -6.72373386   0.21042168   2.26531559
H   -5.43721335   -0.29033840   1.10831693
H   -6.34427823   -1.47698658   2.22982480
C   -3.70390152   -1.27716199   2.57773732
H   -4.02400222   -2.29014385   2.55544506
H   -3.38601685   -0.95764638   1.56550016
H   -2.94968808   -1.22030784   3.36389861
C   -4.08928959   1.05364673   2.96636707
H   -3.15010127   0.97044021   3.56029917
H   -3.81516661   1.23777585   1.90765704
H   -4.74318662   1.88611298   3.32935510
N   3.16688827   -2.03381457   -0.82400421
C   5.66831051   -0.58319134   5.54115297
H   6.26625942   0.31387875   5.34915417
H   4.64534890   -0.26689352   5.40334764
C   6.23629881   -1.56629306   4.46877688
H   7.29842147   -1.55832790   4.46672674
H   5.99997469   -2.60942982   4.68399417
C   5.72891401   -1.25396741   3.11170334
H   6.26645435   -1.79829710   2.37528873
H   5.88784130   -0.25138438   2.89295688
C   4.13343095   -1.31211151   2.87654319
H   3.72658821   -2.32274334   2.91598127
H   3.66805678   -0.62801241   3.59964448
C   3.86553437   -0.80454929   1.44660245
H   4.39468137   0.11513822   1.18365473
H   2.80949023   -0.47207550   1.43850985
C   4.14788976   -1.90689366   0.38011897
H   4.16263745   -2.94561239   0.82202776
H   5.18841996   -1.72994177   0.00999600
C   1.99110026   -2.81000153   -0.39517386
H   1.38206354   -3.11983612   -1.22355970
H   1.39476720   -2.11960959   0.17226909
H   2.23144014   -3.62133645   0.29084342
C   3.83189040   -2.77730624   -2.05317120
H   4.67989416   -2.12061843   -2.23109811
H   3.06997205   -2.69469155   -2.75212459
H   4.15554066   -3.72392719   -1.62138499
C   2.69480702   -0.66840414   -1.24901506
H   1.90358561   -0.55942977   -1.97239875
H   3.57031966   -0.15055711   -1.62931667
H   2.35154393   -0.10262559   -0.32921555
O   -5.67054905   -21.15555999   -1.81010009
H   -5.30100012   -20.46228074   -2.39104786
H   -4.85050468   -21.73293764   -1.66588223
O   -12.62526486   1.58337536   0.28649987
H   -12.10478688   1.49077886   1.05821625
H   -12.06903332   1.40349215   -0.48922527
O   26.57268522   -3.10582462   -3.29542555
H   25.95065165   -2.36388212   -3.53874164
H   26.01035901   -3.91037628   -3.11505459
O   9.80108885   -9.47321190   -0.29838233
H   10.70536783   -9.10132313   -0.32352386
H   9.95499800   -23.63708389   -0.83285167
O   -24.74525071   5.04960089   0.70454288
H   -25.54269441   5.34861732   1.11433434
H   -24.86751341   4.14045713   0.44295880
O   -7.68231990   -8.63964739   1.63325992
H   -6.75930002   -8.80851763   1.49661319
H   -7.91486674   -7.70772221   1.89784734
O   -29.34903003   -22.80255113   2.13228995
H   -29.25816432   -23.00232050   1.18699012
H   -29.72104422   -21.96986844   2.25442800
O   -33.25201309   17.60685982   -1.19467631
H   -33.29203795   18.40036012   -0.55161573
H   -32.36925611   17.37206628   -1.00692444
O   21.99167776   -19.71287102   3.37382487
H   22.83548777   -19.28810132   3.47408097
H   21.56597082   -19.18521036   2.71900934
O   -25.46396468   -8.86345863   -4.05833603
H   -26.06553189   -9.62073048   -4.20848021
H   -25.96575042   5.33587066   -4.29647188
O   7.12317776   -6.23111283   3.73969411
H   7.46230748   -6.90682585   3.11925129
H   7.81109722   -5.59549597   3.97832746
O   -3.42066906   -6.58635717   -0.10829001
H   -3.36731007   -11.04684899   -0.52177339
H   -22.56505406   -24.71923052   -2.13988488
O   -2.18802963   -4.28141326   2.99347051
H   -24.91049052   -26.17963739   -2.79412621
H   -1.29123086   -4.24783960   2.64166442
O   8.72480729   -8.81699875   2.33676077
H   8.12308236   -9.48660060   1.87649572
H   -4.16415045   -6.86050791   -0.73132001
O   8.19973536   -16.14012911   1.56626565
H   8.12357596   -16.88654542   2.21779546
H   8.65507024   -16.44648471   0.78729915
O   4.26044742   -23.91153380   1.21537842
H   3.46740765   -24.33149976   0.88565050
H   3.94286656   -10.05834702   1.95713008
O   7.37525819   2.10839135   0.99449834
H   -0.76758187   2.62507008   2.69169541
H   6.71002513   2.44304638   1.61266794
O   -21.65302470   6.95849030   0.41608938
H   -22.26663783   19.56950096   0.30874212
H   -22.02550491   7.44103184   1.15303918
O   -39.81447531   11.11382123   -3.82373161
H   -40.29791825   10.99176799   -2.98207710
H   -39.14269634   10.44414306   -3.83418143
O   -13.76720103   4.21983734   2.06310172
H   -13.29314939   -9.31161031   1.17720139
H   -13.32619874   3.81687423   2.80651459
O   -24.28106682   -23.64481636   -1.89730737
H   -24.89566811   -23.80027341   -1.13624617
H   -24.56204217   -22.82168802   -2.33804192
O   18.80327169   -22.54521636   0.02967483
H   19.42352569   -21.83350527   0.16258165
H   19.23083761   -23.21414654   -0.50689257
O   -4.99059684   -18.51003036   3.64912854
H   -5.07040052   -19.35164430   3.14871874
H   -4.01808740   -18.32496033   3.73549747
O   -0.94905693   2.30229306   3.58656119
H   -2.73906476   9.48675336   2.34003548
H   -0.33464025   2.63087170   4.23406792
O   -8.42548282   19.25841387   -0.68444436
H   -7.75268640   19.74053552   -1.16653605
H   -8.20332785   19.02155834   0.25025750
O   -13.43370645   -17.92152125   -2.40529960
H   -13.69767190   -18.43324714   -1.64174794
H   -12.59760178   -18.30672832   -2.65147993
O   -17.48756253   -22.37883224   1.76340990
H   -17.00446765   -21.83238080   2.41683927
H   -16.78396871   -22.91403227   1.35706923
O   -34.72569266   -14.89305551   -0.47279128
H   -35.57927476   -15.35121887   -0.32429617
H   -34.03930754   -15.60744707   -0.56916475
O   -32.13432754   5.26695975   1.12870010
H   -32.80927040   5.75584122   0.65427431
H   -31.23002016   18.57705839   0.72109650
O   -13.93919491   19.63891459   -3.96648693
H   -14.18521638   20.58677234   -4.15010736
H   -14.18396248   19.44491796   -3.09424806
O   -10.57446881   4.29349556   3.09874727
H   -9.78488591   4.77042888   3.22665019
H   -44.68380818   -45.79597006   1.63359076
O   -17.92099186   -2.76845220   2.09913624
H   -17.62816251   -3.71920509   2.19448030
H   -18.85526038   -2.89945386   2.02532325
O   26.27757775   9.39343366   0.26745899
H   25.33196889   9.34731729   0.07484934
H   26.67643325   8.46153075   0.10912547
O   -12.92854684   -0.79670605   2.97946720
H   -13.40083321   -1.33280694   3.65245632
H   -13.70376991   -0.24502658   2.69004381
O   -2.09657671   -18.75387174   -3.37310800
H   -1.98118715   -18.64144819   -2.38645569
H   -2.39043890   -17.89086242   -3.62513840
O   25.22456671   -34.34208266   1.83689302
H   25.80953943   -33.92888859   1.18726910
H   25.92017802   -34.87398234   2.28812622
O   -8.99389710   3.37956344   -1.39853968
H   -9.06474579   3.62208214   -2.36356571
H   -8.64866539   4.18420425   -0.98620447
O   -7.16979362   -17.27470035   -1.99743814
H   -7.87545992   -17.91853041   -2.17766431
H   -6.32789485   -17.72412107   -1.77763138
O   19.75444827   -11.85882713   3.57159872
H   20.74463876   -11.87677864   3.68746339
H   19.56923041   -12.69865370   3.13366643
O   -5.56099703   8.00544456   -3.97745543
H   -6.20187721   8.67333212   -4.37334156
H   -5.20998538   7.37169830   -4.63937045
O   -32.79725856   -7.27864946   3.92274271
H   -32.10068877   -6.65760222   4.24092638
H   -32.70462878   -7.23016899   2.96740241
O   11.55416410   2.40836378   3.83906160
H   11.00619738   1.78360358   3.33957288
H   12.05172672   2.98510870   3.25016648
O   -31.52896768   7.70727048   -0.83620361
H   -32.36035423   7.47943008   -0.36412833
H   -31.25365695   6.90369151   -1.38757517
O   2.59584586   -10.73529274   -1.26681795
H   1.83550942   -10.59245910   -0.71457153
H   2.87172507   -9.95054239   -1.69403734
O   -30.02287146   -9.02129643   -0.48883859
H   -30.30947663   -8.86192479   -1.39248187
H   -23.46251280   -11.38861834   0.12055890
O   9.76321779   -5.09223546   3.62205816
H   9.74151568   -5.61070098   4.46500224
H   10.69381858   -5.00407818   3.45896028
O   3.43297176   8.12759916   0.96652599
H   3.03070230   7.43241978   0.40482268
H   3.54496350   7.70092149   1.80526275
O   -24.76844348   -26.98115155   -2.25814359
H   15.00135497   -13.51226373   -0.35546836
H   -23.88412963   -13.50210167   -1.82051872
O   -15.59442640   14.18684888   1.37292971
H   -16.46900137   14.17015097   1.77601915
H   -15.24028099   15.04295221   1.50322450
O   22.45729930   -12.25429901   0.03671821
H   21.98496939   -11.65579182   -0.56710922
H   23.10433297   -12.69534942   -0.51094976
O   -11.15012212   7.28933240   -0.72038384
H   -11.31002068   6.75416878   0.03086685
H   -10.22153877   7.37882412   -0.62995251
O   -4.03278246   -7.89264148   -4.31419512
H   -3.55060957   -7.72330490   -3.47641091
H   -4.76928320   -8.46483640   -4.11778300
O   -29.71038691   -19.05970304   1.47502988
H   -29.64626969   -19.95590254   1.11338026
H   -30.63115474   -18.80928966   1.40308822
O   -12.51079859   -15.43539179   -0.75890226
H   -13.12671767   -16.21649905   -0.96186197
H   -12.39712574   -14.94893785   -1.64065452
O   21.67890661   12.32019130   3.53547315
H   21.74787342   11.69786013   2.80287664
H   21.09846338   11.90172551   4.13632775
O   -6.72558968   -10.80424804   3.45562445
H   -6.51265891   -9.86738097   3.29384871
H   -7.67836616   -10.94750706   3.52217598
O   13.13272503   -11.05756889   -0.42712851
H   13.86001867   -11.65517338   -0.68089251
H   13.14355167   -10.17526137   -0.78664694
O   21.64521426   8.52806687   0.97463023
H   22.00260528   -4.88946637   0.06299575
H   21.37539488   9.43803041   1.04566373
O   -4.12945799   1.70660017   -0.37539672
H   -4.34898161   1.40443248   -1.26312948
H   9.65298373   -8.99135875   2.11473219
O   -19.62944085   10.94870503   -3.15727356
H   -20.01346046   11.41504401   -2.40018667
H   -20.26612630   10.27876382   -3.47635579
O   15.07477099   -0.11841487   -1.31417231
H   14.83017459   -1.00603889   -1.58209945
H   6.32154071   7.53614675   1.59704306
O   -15.83003163   7.53257661   -0.34648630
H   -16.12153157   7.83308246   -1.22760014
H   -16.45867966   7.72997328   0.32732595
O   6.16226746   8.47328504   1.31453223
H   -10.39354167   3.38592035   3.17004469
H   5.21377562   8.61127002   1.42941716
O   7.44543695   -31.30885329   -0.92256334
H   7.06925611   -31.29011652   0.00685828
H   8.20836829   -31.89241997   -0.82240998
O   -44.61380990   -46.32928096   2.40280630
H   -10.04015520   -1.38435522   -0.10714310
H   -44.44019003   -47.25393646   2.18217027
O   -6.25408777   -5.53554456   0.01167785
H   -6.41400607   -5.40072857   0.96082619
H   -5.48468486   -6.15037229   -0.01908363
O   -28.18869746   -7.14732541   -0.47639566
H   -28.36540068   -6.66009880   -1.30970097
H   -28.81745191   -7.90828487   -0.39540424
O   14.19688078   8.57795539   -3.55126288
H   14.99924776   9.11589467   -3.50665223
H   14.31358485   7.92334472   -4.21119387
O   1.01705471   35.65705185   -3.85197167
H   1.12881314   35.71142129   -4.81487402
H   0.06269650   35.61730960   -3.72864823
O   29.44736830   -13.63294211   1.38197723
H   29.62788803   -13.50151588   0.43230766
H   29.29401572   -12.68399535   1.62087767
O   -13.20678133   -0.80106232   -3.22881547
H   -13.62567076   -0.38109464   -2.39679160
H   -13.91987781   12.31656090   -3.79990784
O   -18.51158129   -19.17710579   1.84546953
H   -17.91783065   -19.89493000   1.65125055
H   -19.39145985   -19.45598900   1.55010109
O   2.75144027   1.93821593   3.18171170
H   1.85250210   2.32475609   3.18495906
H   3.21490177   2.39496873   3.90578685
O   -0.75702407   15.63183830   0.54115778
H   -0.06706448   16.34191671   0.15968945
H   -1.58321758   16.13378383   0.37351043
O   -22.46229174   -25.69863874   -1.95111154
H   -21.86249325   -25.64990439   -1.15554342
O   -10.00184407   -2.27141684   0.28280544
H   -10.93891419   -2.52683658   0.40596744
