850

C   -10.76634000   -5.88392000   -7.40642000
C   -8.22783000   -5.89684000   -7.35228000
C   -9.48323000   -5.14875000   -7.86258000
H   -8.25084000   -5.91788000   -6.23725000
H   -8.17547000   -2.93534000   -8.90734000
C   -8.20263000   -2.95695000   -7.79237000
C   -9.48779000   -3.69199000   -7.34072000
H   -9.45848000   -5.12929000   -8.97762000
C   -10.74013000   -2.94353000   -7.85703000
C   -12.02726000   -3.67558000   -7.40466000
C   -12.02235000   -5.13871000   -7.92068000
H   -11.99500000   -5.12292000   -9.03573000
H   -10.79141000   -5.90154000   -6.29145000
H   -9.51528000   -3.71149000   -6.22579000
H   -10.71153000   -2.92555000   -8.97194000
H   -12.05441000   -3.69146000   -6.28963000
C   -10.74220000   -1.48642000   -7.33577000
C   -8.20596000   -1.50118000   -7.26697000
C   -9.45485000   -0.75174000   -7.78432000
C   -11.98896000   -0.73597000   -7.85704000
H   -10.77396000   -1.50461000   -6.22093000
H   -8.23565000   -1.52265000   -6.15210000
H   -11.95495000   -0.71930000   -8.97214000
H   -9.42352000   -0.73217000   -8.89938000
C   -13.28448000   -1.46325000   -7.41100000
C   -13.28329000   -2.92595000   -7.92096000
C   -13.30990000   -5.87498000   -7.46661000
C   -14.51244000   -0.69199000   -7.93287000
C   -14.55243000   -3.67228000   -7.46841000
C   -14.54736000   -5.11561000   -7.98108000
H   -14.52594000   -0.69089000   -9.04503000
H   -13.32615000   -1.47554000   -6.29749000
H   -13.26323000   -2.91353000   -9.03508000
H   -14.62825000   -3.67372000   -6.35883000
H   -14.56843000   -5.11374000   -9.09303000
H   -13.34467000   -5.88707000   -6.35291000
C   -14.50474000   0.75316000   -7.42231000
C   -13.22292000   1.47345000   -7.85385000
C   -11.98480000   0.72499000   -7.33827000
C   -10.70081000   1.44967000   -7.77736000
C   -9.45734000   0.70671000   -7.26216000
C   -8.17364000   1.43549000   -7.69936000
H   -14.58620000   0.76068000   -6.31411000
H   -12.01888000   0.72072000   -6.22532000
H   -9.49077000   0.69984000   -6.14929000
H   -13.19933000   1.54420000   -8.96376000
H   -10.66662000   1.51846000   -8.88818000
H   -8.14043000   1.50816000   -8.80990000
C   -8.22281000   5.90509000   -7.87685000
C   -9.50182000   5.16912000   -7.41721000
C   -10.75866000   5.91672000   -7.92695000
H   -8.20223000   5.92596000   -8.99198000
C   -9.49501000   3.71016000   -7.93801000
H   -9.52290000   5.15048000   -6.30197000
C   -10.76925000   2.98079000   -7.48241000
C   -12.02271000   3.71830000   -7.98406000
C   -12.03697000   5.17969000   -7.46671000
H   -9.47604000   3.71608000   -9.05126000
H   -10.73666000   5.93444000   -9.04206000
H   -12.05758000   5.16361000   -6.35127000
H   -12.00226000   3.72190000   -9.09738000
H   -10.78936000   2.91308000   -6.37120000
C   -8.24057000   2.96885000   -7.44091000
H   -8.25825000   2.89802000   -6.32995000
C   -13.30138000   5.92012000   -7.97597000
C   -13.29239000   2.98324000   -7.52981000
C   -14.56154000   5.16204000   -7.51514000
C   -14.54375000   3.71650000   -8.02435000
H   -13.28816000   5.93212000   -9.09022000
H   -14.62987000   5.16190000   -6.40503000
H   -14.57050000   3.70894000   -9.13523000
H   -13.32422000   2.91323000   -6.42005000
C   -3.16734000   -5.88392000   -7.40642000
C   -0.62883000   -5.89684000   -7.35228000
C   -1.88423000   -5.14875000   -7.86258000
H   -0.65184000   -5.91788000   -6.23725000
H   -0.57647000   -2.93534000   -8.90734000
C   -0.60363000   -2.95695000   -7.79237000
C   -1.88879000   -3.69199000   -7.34072000
H   -1.85948000   -5.12929000   -8.97762000
C   -3.14113000   -2.94353000   -7.85703000
C   -4.42826000   -3.67558000   -7.40466000
C   -4.42335000   -5.13871000   -7.92068000
H   -4.39600000   -5.12292000   -9.03573000
H   -3.19241000   -5.90154000   -6.29145000
H   -1.91628000   -3.71149000   -6.22579000
H   -3.11253000   -2.92555000   -8.97194000
H   -4.45541000   -3.69146000   -6.28963000
C   -3.14320000   -1.48642000   -7.33577000
C   -0.60696000   -1.50118000   -7.26697000
C   -1.85585000   -0.75174000   -7.78432000
C   -4.38996000   -0.73597000   -7.85704000
H   -3.17496000   -1.50461000   -6.22093000
H   -0.63665000   -1.52265000   -6.15210000
H   -4.35595000   -0.71930000   -8.97214000
H   -1.82452000   -0.73217000   -8.89938000
C   -5.68548000   -1.46325000   -7.41100000
C   -5.68429000   -2.92595000   -7.92096000
C   -5.71090000   -5.87498000   -7.46661000
C   -6.91344000   -0.69199000   -7.93287000
C   -6.95343000   -3.67228000   -7.46841000
C   -6.94836000   -5.11561000   -7.98108000
H   -6.92694000   -0.69089000   -9.04503000
H   -5.72715000   -1.47554000   -6.29749000
H   -5.66423000   -2.91353000   -9.03508000
H   -7.02925000   -3.67372000   -6.35883000
H   -6.96943000   -5.11374000   -9.09303000
H   -5.74567000   -5.88707000   -6.35291000
C   -6.90574000   0.75316000   -7.42231000
C   -5.62392000   1.47345000   -7.85385000
C   -4.38580000   0.72499000   -7.33827000
C   -3.10181000   1.44967000   -7.77736000
C   -1.85834000   0.70671000   -7.26216000
C   -0.57464000   1.43549000   -7.69936000
H   -6.98720000   0.76068000   -6.31411000
H   -4.41988000   0.72072000   -6.22532000
H   -1.89177000   0.69984000   -6.14929000
H   -5.60033000   1.54420000   -8.96376000
H   -3.06762000   1.51846000   -8.88818000
H   -0.54143000   1.50816000   -8.80990000
C   -0.62381000   5.90509000   -7.87685000
C   -1.90282000   5.16912000   -7.41721000
C   -3.15966000   5.91672000   -7.92695000
H   -0.60323000   5.92596000   -8.99198000
C   -1.89601000   3.71016000   -7.93801000
H   -1.92390000   5.15048000   -6.30197000
C   -3.17025000   2.98079000   -7.48241000
C   -4.42371000   3.71830000   -7.98406000
C   -4.43797000   5.17969000   -7.46671000
H   -1.87704000   3.71608000   -9.05126000
H   -3.13766000   5.93444000   -9.04206000
H   -4.45858000   5.16361000   -6.35127000
H   -4.40326000   3.72190000   -9.09738000
H   -3.19036000   2.91308000   -6.37120000
C   -0.64157000   2.96885000   -7.44091000
H   -0.65925000   2.89802000   -6.32995000
C   -5.70238000   5.92012000   -7.97597000
C   -5.69339000   2.98324000   -7.52981000
C   -6.96254000   5.16204000   -7.51514000
C   -6.94475000   3.71650000   -8.02435000
H   -5.68916000   5.93212000   -9.09022000
H   -7.03087000   5.16190000   -6.40503000
H   -6.97150000   3.70894000   -9.13523000
H   -5.72522000   2.91323000   -6.42005000
C   4.43166000   -5.88392000   -7.40642000
C   6.97017000   -5.89684000   -7.35228000
C   5.71477000   -5.14875000   -7.86258000
H   6.94716000   -5.91788000   -6.23725000
H   7.02253000   -2.93534000   -8.90734000
C   6.99537000   -2.95695000   -7.79237000
C   5.71021000   -3.69199000   -7.34072000
H   5.73952000   -5.12929000   -8.97762000
C   4.45787000   -2.94353000   -7.85703000
C   3.17074000   -3.67558000   -7.40466000
C   3.17565000   -5.13871000   -7.92068000
H   3.20300000   -5.12292000   -9.03573000
H   4.40659000   -5.90154000   -6.29145000
H   5.68272000   -3.71149000   -6.22579000
H   4.48647000   -2.92555000   -8.97194000
H   3.14359000   -3.69146000   -6.28963000
C   4.45580000   -1.48642000   -7.33577000
C   6.99204000   -1.50118000   -7.26697000
C   5.74315000   -0.75174000   -7.78432000
C   3.20904000   -0.73597000   -7.85704000
H   4.42404000   -1.50461000   -6.22093000
H   6.96235000   -1.52265000   -6.15210000
H   3.24305000   -0.71930000   -8.97214000
H   5.77448000   -0.73217000   -8.89938000
C   1.91352000   -1.46325000   -7.41100000
C   1.91471000   -2.92595000   -7.92096000
C   1.88810000   -5.87498000   -7.46661000
C   0.68556000   -0.69199000   -7.93287000
C   0.64557000   -3.67228000   -7.46841000
C   0.65064000   -5.11561000   -7.98108000
H   0.67206000   -0.69089000   -9.04503000
H   1.87185000   -1.47554000   -6.29749000
H   1.93477000   -2.91353000   -9.03508000
H   0.56975000   -3.67372000   -6.35883000
H   0.62957000   -5.11374000   -9.09303000
H   1.85333000   -5.88707000   -6.35291000
C   0.69326000   0.75316000   -7.42231000
C   1.97508000   1.47345000   -7.85385000
C   3.21320000   0.72499000   -7.33827000
C   4.49719000   1.44967000   -7.77736000
C   5.74066000   0.70671000   -7.26216000
C   7.02436000   1.43549000   -7.69936000
H   0.61180000   0.76068000   -6.31411000
H   3.17912000   0.72072000   -6.22532000
H   5.70723000   0.69984000   -6.14929000
H   1.99867000   1.54420000   -8.96376000
H   4.53138000   1.51846000   -8.88818000
H   7.05757000   1.50816000   -8.80990000
C   6.97519000   5.90509000   -7.87685000
C   5.69618000   5.16912000   -7.41721000
C   4.43934000   5.91672000   -7.92695000
H   6.99577000   5.92596000   -8.99198000
C   5.70299000   3.71016000   -7.93801000
H   5.67510000   5.15048000   -6.30197000
C   4.42875000   2.98079000   -7.48241000
C   3.17529000   3.71830000   -7.98406000
C   3.16103000   5.17969000   -7.46671000
H   5.72196000   3.71608000   -9.05126000
H   4.46134000   5.93444000   -9.04206000
H   3.14042000   5.16361000   -6.35127000
H   3.19574000   3.72190000   -9.09738000
H   4.40864000   2.91308000   -6.37120000
C   6.95743000   2.96885000   -7.44091000
H   6.93975000   2.89802000   -6.32995000
C   1.89662000   5.92012000   -7.97597000
C   1.90561000   2.98324000   -7.52981000
C   0.63646000   5.16204000   -7.51514000
C   0.65425000   3.71650000   -8.02435000
H   1.90984000   5.93212000   -9.09022000
H   0.56813000   5.16190000   -6.40503000
H   0.62750000   3.70894000   -9.13523000
H   1.87378000   2.91323000   -6.42005000
C   12.03066000   -5.88392000   -7.40642000
C   14.56917000   -5.89684000   -7.35228000
C   13.31377000   -5.14875000   -7.86258000
H   14.54616000   -5.91788000   -6.23725000
H   14.62153000   -2.93534000   -8.90734000
C   14.59437000   -2.95695000   -7.79237000
C   13.30921000   -3.69199000   -7.34072000
H   13.33852000   -5.12929000   -8.97762000
C   12.05687000   -2.94353000   -7.85703000
C   10.76974000   -3.67558000   -7.40466000
C   10.77465000   -5.13871000   -7.92068000
H   10.80200000   -5.12292000   -9.03573000
H   12.00559000   -5.90154000   -6.29145000
H   13.28172000   -3.71149000   -6.22579000
H   12.08547000   -2.92555000   -8.97194000
H   10.74259000   -3.69146000   -6.28963000
C   12.05480000   -1.48642000   -7.33577000
C   14.59104000   -1.50118000   -7.26697000
C   13.34215000   -0.75174000   -7.78432000
C   10.80804000   -0.73597000   -7.85704000
H   12.02304000   -1.50461000   -6.22093000
H   14.56135000   -1.52265000   -6.15210000
H   10.84205000   -0.71930000   -8.97214000
H   13.37348000   -0.73217000   -8.89938000
C   9.51252000   -1.46325000   -7.41100000
C   9.51371000   -2.92595000   -7.92096000
C   9.48710000   -5.87498000   -7.46661000
C   8.28456000   -0.69199000   -7.93287000
C   8.24457000   -3.67228000   -7.46841000
C   8.24964000   -5.11561000   -7.98108000
H   8.27106000   -0.69089000   -9.04503000
H   9.47085000   -1.47554000   -6.29749000
H   9.53377000   -2.91353000   -9.03508000
H   8.16875000   -3.67372000   -6.35883000
H   8.22857000   -5.11374000   -9.09303000
H   9.45233000   -5.88707000   -6.35291000
C   8.29226000   0.75316000   -7.42231000
C   9.57408000   1.47345000   -7.85385000
C   10.81220000   0.72499000   -7.33827000
C   12.09619000   1.44967000   -7.77736000
C   13.33966000   0.70671000   -7.26216000
C   14.62336000   1.43549000   -7.69936000
H   8.21080000   0.76068000   -6.31411000
H   10.77812000   0.72072000   -6.22532000
H   13.30623000   0.69984000   -6.14929000
H   9.59767000   1.54420000   -8.96376000
H   12.13038000   1.51846000   -8.88818000
H   14.65657000   1.50816000   -8.80990000
C   14.57419000   5.90509000   -7.87685000
C   13.29518000   5.16912000   -7.41721000
C   12.03834000   5.91672000   -7.92695000
H   14.59477000   5.92596000   -8.99198000
C   13.30199000   3.71016000   -7.93801000
H   13.27410000   5.15048000   -6.30197000
C   12.02775000   2.98079000   -7.48241000
C   10.77429000   3.71830000   -7.98406000
C   10.76003000   5.17969000   -7.46671000
H   13.32096000   3.71608000   -9.05126000
H   12.06034000   5.93444000   -9.04206000
H   10.73942000   5.16361000   -6.35127000
H   10.79474000   3.72190000   -9.09738000
H   12.00764000   2.91308000   -6.37120000
C   14.55643000   2.96885000   -7.44091000
H   14.53875000   2.89802000   -6.32995000
C   9.49562000   5.92012000   -7.97597000
C   9.50461000   2.98324000   -7.52981000
C   8.23546000   5.16204000   -7.51514000
C   8.25325000   3.71650000   -8.02435000
H   9.50884000   5.93212000   -9.09022000
H   8.16713000   5.16190000   -6.40503000
H   8.22650000   3.70894000   -9.13523000
H   9.47278000   2.91323000   -6.42005000
C   -10.76634000   -5.88392000   7.59358000
C   -8.22783000   -5.89684000   7.64772000
C   -9.48323000   -5.14875000   7.13742000
H   -8.25084000   -5.91788000   8.76275000
H   -8.17547000   -2.93534000   6.09266000
C   -8.20263000   -2.95695000   7.20763000
C   -9.48779000   -3.69199000   7.65928000
H   -9.45848000   -5.12929000   6.02238000
C   -10.74013000   -2.94353000   7.14297000
C   -12.02726000   -3.67558000   7.59534000
C   -12.02235000   -5.13871000   7.07932000
H   -11.99500000   -5.12292000   5.96427000
H   -10.79141000   -5.90154000   8.70855000
H   -9.51528000   -3.71149000   8.77421000
H   -10.71153000   -2.92555000   6.02806000
H   -12.05441000   -3.69146000   8.71037000
C   -10.74220000   -1.48642000   7.66423000
C   -8.20596000   -1.50118000   7.73303000
C   -9.45485000   -0.75174000   7.21568000
C   -11.98896000   -0.73597000   7.14296000
H   -10.77396000   -1.50461000   8.77907000
H   -8.23565000   -1.52265000   8.84790000
H   -11.95495000   -0.71930000   6.02786000
H   -9.42352000   -0.73217000   6.10062000
C   -13.28448000   -1.46325000   7.58900000
C   -13.28329000   -2.92595000   7.07904000
C   -13.30990000   -5.87498000   7.53339000
C   -14.51244000   -0.69199000   7.06713000
C   -14.55243000   -3.67228000   7.53159000
C   -14.54736000   -5.11561000   7.01892000
H   -14.52594000   -0.69089000   5.95497000
H   -13.32615000   -1.47554000   8.70251000
H   -13.26323000   -2.91353000   5.96492000
H   -14.62825000   -3.67372000   8.64117000
H   -14.56843000   -5.11374000   5.90697000
H   -13.34467000   -5.88707000   8.64709000
C   -14.50474000   0.75316000   7.57769000
C   -13.22292000   1.47345000   7.14615000
C   -11.98480000   0.72499000   7.66173000
C   -10.70081000   1.44967000   7.22264000
C   -9.45734000   0.70671000   7.73784000
C   -8.17364000   1.43549000   7.30064000
H   -14.58620000   0.76068000   8.68589000
H   -12.01888000   0.72072000   8.77468000
H   -9.49077000   0.69984000   8.85071000
H   -13.19933000   1.54420000   6.03624000
H   -10.66662000   1.51846000   6.11182000
H   -8.14043000   1.50816000   6.19010000
C   -8.22281000   5.90509000   7.12315000
C   -9.50182000   5.16912000   7.58279000
C   -10.75866000   5.91672000   7.07305000
H   -8.20223000   5.92596000   6.00802000
C   -9.49501000   3.71016000   7.06199000
H   -9.52290000   5.15048000   8.69803000
C   -10.76925000   2.98079000   7.51759000
C   -12.02271000   3.71830000   7.01594000
C   -12.03697000   5.17969000   7.53329000
H   -9.47604000   3.71608000   5.94874000
H   -10.73666000   5.93444000   5.95794000
H   -12.05758000   5.16361000   8.64873000
H   -12.00226000   3.72190000   5.90262000
H   -10.78936000   2.91308000   8.62880000
C   -8.24057000   2.96885000   7.55909000
H   -8.25825000   2.89802000   8.67005000
C   -13.30138000   5.92012000   7.02403000
C   -13.29239000   2.98324000   7.47019000
C   -14.56154000   5.16204000   7.48486000
C   -14.54375000   3.71650000   6.97565000
H   -13.28816000   5.93212000   5.90978000
H   -14.62987000   5.16190000   8.59497000
H   -14.57050000   3.70894000   5.86477000
H   -13.32422000   2.91323000   8.57995000
C   -3.16734000   -5.88392000   7.59358000
C   -0.62883000   -5.89684000   7.64772000
C   -1.88423000   -5.14875000   7.13742000
H   -0.65184000   -5.91788000   8.76275000
H   -0.57647000   -2.93534000   6.09266000
C   -0.60363000   -2.95695000   7.20763000
C   -1.88879000   -3.69199000   7.65928000
H   -1.85948000   -5.12929000   6.02238000
C   -3.14113000   -2.94353000   7.14297000
C   -4.42826000   -3.67558000   7.59534000
C   -4.42335000   -5.13871000   7.07932000
H   -4.39600000   -5.12292000   5.96427000
H   -3.19241000   -5.90154000   8.70855000
H   -1.91628000   -3.71149000   8.77421000
H   -3.11253000   -2.92555000   6.02806000
H   -4.45541000   -3.69146000   8.71037000
C   -3.14320000   -1.48642000   7.66423000
C   -0.60696000   -1.50118000   7.73303000
C   -1.85585000   -0.75174000   7.21568000
C   -4.38996000   -0.73597000   7.14296000
H   -3.17496000   -1.50461000   8.77907000
H   -0.63665000   -1.52265000   8.84790000
H   -1.82452000   -0.73217000   6.10062000
C   -5.68548000   -1.46325000   7.58900000
C   -5.68429000   -2.92595000   7.07904000
C   -5.71090000   -5.87498000   7.53339000
C   -6.91344000   -0.69199000   7.06713000
C   -6.95343000   -3.67228000   7.53159000
C   -6.94836000   -5.11561000   7.01892000
H   -6.92694000   -0.69089000   5.95497000
H   -5.72715000   -1.47554000   8.70251000
H   -5.66423000   -2.91353000   5.96492000
H   -7.02925000   -3.67372000   8.64117000
H   -6.96943000   -5.11374000   5.90697000
H   -5.74567000   -5.88707000   8.64709000
C   -6.90574000   0.75316000   7.57769000
C   -5.62392000   1.47345000   7.14615000
C   -4.38580000   0.72499000   7.66173000
C   -3.10181000   1.44967000   7.22264000
C   -1.85834000   0.70671000   7.73784000
C   -0.57464000   1.43549000   7.30064000
H   -6.98720000   0.76068000   8.68589000
H   -4.41988000   0.72072000   8.77468000
H   -1.89177000   0.69984000   8.85071000
H   -5.60033000   1.54420000   6.03624000
H   -3.06762000   1.51846000   6.11182000
H   -0.54143000   1.50816000   6.19010000
C   -0.62381000   5.90509000   7.12315000
C   -1.90282000   5.16912000   7.58279000
C   -3.15966000   5.91672000   7.07305000
H   -0.60323000   5.92596000   6.00802000
C   -1.89601000   3.71016000   7.06199000
H   -1.92390000   5.15048000   8.69803000
C   -3.17025000   2.98079000   7.51759000
C   -4.42371000   3.71830000   7.01594000
C   -4.43797000   5.17969000   7.53329000
H   -1.87704000   3.71608000   5.94874000
H   -3.13766000   5.93444000   5.95794000
H   -4.45858000   5.16361000   8.64873000
H   -4.40326000   3.72190000   5.90262000
H   -3.19036000   2.91308000   8.62880000
C   -0.64157000   2.96885000   7.55909000
H   -0.65925000   2.89802000   8.67005000
C   -5.70238000   5.92012000   7.02403000
C   -5.69339000   2.98324000   7.47019000
C   -6.96254000   5.16204000   7.48486000
C   -6.94475000   3.71650000   6.97565000
H   -5.68916000   5.93212000   5.90978000
H   -7.03087000   5.16190000   8.59497000
H   -6.97150000   3.70894000   5.86477000
H   -5.72522000   2.91323000   8.57995000
C   4.43166000   -5.88392000   7.59358000
C   6.97017000   -5.89684000   7.64772000
C   5.71477000   -5.14875000   7.13742000
H   6.94716000   -5.91788000   8.76275000
H   7.02253000   -2.93534000   6.09266000
C   6.99537000   -2.95695000   7.20763000
C   5.71021000   -3.69199000   7.65928000
H   5.73952000   -5.12929000   6.02238000
C   4.45787000   -2.94353000   7.14297000
C   3.17074000   -3.67558000   7.59534000
C   3.17565000   -5.13871000   7.07932000
H   3.20300000   -5.12292000   5.96427000
H   4.40659000   -5.90154000   8.70855000
H   5.68272000   -3.71149000   8.77421000
H   4.48647000   -2.92555000   6.02806000
H   3.14359000   -3.69146000   8.71037000
C   4.45580000   -1.48642000   7.66423000
C   6.99204000   -1.50118000   7.73303000
C   5.74315000   -0.75174000   7.21568000
C   3.20904000   -0.73597000   7.14296000
H   4.42404000   -1.50461000   8.77907000
H   6.96235000   -1.52265000   8.84790000
H   3.24305000   -0.71930000   6.02786000
C   1.91352000   -1.46325000   7.58900000
C   1.91471000   -2.92595000   7.07904000
C   1.88810000   -5.87498000   7.53339000
C   0.68556000   -0.69199000   7.06713000
C   0.64557000   -3.67228000   7.53159000
C   0.65064000   -5.11561000   7.01892000
H   0.67206000   -0.69089000   5.95497000
H   1.87185000   -1.47554000   8.70251000
H   1.93477000   -2.91353000   5.96492000
H   0.56975000   -3.67372000   8.64117000
H   0.62957000   -5.11374000   5.90697000
H   1.85333000   -5.88707000   8.64709000
C   0.69326000   0.75316000   7.57769000
C   1.97508000   1.47345000   7.14615000
C   3.21320000   0.72499000   7.66173000
C   4.49719000   1.44967000   7.22264000
C   5.74066000   0.70671000   7.73784000
C   7.02436000   1.43549000   7.30064000
H   0.61180000   0.76068000   8.68589000
H   3.17912000   0.72072000   8.77468000
H   5.70723000   0.69984000   8.85071000
H   1.99867000   1.54420000   6.03624000
H   4.53138000   1.51846000   6.11182000
H   7.05757000   1.50816000   6.19010000
C   6.97519000   5.90509000   7.12315000
C   5.69618000   5.16912000   7.58279000
C   4.43934000   5.91672000   7.07305000
H   6.99577000   5.92596000   6.00802000
C   5.70299000   3.71016000   7.06199000
H   5.67510000   5.15048000   8.69803000
C   4.42875000   2.98079000   7.51759000
C   3.17529000   3.71830000   7.01594000
C   3.16103000   5.17969000   7.53329000
H   5.72196000   3.71608000   5.94874000
H   4.46134000   5.93444000   5.95794000
H   3.14042000   5.16361000   8.64873000
H   3.19574000   3.72190000   5.90262000
H   4.40864000   2.91308000   8.62880000
C   6.95743000   2.96885000   7.55909000
H   6.93975000   2.89802000   8.67005000
C   1.89662000   5.92012000   7.02403000
C   1.90561000   2.98324000   7.47019000
C   0.63646000   5.16204000   7.48486000
C   0.65425000   3.71650000   6.97565000
H   1.90984000   5.93212000   5.90978000
H   0.56813000   5.16190000   8.59497000
H   0.62750000   3.70894000   5.86477000
H   1.87378000   2.91323000   8.57995000
C   12.03066000   -5.88392000   7.59358000
C   14.56917000   -5.89684000   7.64772000
C   13.31377000   -5.14875000   7.13742000
H   14.54616000   -5.91788000   8.76275000
H   14.62153000   -2.93534000   6.09266000
C   14.59437000   -2.95695000   7.20763000
C   13.30921000   -3.69199000   7.65928000
H   13.33852000   -5.12929000   6.02238000
C   12.05687000   -2.94353000   7.14297000
C   10.76974000   -3.67558000   7.59534000
C   10.77465000   -5.13871000   7.07932000
H   10.80200000   -5.12292000   5.96427000
H   12.00559000   -5.90154000   8.70855000
H   13.28172000   -3.71149000   8.77421000
H   12.08547000   -2.92555000   6.02806000
H   10.74259000   -3.69146000   8.71037000
C   12.05480000   -1.48642000   7.66423000
C   14.59104000   -1.50118000   7.73303000
C   13.34215000   -0.75174000   7.21568000
C   10.80804000   -0.73597000   7.14296000
H   12.02304000   -1.50461000   8.77907000
H   14.56135000   -1.52265000   8.84790000
H   10.84205000   -0.71930000   6.02786000
H   13.37348000   -0.73217000   6.10062000
C   9.51252000   -1.46325000   7.58900000
C   9.51371000   -2.92595000   7.07904000
C   9.48710000   -5.87498000   7.53339000
C   8.28456000   -0.69199000   7.06713000
C   8.24457000   -3.67228000   7.53159000
C   8.24964000   -5.11561000   7.01892000
H   8.27106000   -0.69089000   5.95497000
H   9.47085000   -1.47554000   8.70251000
H   9.53377000   -2.91353000   5.96492000
H   8.16875000   -3.67372000   8.64117000
H   8.22857000   -5.11374000   5.90697000
H   9.45233000   -5.88707000   8.64709000
C   8.29226000   0.75316000   7.57769000
C   9.57408000   1.47345000   7.14615000
C   10.81220000   0.72499000   7.66173000
C   12.09619000   1.44967000   7.22264000
C   13.33966000   0.70671000   7.73784000
C   14.62336000   1.43549000   7.30064000
H   8.21080000   0.76068000   8.68589000
H   10.77812000   0.72072000   8.77468000
H   13.30623000   0.69984000   8.85071000
H   9.59767000   1.54420000   6.03624000
H   12.13038000   1.51846000   6.11182000
H   14.65657000   1.50816000   6.19010000
C   14.57419000   5.90509000   7.12315000
C   13.29518000   5.16912000   7.58279000
C   12.03834000   5.91672000   7.07305000
H   14.59477000   5.92596000   6.00802000
C   13.30199000   3.71016000   7.06199000
H   13.27410000   5.15048000   8.69803000
C   12.02775000   2.98079000   7.51759000
C   10.77429000   3.71830000   7.01594000
C   10.76003000   5.17969000   7.53329000
H   13.32096000   3.71608000   5.94874000
H   12.06034000   5.93444000   5.95794000
H   10.73942000   5.16361000   8.64873000
H   10.79474000   3.72190000   5.90262000
H   12.00764000   2.91308000   8.62880000
C   14.55643000   2.96885000   7.55909000
H   14.53875000   2.89802000   8.67005000
C   9.49562000   5.92012000   7.02403000
C   9.50461000   2.98324000   7.47019000
C   8.23546000   5.16204000   7.48486000
C   8.25325000   3.71650000   6.97565000
H   9.50884000   5.93212000   5.90978000
H   8.16713000   5.16190000   8.59497000
H   8.22650000   3.70894000   5.86477000
H   9.47278000   2.91323000   8.57995000
N   -4.99249368   -0.17683031   3.02444812
C   -4.20808405   -0.74683171   5.49157978
H   -3.97625096   -1.78968090   5.28718871
H   -3.32734943   -0.00040276   5.25460804
C   -5.35042947   -0.39892492   4.46090559
H   -5.95720984   0.47096865   4.73759671
H   -6.14465526   -1.11937563   4.41644099
C   -4.84009240   -1.52711390   2.34455995
H   -4.10855952   -2.06163340   2.91435261
H   -5.77932925   -1.96758110   2.45045170
H   -4.58739643   -1.44079254   1.32166940
C   -3.55439538   0.45234063   2.90578124
H   -3.57849645   1.42012965   3.43868430
H   -2.77706446   -0.24079597   3.28648941
H   -3.35336451   0.61508641   1.82387662
C   -6.05442037   0.67005606   2.31406241
H   -6.19792833   1.66794448   2.78290689
H   -5.81338823   0.78384825   1.30514481
H   -6.97006623   0.06644682   2.35756366
N   6.76398782   2.34074722   -0.66046378
C   5.73699587   -0.57486697   5.61107616
H   6.45779850   0.24667151   5.39081839
H   4.86990111   -0.08399681   5.29787556
C   5.99206598   -1.61869575   4.45406324
H   6.98146685   -2.02142470   4.34234522
H   5.41832733   -2.54100133   4.44380428
C   5.62108043   -1.04985274   3.09172758
H   4.51213708   -0.93938405   2.89085205
H   5.95268094   -1.82184771   2.34595319
C   6.32293620   0.32406427   2.68632562
H   6.10250753   1.14171831   3.32732823
H   7.39761172   0.18976702   2.80142129
C   6.09596212   0.71758868   1.24237505
H   5.00718588   0.79242885   1.05441887
H   6.46556023   -0.05904492   0.54283992
C   6.78122598   2.00038324   0.87550982
H   7.85831944   1.95577293   1.16305941
H   6.22013790   2.80522542   1.34971421
C   7.48376634   1.26774508   -1.44913942
H   7.43941795   1.57934651   -2.50631645
H   7.04915146   0.26463630   -1.22361023
H   8.53971513   1.16017644   -1.19161438
C   7.43694954   3.66462683   -0.83072453
H   7.01814665   4.45094116   -0.14677142
H   7.24067019   4.00677325   -1.85517684
H   8.45116731   3.57476758   -0.65130675
C   5.32832897   2.51939028   -1.14942740
H   5.29913139   2.71076745   -2.23600556
H   4.87916470   3.36959027   -0.67377749
H   4.74181396   1.63464200   -0.91342360
O   -9.84944811   0.72785003   0.88387661
H   -10.72489103   0.33302122   0.80479215
H   8.46111509   4.12029928   -4.49602150
O   1.69728473   4.19883017   0.22017855
H   1.19214321   4.91840784   -0.47678048
H   1.04122248   4.00403340   0.93037477
O   -9.04172388   0.57183907   3.72558931
H   -9.27098578   0.87285713   2.79458621
H   -9.70156573   0.94066125   4.31697317
O   -13.30639303   -3.52666631   -0.32196140
H   -13.21109722   -4.39111845   0.10405989
H   -14.21806808   -3.28732084   -0.38897732
O   -12.89457281   -5.45597717   1.76070061
H   -13.66417114   -5.46863631   2.34101443
H   -12.32706396   -6.23578071   1.84362855
O   -8.54267075   5.11323416   -2.70205065
H   -8.56722953   5.94327127   -2.24952902
H   -8.77017949   4.40124208   -2.09503159
O   10.91019718   4.43892685   0.77681938
H   11.34842470   5.32493613   0.79026979
H   10.99083965   4.11980411   1.64410713
O   4.22996428   4.67866879   1.15318448
H   3.26027109   4.52027090   1.00809336
H   4.35930641   5.55771497   1.44418322
O   3.52116337   5.93370528   -1.77696348
H   3.37716744   -6.55526455   -1.39739569
H   2.83705592   5.34412628   -1.39722052
O   -12.41552956   -2.32668254   1.94982798
H   -12.62487008   -2.23768403   0.98226125
H   -12.63427087   -3.24060956   2.10207525
O   -3.56768769   0.48210151   -3.60413194
H   -4.12273912   -0.36337321   -3.58808253
H   -2.64843757   0.21878227   -3.74224217
O   3.52979005   -0.27257996   -4.05807369
H   4.36154787   -0.77011646   -4.06578859
H   4.07902655   -6.21199143   -3.04583705
O   -2.76098866   2.34962034   -0.81977958
H   -3.44976862   1.67185433   -0.79491586
H   -2.59314921   2.67183250   -1.77592959
O   10.79013011   -3.81173360   1.97468322
H   11.15162894   -4.62335423   2.37161742
H   10.62162016   -4.19745735   1.11149267
O   0.93773146   -1.13306146   0.25684781
H   1.60110380   -0.50043883   0.11022977
H   0.06281813   -0.81005866   -0.04535513
O   -7.75323924   -2.31473818   3.50846356
H   -8.49455682   -1.75370270   3.24702815
H   -7.85299461   -3.07156438   2.94199796
O   14.49063828   6.06802326   -1.94948570
H   13.77631250   6.23249522   -1.29994304
H   14.51480151   5.14549991   -2.03509912
O   6.83917614   -5.80761943   -2.27620781
H   7.59738639   -5.87440586   -2.80905409
H   6.60706674   6.68204240   -2.16516186
O   -3.60461590   -1.95228907   -1.70164596
H   -2.84476251   -1.94335956   -2.35638083
H   -3.79798335   -2.92629306   -1.74036752
O   7.43210153   -1.69675136   -0.67024238
H   7.81660045   -2.23679459   -1.43556890
H   7.26969726   -2.32756111   0.03012853
O   -8.28531674   -5.81755916   1.51317546
H   -8.68597386   6.69073755   1.75139268
H   -7.32177720   -5.79991612   1.30941409
O   9.27139064   5.98093317   -2.27101526
H   9.90972343   5.28763415   -2.46527374
H   9.65302690   6.51571175   -1.56321338
O   10.97422421   -3.40807974   -3.99354033
H   11.83410900   -3.90950227   -3.89437918
H   11.22344215   -2.56468154   -4.49963708
O   -12.86278997   3.03596561   0.83976344
H   -12.58322001   3.17893582   -0.06260496
H   -13.34074734   3.82233448   1.09289447
O   -12.38153841   0.62530668   3.14932539
H   -12.12119554   0.12752555   2.34587457
H   1.56733836   -2.99881376   -1.66981897
O   -14.15481266   5.60764476   0.40439079
H   -14.57676937   5.90723385   -0.37078597
H   -13.76681416   6.41353035   0.78561500
O   -12.84085763   1.06204491   -3.24183503
H   -12.39925747   0.69361585   -4.05255986
H   -13.54435428   1.55481356   -3.60346096
O   -3.08270167   -3.60232912   3.87261765
H   -2.30862974   -4.19987180   3.84009750
H   -3.81976841   -4.14594774   3.53826718
O   10.10323747   1.81215086   0.02230909
H   10.27822143   2.77016235   0.20160550
H   10.90831523   1.38971003   0.20406539
O   -7.13461435   4.34567563   0.46113394
H   -6.40132256   4.98768838   0.50780036
H   -7.94788033   4.86616857   0.21404782
O   1.87841390   -2.54241347   -2.48676987
H   10.79917026   1.58826589   2.98018636
H   13.99684974   -4.33336405   -2.31125349
O   10.85774843   -5.17968329   -0.74293562
H   11.34078482   -4.72432248   -1.44801592
H   11.50591232   -5.81882727   -0.45593596
O   -9.45533310   5.17791676   2.44906774
H   -8.73071520   4.64419430   2.60182618
H   -10.14665689   4.77190952   3.01627460
O   -4.93139180   -4.70878560   1.21044988
H   -5.02013937   -4.63961504   0.24989183
H   -4.20750114   -5.37160312   1.39821991
O   0.30556091   5.61972569   -1.29731350
H   -0.86747674   -4.47943767   0.10020174
H   0.28094255   5.17144729   -2.14618935
O   13.60117729   -0.23848355   3.78520691
H   12.76868589   -0.35041895   3.41933723
H   13.88571233   -1.16597112   3.97894352
O   -1.04033894   -1.16683263   3.18713147
H   -0.42415685   -1.17179723   2.43884875
H   -1.41213773   -2.10145044   3.22651194
O   -11.40360258   3.24803304   3.36802799
H   -11.68726722   2.67431762   2.67890143
H   -11.75013893   2.80085025   4.10323722
O   -3.61064630   3.51922030   3.65496002
H   -2.96702626   3.96011928   3.06040808
H   -3.11218740   3.36985748   4.49847061
O   -2.03615916   -6.55466810   2.27660804
H   -1.82662545   6.08143744   1.66643014
H   -1.23698317   -6.43118340   2.80436305
O   -7.50707960   -2.06768873   -0.80393952
H   -8.06038291   -1.98491663   -1.59513805
H   -6.59867480   -2.16908372   -1.09622205
O   13.06640573   6.33927019   0.30254139
H   13.74517347   5.88240235   0.78894755
H   12.82250787   4.85975469   -0.61026293
O   -0.46277736   3.04946841   -2.34646711
H   -0.41442875   3.25028306   -1.37162884
H   -1.03228323   3.70287204   -2.76095188
O   13.00554306   3.56462428   3.75756228
H   13.48873171   2.73136892   3.50934812
H   12.78765393   4.04636369   2.96687862
O   2.65869437   1.62746382   1.69905095
H   2.49620788   2.56740536   1.70481687
H   1.84789277   1.22601474   2.00884010
O   13.97596947   1.88095914   1.24236256
H   13.59462705   2.73667975   0.85025709
H   14.75761574   1.71166875   0.73708467
O   -1.47055635   4.77100521   0.50712514
H   -2.17783496   4.25728387   0.12324117
H   -0.79283562   5.05655065   -0.28123383
O   14.59331673   1.70304302   -2.00440438
H   13.77044792   1.62037703   -1.61503398
H   14.54152559   1.91641147   -2.92715096
O   -0.23611216   0.49393554   -3.03734223
H   0.61343862   0.19103139   -3.41873920
H   -0.28751418   1.43356164   -2.92959238
O   -15.14301630   -1.03734552   -1.37135827
H   -15.01313614   -0.10823827   -1.20037750
H   -14.32588507   -1.48883056   -1.18319837
O   -2.32104359   -6.39159241   -0.93803222
H   -2.45768930   6.65540515   -0.03651503
H   -1.38708657   -6.60334776   -1.08501690
O   -2.23984147   4.95241971   -3.18061692
H   -2.10381029   5.68622449   -2.57861806
H   -9.35423495   0.67392279   0.02619685
O   -9.98357516   4.94733950   -0.18204218
H   -10.08797521   4.36552260   0.55402334
H   -9.79601914   5.82395271   0.20613634
O   0.95545239   6.67601174   2.09392968
H   1.48086825   6.06382504   1.54273689
H   0.13710933   -6.59972972   1.54700435
O   -6.33273956   2.22869432   -1.28210598
H   -6.33594874   3.01703613   -0.70506962
H   -6.89126921   2.46352708   -2.06679737
O   -0.21804113   -5.01468926   -3.64846648
H   0.32287025   -4.55720597   -2.96004234
H   -0.60445348   -5.82838581   -3.27495841
O   7.71164460   4.46510775   -4.01166433
H   7.24923004   5.20787014   -4.36193194
H   2.90522606   -0.96165651   -3.72516106
O   -1.71559786   -0.22072344   -0.23345747
H   -1.48898090   0.22797330   -1.05114589
H   -2.21896196   -1.00051089   -0.49285363
O   -1.13214087   2.22888747   1.85352108
H   -0.91624226   1.33522459   1.48044337
H   -1.06028041   2.89766582   1.13711095
O   6.32733447   -3.95627393   0.23833569
H   6.52162985   -4.66039884   -0.40338394
H   5.53277698   -3.51441475   -0.12659217
O   10.35541922   2.38374417   3.17413460
H   11.00658796   2.71056235   3.80048252
H   -13.19638870   0.19774688   3.42296549
O   11.10656299   3.84364999   -3.78402952
H   10.98643288   3.06645692   -4.30753286
H   11.98437237   4.07128264   -4.10851140
O   12.76864444   3.87382850   -0.81319488
H   2.15887099   -3.27940587   -3.02147359
H   11.81059017   3.74580297   -0.81233346
O   10.41010388   -0.13446283   -3.50694740
H   10.69938070   0.08165424   -2.58742186
H   9.48186057   -0.48268672   -3.52002070
O   13.29167493   -4.84484011   -2.73769471
H   10.12065670   -2.02697454   2.98126879
H   13.66979831   -5.72050091   -2.63793195
O   14.73416371   -5.01511376   0.29757864
H   -15.12941236   -5.39229672   -0.41802603
H   13.85257289   -5.60275792   0.32064156
O   -7.71331500   -5.76080802   -1.33644839
H   -8.32367875   -5.14598129   -0.96876354
H   -7.97073573   -5.87157955   -2.23445281
O   1.59881171   -5.26562266   -0.84256233
H   1.63379280   -5.27035538   0.18502491
H   0.99540874   -6.02448302   -1.11683247
O   -1.21279022   -4.31207315   1.00346201
H   -1.23569950   -3.31265624   1.03134807
H   -2.40261297   5.41668788   -3.97990417
O   -12.14298338   -0.11904571   -0.55405597
H   -12.00285709   -0.53272171   -1.39126197
H   -12.58287670   0.74786847   -0.81338671
O   -1.41652649   -2.27490268   -3.67600084
H   -1.04157760   -1.34035301   -3.61297272
H   -0.79547650   -2.82140708   -4.14621145
O   -4.54141306   -4.82238567   -2.05356194
H   -4.70571793   -4.84556868   -3.00165832
H   -4.16450936   -5.68708176   -1.83911056
O   12.37367267   0.23580783   -0.43812179
H   12.62715939   -0.61744087   -0.84897938
H   13.08606114   0.58517737   0.15276220
O   7.13086205   -2.89550942   -3.29573888
H   6.49759774   -3.32527181   -2.79679167
H   7.39864899   -3.52423100   -4.00161798
O   3.94613339   -5.38316646   -3.55340766
H   3.64432260   -5.61794198   -4.41007717
O   10.10048889   -1.11568834   3.24250923
H   9.54742029   -0.61065311   2.65024549
