850

C   -10.76634000   -5.88392000   -7.40642000
C   -8.22783000   -5.89684000   -7.35228000
C   -9.48323000   -5.14875000   -7.86258000
H   -8.25084000   -5.91788000   -6.23725000
H   -8.17547000   -2.93534000   -8.90734000
C   -8.20263000   -2.95695000   -7.79237000
C   -9.48779000   -3.69199000   -7.34072000
H   -9.45848000   -5.12929000   -8.97762000
C   -10.74013000   -2.94353000   -7.85703000
C   -12.02726000   -3.67558000   -7.40466000
C   -12.02235000   -5.13871000   -7.92068000
H   -11.99500000   -5.12292000   -9.03573000
H   -10.79141000   -5.90154000   -6.29145000
H   -9.51528000   -3.71149000   -6.22579000
H   -10.71153000   -2.92555000   -8.97194000
H   -12.05441000   -3.69146000   -6.28963000
C   -10.74220000   -1.48642000   -7.33577000
C   -8.20596000   -1.50118000   -7.26697000
C   -9.45485000   -0.75174000   -7.78432000
C   -11.98896000   -0.73597000   -7.85704000
H   -10.77396000   -1.50461000   -6.22093000
H   -8.23565000   -1.52265000   -6.15210000
H   -11.95495000   -0.71930000   -8.97214000
H   -9.42352000   -0.73217000   -8.89938000
C   -13.28448000   -1.46325000   -7.41100000
C   -13.28329000   -2.92595000   -7.92096000
C   -13.30990000   -5.87498000   -7.46661000
C   -14.51244000   -0.69199000   -7.93287000
C   -14.55243000   -3.67228000   -7.46841000
C   -14.54736000   -5.11561000   -7.98108000
H   -14.52594000   -0.69089000   -9.04503000
H   -13.32615000   -1.47554000   -6.29749000
H   -13.26323000   -2.91353000   -9.03508000
H   -14.62825000   -3.67372000   -6.35883000
H   -14.56843000   -5.11374000   -9.09303000
H   -13.34467000   -5.88707000   -6.35291000
C   -14.50474000   0.75316000   -7.42231000
C   -13.22292000   1.47345000   -7.85385000
C   -11.98480000   0.72499000   -7.33827000
C   -10.70081000   1.44967000   -7.77736000
C   -9.45734000   0.70671000   -7.26216000
C   -8.17364000   1.43549000   -7.69936000
H   -14.58620000   0.76068000   -6.31411000
H   -12.01888000   0.72072000   -6.22532000
H   -9.49077000   0.69984000   -6.14929000
H   -13.19933000   1.54420000   -8.96376000
H   -10.66662000   1.51846000   -8.88818000
H   -8.14043000   1.50816000   -8.80990000
C   -8.22281000   5.90509000   -7.87685000
C   -9.50182000   5.16912000   -7.41721000
C   -10.75866000   5.91672000   -7.92695000
H   -8.20223000   5.92596000   -8.99198000
C   -9.49501000   3.71016000   -7.93801000
H   -9.52290000   5.15048000   -6.30197000
C   -10.76925000   2.98079000   -7.48241000
C   -12.02271000   3.71830000   -7.98406000
C   -12.03697000   5.17969000   -7.46671000
H   -9.47604000   3.71608000   -9.05126000
H   -10.73666000   5.93444000   -9.04206000
H   -12.05758000   5.16361000   -6.35127000
H   -12.00226000   3.72190000   -9.09738000
H   -10.78936000   2.91308000   -6.37120000
C   -8.24057000   2.96885000   -7.44091000
H   -8.25825000   2.89802000   -6.32995000
C   -13.30138000   5.92012000   -7.97597000
C   -13.29239000   2.98324000   -7.52981000
C   -14.56154000   5.16204000   -7.51514000
C   -14.54375000   3.71650000   -8.02435000
H   -13.28816000   5.93212000   -9.09022000
H   -14.62987000   5.16190000   -6.40503000
H   -14.57050000   3.70894000   -9.13523000
H   -13.32422000   2.91323000   -6.42005000
C   -3.16734000   -5.88392000   -7.40642000
C   -0.62883000   -5.89684000   -7.35228000
C   -1.88423000   -5.14875000   -7.86258000
H   -0.65184000   -5.91788000   -6.23725000
H   -0.57647000   -2.93534000   -8.90734000
C   -0.60363000   -2.95695000   -7.79237000
C   -1.88879000   -3.69199000   -7.34072000
H   -1.85948000   -5.12929000   -8.97762000
C   -3.14113000   -2.94353000   -7.85703000
C   -4.42826000   -3.67558000   -7.40466000
C   -4.42335000   -5.13871000   -7.92068000
H   -4.39600000   -5.12292000   -9.03573000
H   -3.19241000   -5.90154000   -6.29145000
H   -1.91628000   -3.71149000   -6.22579000
H   -3.11253000   -2.92555000   -8.97194000
H   -4.45541000   -3.69146000   -6.28963000
C   -3.14320000   -1.48642000   -7.33577000
C   -0.60696000   -1.50118000   -7.26697000
C   -1.85585000   -0.75174000   -7.78432000
C   -4.38996000   -0.73597000   -7.85704000
H   -3.17496000   -1.50461000   -6.22093000
H   -0.63665000   -1.52265000   -6.15210000
H   -4.35595000   -0.71930000   -8.97214000
H   -1.82452000   -0.73217000   -8.89938000
C   -5.68548000   -1.46325000   -7.41100000
C   -5.68429000   -2.92595000   -7.92096000
C   -5.71090000   -5.87498000   -7.46661000
C   -6.91344000   -0.69199000   -7.93287000
C   -6.95343000   -3.67228000   -7.46841000
C   -6.94836000   -5.11561000   -7.98108000
H   -6.92694000   -0.69089000   -9.04503000
H   -5.72715000   -1.47554000   -6.29749000
H   -5.66423000   -2.91353000   -9.03508000
H   -7.02925000   -3.67372000   -6.35883000
H   -6.96943000   -5.11374000   -9.09303000
H   -5.74567000   -5.88707000   -6.35291000
C   -6.90574000   0.75316000   -7.42231000
C   -5.62392000   1.47345000   -7.85385000
C   -4.38580000   0.72499000   -7.33827000
C   -3.10181000   1.44967000   -7.77736000
C   -1.85834000   0.70671000   -7.26216000
C   -0.57464000   1.43549000   -7.69936000
H   -6.98720000   0.76068000   -6.31411000
H   -4.41988000   0.72072000   -6.22532000
H   -1.89177000   0.69984000   -6.14929000
H   -5.60033000   1.54420000   -8.96376000
H   -3.06762000   1.51846000   -8.88818000
H   -0.54143000   1.50816000   -8.80990000
C   -0.62381000   5.90509000   -7.87685000
C   -1.90282000   5.16912000   -7.41721000
C   -3.15966000   5.91672000   -7.92695000
H   -0.60323000   5.92596000   -8.99198000
C   -1.89601000   3.71016000   -7.93801000
H   -1.92390000   5.15048000   -6.30197000
C   -3.17025000   2.98079000   -7.48241000
C   -4.42371000   3.71830000   -7.98406000
C   -4.43797000   5.17969000   -7.46671000
H   -1.87704000   3.71608000   -9.05126000
H   -3.13766000   5.93444000   -9.04206000
H   -4.45858000   5.16361000   -6.35127000
H   -4.40326000   3.72190000   -9.09738000
H   -3.19036000   2.91308000   -6.37120000
C   -0.64157000   2.96885000   -7.44091000
H   -0.65925000   2.89802000   -6.32995000
C   -5.70238000   5.92012000   -7.97597000
C   -5.69339000   2.98324000   -7.52981000
C   -6.96254000   5.16204000   -7.51514000
C   -6.94475000   3.71650000   -8.02435000
H   -5.68916000   5.93212000   -9.09022000
H   -7.03087000   5.16190000   -6.40503000
H   -6.97150000   3.70894000   -9.13523000
H   -5.72522000   2.91323000   -6.42005000
C   4.43166000   -5.88392000   -7.40642000
C   6.97017000   -5.89684000   -7.35228000
C   5.71477000   -5.14875000   -7.86258000
H   6.94716000   -5.91788000   -6.23725000
H   7.02253000   -2.93534000   -8.90734000
C   6.99537000   -2.95695000   -7.79237000
C   5.71021000   -3.69199000   -7.34072000
H   5.73952000   -5.12929000   -8.97762000
C   4.45787000   -2.94353000   -7.85703000
C   3.17074000   -3.67558000   -7.40466000
C   3.17565000   -5.13871000   -7.92068000
H   3.20300000   -5.12292000   -9.03573000
H   4.40659000   -5.90154000   -6.29145000
H   5.68272000   -3.71149000   -6.22579000
H   4.48647000   -2.92555000   -8.97194000
H   3.14359000   -3.69146000   -6.28963000
C   4.45580000   -1.48642000   -7.33577000
C   6.99204000   -1.50118000   -7.26697000
C   5.74315000   -0.75174000   -7.78432000
C   3.20904000   -0.73597000   -7.85704000
H   4.42404000   -1.50461000   -6.22093000
H   6.96235000   -1.52265000   -6.15210000
H   3.24305000   -0.71930000   -8.97214000
H   5.77448000   -0.73217000   -8.89938000
C   1.91352000   -1.46325000   -7.41100000
C   1.91471000   -2.92595000   -7.92096000
C   1.88810000   -5.87498000   -7.46661000
C   0.68556000   -0.69199000   -7.93287000
C   0.64557000   -3.67228000   -7.46841000
C   0.65064000   -5.11561000   -7.98108000
H   0.67206000   -0.69089000   -9.04503000
H   1.87185000   -1.47554000   -6.29749000
H   1.93477000   -2.91353000   -9.03508000
H   0.56975000   -3.67372000   -6.35883000
H   0.62957000   -5.11374000   -9.09303000
H   1.85333000   -5.88707000   -6.35291000
C   0.69326000   0.75316000   -7.42231000
C   1.97508000   1.47345000   -7.85385000
C   3.21320000   0.72499000   -7.33827000
C   4.49719000   1.44967000   -7.77736000
C   5.74066000   0.70671000   -7.26216000
C   7.02436000   1.43549000   -7.69936000
H   0.61180000   0.76068000   -6.31411000
H   3.17912000   0.72072000   -6.22532000
H   5.70723000   0.69984000   -6.14929000
H   1.99867000   1.54420000   -8.96376000
H   4.53138000   1.51846000   -8.88818000
H   7.05757000   1.50816000   -8.80990000
C   6.97519000   5.90509000   -7.87685000
C   5.69618000   5.16912000   -7.41721000
C   4.43934000   5.91672000   -7.92695000
H   6.99577000   5.92596000   -8.99198000
C   5.70299000   3.71016000   -7.93801000
H   5.67510000   5.15048000   -6.30197000
C   4.42875000   2.98079000   -7.48241000
C   3.17529000   3.71830000   -7.98406000
C   3.16103000   5.17969000   -7.46671000
H   5.72196000   3.71608000   -9.05126000
H   4.46134000   5.93444000   -9.04206000
H   3.14042000   5.16361000   -6.35127000
H   3.19574000   3.72190000   -9.09738000
H   4.40864000   2.91308000   -6.37120000
C   6.95743000   2.96885000   -7.44091000
H   6.93975000   2.89802000   -6.32995000
C   1.89662000   5.92012000   -7.97597000
C   1.90561000   2.98324000   -7.52981000
C   0.63646000   5.16204000   -7.51514000
C   0.65425000   3.71650000   -8.02435000
H   1.90984000   5.93212000   -9.09022000
H   0.56813000   5.16190000   -6.40503000
H   0.62750000   3.70894000   -9.13523000
H   1.87378000   2.91323000   -6.42005000
C   12.03066000   -5.88392000   -7.40642000
C   14.56917000   -5.89684000   -7.35228000
C   13.31377000   -5.14875000   -7.86258000
H   14.54616000   -5.91788000   -6.23725000
H   14.62153000   -2.93534000   -8.90734000
C   14.59437000   -2.95695000   -7.79237000
C   13.30921000   -3.69199000   -7.34072000
H   13.33852000   -5.12929000   -8.97762000
C   12.05687000   -2.94353000   -7.85703000
C   10.76974000   -3.67558000   -7.40466000
C   10.77465000   -5.13871000   -7.92068000
H   10.80200000   -5.12292000   -9.03573000
H   12.00559000   -5.90154000   -6.29145000
H   13.28172000   -3.71149000   -6.22579000
H   12.08547000   -2.92555000   -8.97194000
H   10.74259000   -3.69146000   -6.28963000
C   12.05480000   -1.48642000   -7.33577000
C   14.59104000   -1.50118000   -7.26697000
C   13.34215000   -0.75174000   -7.78432000
C   10.80804000   -0.73597000   -7.85704000
H   12.02304000   -1.50461000   -6.22093000
H   14.56135000   -1.52265000   -6.15210000
H   10.84205000   -0.71930000   -8.97214000
H   13.37348000   -0.73217000   -8.89938000
C   9.51252000   -1.46325000   -7.41100000
C   9.51371000   -2.92595000   -7.92096000
C   9.48710000   -5.87498000   -7.46661000
C   8.28456000   -0.69199000   -7.93287000
C   8.24457000   -3.67228000   -7.46841000
C   8.24964000   -5.11561000   -7.98108000
H   8.27106000   -0.69089000   -9.04503000
H   9.47085000   -1.47554000   -6.29749000
H   9.53377000   -2.91353000   -9.03508000
H   8.16875000   -3.67372000   -6.35883000
H   8.22857000   -5.11374000   -9.09303000
H   9.45233000   -5.88707000   -6.35291000
C   8.29226000   0.75316000   -7.42231000
C   9.57408000   1.47345000   -7.85385000
C   10.81220000   0.72499000   -7.33827000
C   12.09619000   1.44967000   -7.77736000
C   13.33966000   0.70671000   -7.26216000
C   14.62336000   1.43549000   -7.69936000
H   8.21080000   0.76068000   -6.31411000
H   10.77812000   0.72072000   -6.22532000
H   13.30623000   0.69984000   -6.14929000
H   9.59767000   1.54420000   -8.96376000
H   12.13038000   1.51846000   -8.88818000
H   14.65657000   1.50816000   -8.80990000
C   14.57419000   5.90509000   -7.87685000
C   13.29518000   5.16912000   -7.41721000
C   12.03834000   5.91672000   -7.92695000
H   14.59477000   5.92596000   -8.99198000
C   13.30199000   3.71016000   -7.93801000
H   13.27410000   5.15048000   -6.30197000
C   12.02775000   2.98079000   -7.48241000
C   10.77429000   3.71830000   -7.98406000
C   10.76003000   5.17969000   -7.46671000
H   13.32096000   3.71608000   -9.05126000
H   12.06034000   5.93444000   -9.04206000
H   10.73942000   5.16361000   -6.35127000
H   10.79474000   3.72190000   -9.09738000
H   12.00764000   2.91308000   -6.37120000
C   14.55643000   2.96885000   -7.44091000
H   14.53875000   2.89802000   -6.32995000
C   9.49562000   5.92012000   -7.97597000
C   9.50461000   2.98324000   -7.52981000
C   8.23546000   5.16204000   -7.51514000
C   8.25325000   3.71650000   -8.02435000
H   9.50884000   5.93212000   -9.09022000
H   8.16713000   5.16190000   -6.40503000
H   8.22650000   3.70894000   -9.13523000
H   9.47278000   2.91323000   -6.42005000
C   -10.76634000   -5.88392000   7.59358000
C   -8.22783000   -5.89684000   7.64772000
C   -9.48323000   -5.14875000   7.13742000
H   -8.25084000   -5.91788000   8.76275000
H   -8.17547000   -2.93534000   6.09266000
C   -8.20263000   -2.95695000   7.20763000
C   -9.48779000   -3.69199000   7.65928000
H   -9.45848000   -5.12929000   6.02238000
C   -10.74013000   -2.94353000   7.14297000
C   -12.02726000   -3.67558000   7.59534000
C   -12.02235000   -5.13871000   7.07932000
H   -11.99500000   -5.12292000   5.96427000
H   -10.79141000   -5.90154000   8.70855000
H   -9.51528000   -3.71149000   8.77421000
H   -10.71153000   -2.92555000   6.02806000
H   -12.05441000   -3.69146000   8.71037000
C   -10.74220000   -1.48642000   7.66423000
C   -8.20596000   -1.50118000   7.73303000
C   -9.45485000   -0.75174000   7.21568000
C   -11.98896000   -0.73597000   7.14296000
H   -10.77396000   -1.50461000   8.77907000
H   -8.23565000   -1.52265000   8.84790000
H   -11.95495000   -0.71930000   6.02786000
H   -9.42352000   -0.73217000   6.10062000
C   -13.28448000   -1.46325000   7.58900000
C   -13.28329000   -2.92595000   7.07904000
C   -13.30990000   -5.87498000   7.53339000
C   -14.51244000   -0.69199000   7.06713000
C   -14.55243000   -3.67228000   7.53159000
C   -14.54736000   -5.11561000   7.01892000
H   -14.52594000   -0.69089000   5.95497000
H   -13.32615000   -1.47554000   8.70251000
H   -13.26323000   -2.91353000   5.96492000
H   -14.62825000   -3.67372000   8.64117000
H   -14.56843000   -5.11374000   5.90697000
H   -13.34467000   -5.88707000   8.64709000
C   -14.50474000   0.75316000   7.57769000
C   -13.22292000   1.47345000   7.14615000
C   -11.98480000   0.72499000   7.66173000
C   -10.70081000   1.44967000   7.22264000
C   -9.45734000   0.70671000   7.73784000
C   -8.17364000   1.43549000   7.30064000
H   -14.58620000   0.76068000   8.68589000
H   -12.01888000   0.72072000   8.77468000
H   -9.49077000   0.69984000   8.85071000
H   -13.19933000   1.54420000   6.03624000
H   -10.66662000   1.51846000   6.11182000
H   -8.14043000   1.50816000   6.19010000
C   -8.22281000   5.90509000   7.12315000
C   -9.50182000   5.16912000   7.58279000
C   -10.75866000   5.91672000   7.07305000
H   -8.20223000   5.92596000   6.00802000
C   -9.49501000   3.71016000   7.06199000
H   -9.52290000   5.15048000   8.69803000
C   -10.76925000   2.98079000   7.51759000
C   -12.02271000   3.71830000   7.01594000
C   -12.03697000   5.17969000   7.53329000
H   -9.47604000   3.71608000   5.94874000
H   -10.73666000   5.93444000   5.95794000
H   -12.05758000   5.16361000   8.64873000
H   -12.00226000   3.72190000   5.90262000
H   -10.78936000   2.91308000   8.62880000
C   -8.24057000   2.96885000   7.55909000
H   -8.25825000   2.89802000   8.67005000
C   -13.30138000   5.92012000   7.02403000
C   -13.29239000   2.98324000   7.47019000
C   -14.56154000   5.16204000   7.48486000
C   -14.54375000   3.71650000   6.97565000
H   -13.28816000   5.93212000   5.90978000
H   -14.62987000   5.16190000   8.59497000
H   -14.57050000   3.70894000   5.86477000
H   -13.32422000   2.91323000   8.57995000
C   -3.16734000   -5.88392000   7.59358000
C   -0.62883000   -5.89684000   7.64772000
C   -1.88423000   -5.14875000   7.13742000
H   -0.65184000   -5.91788000   8.76275000
H   -0.57647000   -2.93534000   6.09266000
C   -0.60363000   -2.95695000   7.20763000
C   -1.88879000   -3.69199000   7.65928000
H   -1.85948000   -5.12929000   6.02238000
C   -3.14113000   -2.94353000   7.14297000
C   -4.42826000   -3.67558000   7.59534000
C   -4.42335000   -5.13871000   7.07932000
H   -4.39600000   -5.12292000   5.96427000
H   -3.19241000   -5.90154000   8.70855000
H   -1.91628000   -3.71149000   8.77421000
H   -3.11253000   -2.92555000   6.02806000
H   -4.45541000   -3.69146000   8.71037000
C   -3.14320000   -1.48642000   7.66423000
C   -0.60696000   -1.50118000   7.73303000
C   -1.85585000   -0.75174000   7.21568000
C   -4.38996000   -0.73597000   7.14296000
H   -3.17496000   -1.50461000   8.77907000
H   -0.63665000   -1.52265000   8.84790000
H   -1.82452000   -0.73217000   6.10062000
C   -5.68548000   -1.46325000   7.58900000
C   -5.68429000   -2.92595000   7.07904000
C   -5.71090000   -5.87498000   7.53339000
C   -6.91344000   -0.69199000   7.06713000
C   -6.95343000   -3.67228000   7.53159000
C   -6.94836000   -5.11561000   7.01892000
H   -6.92694000   -0.69089000   5.95497000
H   -5.72715000   -1.47554000   8.70251000
H   -5.66423000   -2.91353000   5.96492000
H   -7.02925000   -3.67372000   8.64117000
H   -6.96943000   -5.11374000   5.90697000
H   -5.74567000   -5.88707000   8.64709000
C   -6.90574000   0.75316000   7.57769000
C   -5.62392000   1.47345000   7.14615000
C   -4.38580000   0.72499000   7.66173000
C   -3.10181000   1.44967000   7.22264000
C   -1.85834000   0.70671000   7.73784000
C   -0.57464000   1.43549000   7.30064000
H   -6.98720000   0.76068000   8.68589000
H   -4.41988000   0.72072000   8.77468000
H   -1.89177000   0.69984000   8.85071000
H   -5.60033000   1.54420000   6.03624000
H   -3.06762000   1.51846000   6.11182000
H   -0.54143000   1.50816000   6.19010000
C   -0.62381000   5.90509000   7.12315000
C   -1.90282000   5.16912000   7.58279000
C   -3.15966000   5.91672000   7.07305000
H   -0.60323000   5.92596000   6.00802000
C   -1.89601000   3.71016000   7.06199000
H   -1.92390000   5.15048000   8.69803000
C   -3.17025000   2.98079000   7.51759000
C   -4.42371000   3.71830000   7.01594000
C   -4.43797000   5.17969000   7.53329000
H   -1.87704000   3.71608000   5.94874000
H   -3.13766000   5.93444000   5.95794000
H   -4.45858000   5.16361000   8.64873000
H   -4.40326000   3.72190000   5.90262000
H   -3.19036000   2.91308000   8.62880000
C   -0.64157000   2.96885000   7.55909000
H   -0.65925000   2.89802000   8.67005000
C   -5.70238000   5.92012000   7.02403000
C   -5.69339000   2.98324000   7.47019000
C   -6.96254000   5.16204000   7.48486000
C   -6.94475000   3.71650000   6.97565000
H   -5.68916000   5.93212000   5.90978000
H   -7.03087000   5.16190000   8.59497000
H   -6.97150000   3.70894000   5.86477000
H   -5.72522000   2.91323000   8.57995000
C   4.43166000   -5.88392000   7.59358000
C   6.97017000   -5.89684000   7.64772000
C   5.71477000   -5.14875000   7.13742000
H   6.94716000   -5.91788000   8.76275000
H   7.02253000   -2.93534000   6.09266000
C   6.99537000   -2.95695000   7.20763000
C   5.71021000   -3.69199000   7.65928000
H   5.73952000   -5.12929000   6.02238000
C   4.45787000   -2.94353000   7.14297000
C   3.17074000   -3.67558000   7.59534000
C   3.17565000   -5.13871000   7.07932000
H   3.20300000   -5.12292000   5.96427000
H   4.40659000   -5.90154000   8.70855000
H   5.68272000   -3.71149000   8.77421000
H   4.48647000   -2.92555000   6.02806000
H   3.14359000   -3.69146000   8.71037000
C   4.45580000   -1.48642000   7.66423000
C   6.99204000   -1.50118000   7.73303000
C   5.74315000   -0.75174000   7.21568000
C   3.20904000   -0.73597000   7.14296000
H   4.42404000   -1.50461000   8.77907000
H   6.96235000   -1.52265000   8.84790000
H   3.24305000   -0.71930000   6.02786000
C   1.91352000   -1.46325000   7.58900000
C   1.91471000   -2.92595000   7.07904000
C   1.88810000   -5.87498000   7.53339000
C   0.68556000   -0.69199000   7.06713000
C   0.64557000   -3.67228000   7.53159000
C   0.65064000   -5.11561000   7.01892000
H   0.67206000   -0.69089000   5.95497000
H   1.87185000   -1.47554000   8.70251000
H   1.93477000   -2.91353000   5.96492000
H   0.56975000   -3.67372000   8.64117000
H   0.62957000   -5.11374000   5.90697000
H   1.85333000   -5.88707000   8.64709000
C   0.69326000   0.75316000   7.57769000
C   1.97508000   1.47345000   7.14615000
C   3.21320000   0.72499000   7.66173000
C   4.49719000   1.44967000   7.22264000
C   5.74066000   0.70671000   7.73784000
C   7.02436000   1.43549000   7.30064000
H   0.61180000   0.76068000   8.68589000
H   3.17912000   0.72072000   8.77468000
H   5.70723000   0.69984000   8.85071000
H   1.99867000   1.54420000   6.03624000
H   4.53138000   1.51846000   6.11182000
H   7.05757000   1.50816000   6.19010000
C   6.97519000   5.90509000   7.12315000
C   5.69618000   5.16912000   7.58279000
C   4.43934000   5.91672000   7.07305000
H   6.99577000   5.92596000   6.00802000
C   5.70299000   3.71016000   7.06199000
H   5.67510000   5.15048000   8.69803000
C   4.42875000   2.98079000   7.51759000
C   3.17529000   3.71830000   7.01594000
C   3.16103000   5.17969000   7.53329000
H   5.72196000   3.71608000   5.94874000
H   4.46134000   5.93444000   5.95794000
H   3.14042000   5.16361000   8.64873000
H   3.19574000   3.72190000   5.90262000
H   4.40864000   2.91308000   8.62880000
C   6.95743000   2.96885000   7.55909000
H   6.93975000   2.89802000   8.67005000
C   1.89662000   5.92012000   7.02403000
C   1.90561000   2.98324000   7.47019000
C   0.63646000   5.16204000   7.48486000
C   0.65425000   3.71650000   6.97565000
H   1.90984000   5.93212000   5.90978000
H   0.56813000   5.16190000   8.59497000
H   0.62750000   3.70894000   5.86477000
H   1.87378000   2.91323000   8.57995000
C   12.03066000   -5.88392000   7.59358000
C   14.56917000   -5.89684000   7.64772000
C   13.31377000   -5.14875000   7.13742000
H   14.54616000   -5.91788000   8.76275000
H   14.62153000   -2.93534000   6.09266000
C   14.59437000   -2.95695000   7.20763000
C   13.30921000   -3.69199000   7.65928000
H   13.33852000   -5.12929000   6.02238000
C   12.05687000   -2.94353000   7.14297000
C   10.76974000   -3.67558000   7.59534000
C   10.77465000   -5.13871000   7.07932000
H   10.80200000   -5.12292000   5.96427000
H   12.00559000   -5.90154000   8.70855000
H   13.28172000   -3.71149000   8.77421000
H   12.08547000   -2.92555000   6.02806000
H   10.74259000   -3.69146000   8.71037000
C   12.05480000   -1.48642000   7.66423000
C   14.59104000   -1.50118000   7.73303000
C   13.34215000   -0.75174000   7.21568000
C   10.80804000   -0.73597000   7.14296000
H   12.02304000   -1.50461000   8.77907000
H   14.56135000   -1.52265000   8.84790000
H   10.84205000   -0.71930000   6.02786000
H   13.37348000   -0.73217000   6.10062000
C   9.51252000   -1.46325000   7.58900000
C   9.51371000   -2.92595000   7.07904000
C   9.48710000   -5.87498000   7.53339000
C   8.28456000   -0.69199000   7.06713000
C   8.24457000   -3.67228000   7.53159000
C   8.24964000   -5.11561000   7.01892000
H   8.27106000   -0.69089000   5.95497000
H   9.47085000   -1.47554000   8.70251000
H   9.53377000   -2.91353000   5.96492000
H   8.16875000   -3.67372000   8.64117000
H   8.22857000   -5.11374000   5.90697000
H   9.45233000   -5.88707000   8.64709000
C   8.29226000   0.75316000   7.57769000
C   9.57408000   1.47345000   7.14615000
C   10.81220000   0.72499000   7.66173000
C   12.09619000   1.44967000   7.22264000
C   13.33966000   0.70671000   7.73784000
C   14.62336000   1.43549000   7.30064000
H   8.21080000   0.76068000   8.68589000
H   10.77812000   0.72072000   8.77468000
H   13.30623000   0.69984000   8.85071000
H   9.59767000   1.54420000   6.03624000
H   12.13038000   1.51846000   6.11182000
H   14.65657000   1.50816000   6.19010000
C   14.57419000   5.90509000   7.12315000
C   13.29518000   5.16912000   7.58279000
C   12.03834000   5.91672000   7.07305000
H   14.59477000   5.92596000   6.00802000
C   13.30199000   3.71016000   7.06199000
H   13.27410000   5.15048000   8.69803000
C   12.02775000   2.98079000   7.51759000
C   10.77429000   3.71830000   7.01594000
C   10.76003000   5.17969000   7.53329000
H   13.32096000   3.71608000   5.94874000
H   12.06034000   5.93444000   5.95794000
H   10.73942000   5.16361000   8.64873000
H   10.79474000   3.72190000   5.90262000
H   12.00764000   2.91308000   8.62880000
C   14.55643000   2.96885000   7.55909000
H   14.53875000   2.89802000   8.67005000
C   9.49562000   5.92012000   7.02403000
C   9.50461000   2.98324000   7.47019000
C   8.23546000   5.16204000   7.48486000
C   8.25325000   3.71650000   6.97565000
H   9.50884000   5.93212000   5.90978000
H   8.16713000   5.16190000   8.59497000
H   8.22650000   3.70894000   5.86477000
H   9.47278000   2.91323000   8.57995000
N   -3.89206639   -0.40157897   2.98944422
C   -4.34394145   -0.74269602   5.47466517
H   -5.15708902   -0.05384545   5.20627856
H   -4.68920444   -1.76073517   5.13184701
C   -3.22221195   -0.50525516   4.43201972
H   -2.44548680   -1.27770758   4.40658449
H   -2.75862705   0.44093524   4.60444674
C   -2.82477270   -0.08059337   2.00125823
H   -2.03202894   -0.81136717   2.01803744
H   -3.24023589   0.04139064   1.00951901
H   -2.37026863   0.86926046   2.28556970
C   -5.06381389   0.61247347   2.96618517
H   -6.00893126   0.10557924   3.34899171
H   -4.87459123   1.40869150   3.66769895
H   -5.08559851   1.00269474   1.95394988
C   -4.44861181   -1.74534785   2.60937018
H   -3.69007785   -2.46506520   2.20549212
H   -4.86728474   -2.34360093   3.44764169
H   -5.34438029   -1.61748050   1.92761045
N   5.67443821   -4.97753140   0.20055531
C   5.70339841   -0.60604783   5.45911889
H   6.18244163   0.35079096   5.27520119
H   4.61787573   -0.53819874   5.15287835
C   6.29159950   -1.56673345   4.47863199
H   7.40893494   -1.51190725   4.57865144
H   5.83875146   -2.63035182   4.70055903
C   5.97921976   -1.00507314   3.08625678
H   6.36283603   0.02035079   3.02596068
H   4.91558638   -0.86114990   2.97473412
C   6.60910067   -1.70813725   1.89266952
H   6.14267265   -1.32543049   0.95568016
H   7.64955048   -1.39224049   1.87611718
C   6.39198317   -3.22912897   1.92861586
H   5.42358064   -3.40237064   2.31483294
H   7.00823085   -3.72261592   2.81657753
C   6.69771212   -3.93590899   0.63092310
H   7.65752310   -4.46119329   0.58294578
H   6.68747898   -3.31719713   -0.19957458
C   5.56802396   -6.26306465   1.12916845
H   4.70091682   6.57145537   0.81463680
H   5.39060233   -6.01411175   2.19865190
H   6.44699859   6.53103160   1.09048862
C   6.08707511   -5.38645415   -1.22200020
H   5.40526668   -6.16247539   -1.56518116
H   7.00345981   -5.85297040   -1.09811092
H   5.87715432   -4.64708868   -1.97466777
C   4.41085540   -4.31985550   0.12459199
H   3.97589637   -4.09137592   1.10861865
H   3.74862663   -4.99874633   -0.38147707
H   4.49058054   -3.34209329   -0.39477810
O   12.17060614   6.59382683   -1.54702933
H   12.95835710   6.22001554   -1.86446111
H   11.72940545   -6.21923566   -2.16428963
O   -6.69740833   -5.49839347   -2.56189778
H   -6.15124776   -6.27309797   -2.51199425
H   -6.40678544   -4.73227903   -2.08081900
O   -6.64131670   2.67333163   -3.88066807
H   -6.97522526   3.55429566   -3.75533181
H   -6.91632093   2.05634280   -3.17777171
O   1.26138399   -6.47343353   -0.14327617
H   1.98231947   -6.66621562   -0.85574403
H   1.04923058   6.06524198   0.21660580
O   9.58064062   4.33785800   -0.03053173
H   8.66390168   4.18667419   -0.24825162
H   10.23203346   3.92840847   -0.58493498
O   -1.22364649   2.69613986   -3.29065120
H   -2.11736059   2.54771348   -3.11478034
H   -0.71498403   2.45178487   -2.51512685
O   4.58286663   4.00760494   -0.00798699
H   4.78073412   0.52249796   -1.80745448
H   4.02654465   3.89297859   0.80065726
O   2.63380574   2.63914515   -1.14971137
H   3.37306513   3.22515231   -0.88947881
H   2.16030966   2.30019593   -0.36533187
O   -4.22683001   2.26842968   0.36745760
H   -3.77620459   2.37944421   -0.50031684
H   -4.75625508   3.10003225   0.50905538
O   -2.21908118   5.50762896   -2.54486470
H   -2.90768422   5.28139221   -3.25378345
H   -1.47727858   5.89462180   -3.08806120
O   14.05432304   -0.94545541   3.68787262
H   14.38833693   -1.72271506   3.24857872
H   6.80634333   2.35765586   2.63002531
O   0.92910791   4.96992433   -2.50591269
H   0.32380765   4.34220632   -2.90655369
H   -0.35545896   -3.80777160   -0.97248943
O   2.01040718   -3.07023537   1.39562682
H   1.28437648   -3.66234596   1.08520819
H   1.71418553   -2.14397668   1.20345490
O   6.87530004   2.62443805   0.58064564
H   6.08320868   3.20116347   0.39670940
H   7.41319035   2.75392864   -0.22560726
O   1.34076997   -1.09548977   -0.42065883
H   0.85040877   -0.28973721   -0.72398720
H   2.28744067   -0.97974561   -0.76812001
O   -6.73708323   3.57828612   2.70654821
H   -6.44909824   3.33401678   1.81052261
H   -7.30336503   4.40721098   2.64635939
O   7.17547790   0.31581856   -2.40746766
H   6.94881198   0.57137187   -3.32558320
H   6.50083940   0.76308463   -1.89565140
O   14.20277622   -4.23053253   -2.41678874
H   15.14539155   -4.19343462   -2.40118511
H   13.96063258   -3.28386365   -2.44999306
O   2.05559598   -6.00930311   2.47062418
H   1.13909719   -5.72911334   2.60639539
H   2.06505005   -5.95227984   1.48855891
O   -14.64143242   2.71715982   -2.05971068
H   -14.87865843   2.28572931   -1.24029677
H   -13.81668827   3.21524145   -1.78992208
O   -8.32528620   4.25430324   0.24066234
H   -7.34432684   4.31172510   0.30133328
H   -8.53460178   3.31410359   0.38931351
O   9.24777050   4.50649976   2.92392526
H   8.74018288   3.74233684   3.27556841
H   9.54843539   4.18869901   2.04700524
O   -1.09926462   0.50306115   -0.68091351
H   -1.30414113   0.31643472   -1.59710009
H   -1.15315756   1.50935296   -0.73622774
O   -3.98633871   -5.91638919   -1.63915348
H   -3.36742087   -5.64162718   -0.97855169
H   -11.04113906   1.92350274   2.86439137
O   -10.18796073   4.81340719   2.23889581
H   -9.63052200   4.66010886   1.46427503
H   -10.71125017   5.63731976   2.17497870
O   -1.44249007   3.41468378   -0.31556131
H   -1.77975669   3.73321663   -1.13670649
H   -1.82494739   3.95146264   0.33811469
O   -2.56889975   -1.42913413   -2.80725400
H   -2.03461246   -1.87315069   -3.52358294
H   -2.04254978   -1.43509397   -1.98906020
O   -7.12607077   2.07708142   -0.88416148
H   -6.36941330   2.08191819   -0.27633018
H   -3.52818420   -6.60072738   -2.19540423
O   -0.14965199   -2.65430986   3.43020190
H   0.33953814   -3.41682111   3.31694344
H   -0.22413323   -2.28497158   2.54043545
O   -3.03294961   -4.43387914   1.40302046
H   -2.14648326   -4.41955048   1.13176898
H   -4.90716817   3.66658910   -3.95192000
O   -13.44643453   -0.60753577   1.95112394
H   -13.79604956   -1.29786015   2.48360020
H   2.53654348   0.96998353   -3.03677329
O   11.07711828   4.25976241   -3.85283553
H   11.37066639   4.59843430   -2.99433803
H   10.15142157   3.97263481   -3.71014196
O   2.79419810   -1.86862484   -2.97231129
H   2.50863009   -2.25425160   -3.81184546
H   2.38981626   -0.99529847   -2.88140612
O   -8.26749990   -5.28656818   -0.47834647
H   -8.18557394   -5.45399184   -1.40225056
H   -7.49539726   -5.80044060   -0.17332119
O   10.75849882   -1.69742721   -2.18841791
H   10.45200995   -0.97359685   -1.58738425
H   11.68170577   -1.97813997   -2.01102814
O   -2.43665709   3.24251752   2.66564712
H   -3.12044443   3.43645177   1.97611486
H   -2.13576410   4.10795285   2.81955027
O   -11.24174921   4.52580930   -0.81455115
H   -10.98859951   5.38952999   -0.51119526
H   -10.51687489   3.91696011   -0.72040676
O   7.02612473   -4.30617723   -4.21409459
H   7.20919563   -3.50513505   -3.76381824
H   7.91846136   -4.71383928   -4.32533483
O   5.57806428   2.59049957   -2.17569849
H   5.04239732   2.85759369   -1.39848806
H   4.90771475   2.52459467   -2.90538140
O   8.69433247   -6.37208363   0.99270033
H   8.76158023   6.37786382   1.70656309
H   9.09358397   6.44579802   0.35094771
O   -5.06238913   5.84141971   3.32877809
H   -5.53069201   5.62641242   2.47351957
H   -4.13793927   5.74241157   3.08466196
O   13.63975543   -0.67834951   -1.99182272
H   -5.27350314   4.34953829   -0.75816275
H   13.38300348   0.17423469   -2.34673693
O   -13.13337691   -6.51016385   -2.16082957
H   -13.85294112   -6.40236411   -1.58771663
H   -12.78752534   6.00529430   -1.93569500
O   3.54443247   6.17194398   -1.27244512
H   4.04502653   5.43843817   -0.71456339
H   3.55596714   5.88949915   -2.20195975
O   3.94271786   0.19979947   -1.51028489
H   3.60373298   0.97034471   -0.98060418
H   -7.28243536   -0.27846449   -0.00044122
O   13.77776262   -4.97064043   0.27138723
H   12.82321552   -5.06472862   0.30685946
H   13.93087937   -4.59679738   -0.63305301
O   -5.70534836   4.35513706   0.11969593
H   -3.17961745   -5.27542134   1.84495997
H   -7.20136003   3.03525186   -1.16799033
O   -7.36227891   5.13018598   -2.47838819
H   -8.10534565   5.69718599   -2.73828063
H   -7.26722678   5.07782421   -1.50891354
O   6.72698392   5.00685305   -1.80452719
H   6.79458451   4.27790908   -2.47716579
H   5.84894376   4.90050762   -1.41013563
O   -0.18216739   -3.33757204   -4.27164912
H   0.45001188   -4.06150996   -4.30040369
H   -0.95855558   -3.53112418   -3.76024657
O   -14.40700137   -2.91175941   3.44220430
H   -14.38850259   -2.96373210   4.37816640
H   -14.07493691   -3.71860078   2.99477899
O   -6.51272886   -0.91435203   -3.04013525
H   -5.94951824   -1.64632484   -3.28431056
H   -5.90324639   -0.17236563   -2.85667429
O   -3.41411454   5.41666449   0.94080434
H   -4.33380516   5.16250273   0.75388640
H   -3.34829681   6.17272247   0.34342874
O   -7.10930036   -0.57860196   0.94667185
H   -8.04113050   -0.43109730   1.24443062
H   14.88782179   -0.48329835   3.91819831
O   15.09457748   3.55242915   0.84920534
H   14.79153440   3.34764416   1.71387955
H   14.50774178   4.23272051   0.56672923
O   -9.89285289   0.64071960   1.15951285
H   -10.77714909   0.61491609   1.55557720
H   -9.93158841   0.62256670   0.19007561
O   10.65757057   1.73586053   -1.99079040
H   9.92254260   1.11338121   -2.23941137
H   11.40437716   1.42868177   -2.51277079
O   -9.55929585   -4.86477454   2.38067198
H   -9.31002455   -5.24799588   1.49197971
H   -8.72431084   -4.53044731   2.74820090
O   -11.12174437   -5.85932246   -0.09335763
H   -10.39863218   -5.24234905   0.21300613
H   -11.76126130   -5.28453428   -0.53294240
O   10.49176185   -4.98629713   -3.53216209
H   10.39998297   -5.27452724   -4.47646561
H   10.90086369   -4.07958217   -3.44656055
O   -11.96448541   1.75372579   2.80605529
H   -12.48358205   2.53346462   2.70336774
H   13.87739299   -0.47388530   -1.08164278
O   5.74762156   -2.34501508   -2.52707271
H   4.79530760   -2.10577706   -2.58836507
H   6.30322026   -1.58512967   -2.45524942
O   -4.24594780   3.98507142   -3.34670665
H   -13.23756812   0.19184333   2.33937426
H   -4.52671740   3.73795453   -2.49062632
O   -6.10936153   -6.38890750   0.31899743
H   -5.29774973   -6.17418210   -0.22994905
H   -5.99379065   5.97516411   0.36792121
O   1.64791307   1.14970023   -3.38936298
H   13.56065364   -0.20883157   1.50603527
H   1.60970563   1.33297540   -4.37666501
O   13.11033378   1.87793251   -3.44358787
H   14.00953673   2.18368310   -3.22323448
H   12.54915990   2.70462539   -3.44825516
O   -3.85721756   1.03272467   -2.79358941
H   -4.67792912   1.12799734   -3.24418377
H   -3.69167510   0.07100564   -2.75368339
O   -10.07352708   -6.28052569   -3.17612207
H   -10.95354494   -6.48391871   -2.84475251
H   -9.76704070   -5.52352382   -2.68877110
O   -9.47841565   0.23184490   -1.87077147
H   -9.33540023   1.01923572   -2.43870996
H   -9.02659539   -0.46788928   -2.32147547
O   1.68549444   -5.69979598   -3.48708021
H   1.61999731   -6.61392386   -3.12002866
H   2.57209273   -5.45810789   -3.68869598
O   7.26861117   2.56859401   3.46346510
H   7.60522046   1.71402598   3.74064131
H   1.52991708   4.43598894   -1.95181758
O   -12.10526240   -3.72483953   1.92038381
H   -11.26041320   -3.88797364   2.36999888
H   -11.78962004   -3.23279953   1.12950273
O   -6.78825491   -5.15976340   2.74757510
H   -6.46788992   -5.34185844   1.81398644
H   -6.61998919   -5.95652184   3.33673616
O   4.11791351   1.04050525   1.19443501
H   3.64899017   1.90342486   0.94946801
H   5.05296791   1.21553305   1.24332677
O   -0.63277122   -4.19099522   -0.14874258
H   -0.11498785   -5.01764478   -0.07302177
O   14.20044021   -0.30941831   0.79103602
H   15.11751119   -0.49885860   1.10418777
