850

C   -10.76634000   -5.88392000   -7.40642000
C   -8.22783000   -5.89684000   -7.35228000
C   -9.48323000   -5.14875000   -7.86258000
H   -8.25084000   -5.91788000   -6.23725000
H   -8.17547000   -2.93534000   -8.90734000
C   -8.20263000   -2.95695000   -7.79237000
C   -9.48779000   -3.69199000   -7.34072000
H   -9.45848000   -5.12929000   -8.97762000
C   -10.74013000   -2.94353000   -7.85703000
C   -12.02726000   -3.67558000   -7.40466000
C   -12.02235000   -5.13871000   -7.92068000
H   -11.99500000   -5.12292000   -9.03573000
H   -10.79141000   -5.90154000   -6.29145000
H   -9.51528000   -3.71149000   -6.22579000
H   -10.71153000   -2.92555000   -8.97194000
H   -12.05441000   -3.69146000   -6.28963000
C   -10.74220000   -1.48642000   -7.33577000
C   -8.20596000   -1.50118000   -7.26697000
C   -9.45485000   -0.75174000   -7.78432000
C   -11.98896000   -0.73597000   -7.85704000
H   -10.77396000   -1.50461000   -6.22093000
H   -8.23565000   -1.52265000   -6.15210000
H   -11.95495000   -0.71930000   -8.97214000
H   -9.42352000   -0.73217000   -8.89938000
C   -13.28448000   -1.46325000   -7.41100000
C   -13.28329000   -2.92595000   -7.92096000
C   -13.30990000   -5.87498000   -7.46661000
C   -14.51244000   -0.69199000   -7.93287000
C   -14.55243000   -3.67228000   -7.46841000
C   -14.54736000   -5.11561000   -7.98108000
H   -14.52594000   -0.69089000   -9.04503000
H   -13.32615000   -1.47554000   -6.29749000
H   -13.26323000   -2.91353000   -9.03508000
H   -14.62825000   -3.67372000   -6.35883000
H   -14.56843000   -5.11374000   -9.09303000
H   -13.34467000   -5.88707000   -6.35291000
C   -14.50474000   0.75316000   -7.42231000
C   -13.22292000   1.47345000   -7.85385000
C   -11.98480000   0.72499000   -7.33827000
C   -10.70081000   1.44967000   -7.77736000
C   -9.45734000   0.70671000   -7.26216000
C   -8.17364000   1.43549000   -7.69936000
H   -14.58620000   0.76068000   -6.31411000
H   -12.01888000   0.72072000   -6.22532000
H   -9.49077000   0.69984000   -6.14929000
H   -13.19933000   1.54420000   -8.96376000
H   -10.66662000   1.51846000   -8.88818000
H   -8.14043000   1.50816000   -8.80990000
C   -8.22281000   5.90509000   -7.87685000
C   -9.50182000   5.16912000   -7.41721000
C   -10.75866000   5.91672000   -7.92695000
H   -8.20223000   5.92596000   -8.99198000
C   -9.49501000   3.71016000   -7.93801000
H   -9.52290000   5.15048000   -6.30197000
C   -10.76925000   2.98079000   -7.48241000
C   -12.02271000   3.71830000   -7.98406000
C   -12.03697000   5.17969000   -7.46671000
H   -9.47604000   3.71608000   -9.05126000
H   -10.73666000   5.93444000   -9.04206000
H   -12.05758000   5.16361000   -6.35127000
H   -12.00226000   3.72190000   -9.09738000
H   -10.78936000   2.91308000   -6.37120000
C   -8.24057000   2.96885000   -7.44091000
H   -8.25825000   2.89802000   -6.32995000
C   -13.30138000   5.92012000   -7.97597000
C   -13.29239000   2.98324000   -7.52981000
C   -14.56154000   5.16204000   -7.51514000
C   -14.54375000   3.71650000   -8.02435000
H   -13.28816000   5.93212000   -9.09022000
H   -14.62987000   5.16190000   -6.40503000
H   -14.57050000   3.70894000   -9.13523000
H   -13.32422000   2.91323000   -6.42005000
C   -3.16734000   -5.88392000   -7.40642000
C   -0.62883000   -5.89684000   -7.35228000
C   -1.88423000   -5.14875000   -7.86258000
H   -0.65184000   -5.91788000   -6.23725000
H   -0.57647000   -2.93534000   -8.90734000
C   -0.60363000   -2.95695000   -7.79237000
C   -1.88879000   -3.69199000   -7.34072000
H   -1.85948000   -5.12929000   -8.97762000
C   -3.14113000   -2.94353000   -7.85703000
C   -4.42826000   -3.67558000   -7.40466000
C   -4.42335000   -5.13871000   -7.92068000
H   -4.39600000   -5.12292000   -9.03573000
H   -3.19241000   -5.90154000   -6.29145000
H   -1.91628000   -3.71149000   -6.22579000
H   -3.11253000   -2.92555000   -8.97194000
H   -4.45541000   -3.69146000   -6.28963000
C   -3.14320000   -1.48642000   -7.33577000
C   -0.60696000   -1.50118000   -7.26697000
C   -1.85585000   -0.75174000   -7.78432000
C   -4.38996000   -0.73597000   -7.85704000
H   -3.17496000   -1.50461000   -6.22093000
H   -0.63665000   -1.52265000   -6.15210000
H   -4.35595000   -0.71930000   -8.97214000
H   -1.82452000   -0.73217000   -8.89938000
C   -5.68548000   -1.46325000   -7.41100000
C   -5.68429000   -2.92595000   -7.92096000
C   -5.71090000   -5.87498000   -7.46661000
C   -6.91344000   -0.69199000   -7.93287000
C   -6.95343000   -3.67228000   -7.46841000
C   -6.94836000   -5.11561000   -7.98108000
H   -6.92694000   -0.69089000   -9.04503000
H   -5.72715000   -1.47554000   -6.29749000
H   -5.66423000   -2.91353000   -9.03508000
H   -7.02925000   -3.67372000   -6.35883000
H   -6.96943000   -5.11374000   -9.09303000
H   -5.74567000   -5.88707000   -6.35291000
C   -6.90574000   0.75316000   -7.42231000
C   -5.62392000   1.47345000   -7.85385000
C   -4.38580000   0.72499000   -7.33827000
C   -3.10181000   1.44967000   -7.77736000
C   -1.85834000   0.70671000   -7.26216000
C   -0.57464000   1.43549000   -7.69936000
H   -6.98720000   0.76068000   -6.31411000
H   -4.41988000   0.72072000   -6.22532000
H   -1.89177000   0.69984000   -6.14929000
H   -5.60033000   1.54420000   -8.96376000
H   -3.06762000   1.51846000   -8.88818000
H   -0.54143000   1.50816000   -8.80990000
C   -0.62381000   5.90509000   -7.87685000
C   -1.90282000   5.16912000   -7.41721000
C   -3.15966000   5.91672000   -7.92695000
H   -0.60323000   5.92596000   -8.99198000
C   -1.89601000   3.71016000   -7.93801000
H   -1.92390000   5.15048000   -6.30197000
C   -3.17025000   2.98079000   -7.48241000
C   -4.42371000   3.71830000   -7.98406000
C   -4.43797000   5.17969000   -7.46671000
H   -1.87704000   3.71608000   -9.05126000
H   -3.13766000   5.93444000   -9.04206000
H   -4.45858000   5.16361000   -6.35127000
H   -4.40326000   3.72190000   -9.09738000
H   -3.19036000   2.91308000   -6.37120000
C   -0.64157000   2.96885000   -7.44091000
H   -0.65925000   2.89802000   -6.32995000
C   -5.70238000   5.92012000   -7.97597000
C   -5.69339000   2.98324000   -7.52981000
C   -6.96254000   5.16204000   -7.51514000
C   -6.94475000   3.71650000   -8.02435000
H   -5.68916000   5.93212000   -9.09022000
H   -7.03087000   5.16190000   -6.40503000
H   -6.97150000   3.70894000   -9.13523000
H   -5.72522000   2.91323000   -6.42005000
C   4.43166000   -5.88392000   -7.40642000
C   6.97017000   -5.89684000   -7.35228000
C   5.71477000   -5.14875000   -7.86258000
H   6.94716000   -5.91788000   -6.23725000
H   7.02253000   -2.93534000   -8.90734000
C   6.99537000   -2.95695000   -7.79237000
C   5.71021000   -3.69199000   -7.34072000
H   5.73952000   -5.12929000   -8.97762000
C   4.45787000   -2.94353000   -7.85703000
C   3.17074000   -3.67558000   -7.40466000
C   3.17565000   -5.13871000   -7.92068000
H   3.20300000   -5.12292000   -9.03573000
H   4.40659000   -5.90154000   -6.29145000
H   5.68272000   -3.71149000   -6.22579000
H   4.48647000   -2.92555000   -8.97194000
H   3.14359000   -3.69146000   -6.28963000
C   4.45580000   -1.48642000   -7.33577000
C   6.99204000   -1.50118000   -7.26697000
C   5.74315000   -0.75174000   -7.78432000
C   3.20904000   -0.73597000   -7.85704000
H   4.42404000   -1.50461000   -6.22093000
H   6.96235000   -1.52265000   -6.15210000
H   3.24305000   -0.71930000   -8.97214000
H   5.77448000   -0.73217000   -8.89938000
C   1.91352000   -1.46325000   -7.41100000
C   1.91471000   -2.92595000   -7.92096000
C   1.88810000   -5.87498000   -7.46661000
C   0.68556000   -0.69199000   -7.93287000
C   0.64557000   -3.67228000   -7.46841000
C   0.65064000   -5.11561000   -7.98108000
H   0.67206000   -0.69089000   -9.04503000
H   1.87185000   -1.47554000   -6.29749000
H   1.93477000   -2.91353000   -9.03508000
H   0.56975000   -3.67372000   -6.35883000
H   0.62957000   -5.11374000   -9.09303000
H   1.85333000   -5.88707000   -6.35291000
C   0.69326000   0.75316000   -7.42231000
C   1.97508000   1.47345000   -7.85385000
C   3.21320000   0.72499000   -7.33827000
C   4.49719000   1.44967000   -7.77736000
C   5.74066000   0.70671000   -7.26216000
C   7.02436000   1.43549000   -7.69936000
H   0.61180000   0.76068000   -6.31411000
H   3.17912000   0.72072000   -6.22532000
H   5.70723000   0.69984000   -6.14929000
H   1.99867000   1.54420000   -8.96376000
H   4.53138000   1.51846000   -8.88818000
H   7.05757000   1.50816000   -8.80990000
C   6.97519000   5.90509000   -7.87685000
C   5.69618000   5.16912000   -7.41721000
C   4.43934000   5.91672000   -7.92695000
H   6.99577000   5.92596000   -8.99198000
C   5.70299000   3.71016000   -7.93801000
H   5.67510000   5.15048000   -6.30197000
C   4.42875000   2.98079000   -7.48241000
C   3.17529000   3.71830000   -7.98406000
C   3.16103000   5.17969000   -7.46671000
H   5.72196000   3.71608000   -9.05126000
H   4.46134000   5.93444000   -9.04206000
H   3.14042000   5.16361000   -6.35127000
H   3.19574000   3.72190000   -9.09738000
H   4.40864000   2.91308000   -6.37120000
C   6.95743000   2.96885000   -7.44091000
H   6.93975000   2.89802000   -6.32995000
C   1.89662000   5.92012000   -7.97597000
C   1.90561000   2.98324000   -7.52981000
C   0.63646000   5.16204000   -7.51514000
C   0.65425000   3.71650000   -8.02435000
H   1.90984000   5.93212000   -9.09022000
H   0.56813000   5.16190000   -6.40503000
H   0.62750000   3.70894000   -9.13523000
H   1.87378000   2.91323000   -6.42005000
C   12.03066000   -5.88392000   -7.40642000
C   14.56917000   -5.89684000   -7.35228000
C   13.31377000   -5.14875000   -7.86258000
H   14.54616000   -5.91788000   -6.23725000
H   14.62153000   -2.93534000   -8.90734000
C   14.59437000   -2.95695000   -7.79237000
C   13.30921000   -3.69199000   -7.34072000
H   13.33852000   -5.12929000   -8.97762000
C   12.05687000   -2.94353000   -7.85703000
C   10.76974000   -3.67558000   -7.40466000
C   10.77465000   -5.13871000   -7.92068000
H   10.80200000   -5.12292000   -9.03573000
H   12.00559000   -5.90154000   -6.29145000
H   13.28172000   -3.71149000   -6.22579000
H   12.08547000   -2.92555000   -8.97194000
H   10.74259000   -3.69146000   -6.28963000
C   12.05480000   -1.48642000   -7.33577000
C   14.59104000   -1.50118000   -7.26697000
C   13.34215000   -0.75174000   -7.78432000
C   10.80804000   -0.73597000   -7.85704000
H   12.02304000   -1.50461000   -6.22093000
H   14.56135000   -1.52265000   -6.15210000
H   10.84205000   -0.71930000   -8.97214000
H   13.37348000   -0.73217000   -8.89938000
C   9.51252000   -1.46325000   -7.41100000
C   9.51371000   -2.92595000   -7.92096000
C   9.48710000   -5.87498000   -7.46661000
C   8.28456000   -0.69199000   -7.93287000
C   8.24457000   -3.67228000   -7.46841000
C   8.24964000   -5.11561000   -7.98108000
H   8.27106000   -0.69089000   -9.04503000
H   9.47085000   -1.47554000   -6.29749000
H   9.53377000   -2.91353000   -9.03508000
H   8.16875000   -3.67372000   -6.35883000
H   8.22857000   -5.11374000   -9.09303000
H   9.45233000   -5.88707000   -6.35291000
C   8.29226000   0.75316000   -7.42231000
C   9.57408000   1.47345000   -7.85385000
C   10.81220000   0.72499000   -7.33827000
C   12.09619000   1.44967000   -7.77736000
C   13.33966000   0.70671000   -7.26216000
C   14.62336000   1.43549000   -7.69936000
H   8.21080000   0.76068000   -6.31411000
H   10.77812000   0.72072000   -6.22532000
H   13.30623000   0.69984000   -6.14929000
H   9.59767000   1.54420000   -8.96376000
H   12.13038000   1.51846000   -8.88818000
H   14.65657000   1.50816000   -8.80990000
C   14.57419000   5.90509000   -7.87685000
C   13.29518000   5.16912000   -7.41721000
C   12.03834000   5.91672000   -7.92695000
H   14.59477000   5.92596000   -8.99198000
C   13.30199000   3.71016000   -7.93801000
H   13.27410000   5.15048000   -6.30197000
C   12.02775000   2.98079000   -7.48241000
C   10.77429000   3.71830000   -7.98406000
C   10.76003000   5.17969000   -7.46671000
H   13.32096000   3.71608000   -9.05126000
H   12.06034000   5.93444000   -9.04206000
H   10.73942000   5.16361000   -6.35127000
H   10.79474000   3.72190000   -9.09738000
H   12.00764000   2.91308000   -6.37120000
C   14.55643000   2.96885000   -7.44091000
H   14.53875000   2.89802000   -6.32995000
C   9.49562000   5.92012000   -7.97597000
C   9.50461000   2.98324000   -7.52981000
C   8.23546000   5.16204000   -7.51514000
C   8.25325000   3.71650000   -8.02435000
H   9.50884000   5.93212000   -9.09022000
H   8.16713000   5.16190000   -6.40503000
H   8.22650000   3.70894000   -9.13523000
H   9.47278000   2.91323000   -6.42005000
C   -10.76634000   -5.88392000   7.59358000
C   -8.22783000   -5.89684000   7.64772000
C   -9.48323000   -5.14875000   7.13742000
H   -8.25084000   -5.91788000   8.76275000
H   -8.17547000   -2.93534000   6.09266000
C   -8.20263000   -2.95695000   7.20763000
C   -9.48779000   -3.69199000   7.65928000
H   -9.45848000   -5.12929000   6.02238000
C   -10.74013000   -2.94353000   7.14297000
C   -12.02726000   -3.67558000   7.59534000
C   -12.02235000   -5.13871000   7.07932000
H   -11.99500000   -5.12292000   5.96427000
H   -10.79141000   -5.90154000   8.70855000
H   -9.51528000   -3.71149000   8.77421000
H   -10.71153000   -2.92555000   6.02806000
H   -12.05441000   -3.69146000   8.71037000
C   -10.74220000   -1.48642000   7.66423000
C   -8.20596000   -1.50118000   7.73303000
C   -9.45485000   -0.75174000   7.21568000
C   -11.98896000   -0.73597000   7.14296000
H   -10.77396000   -1.50461000   8.77907000
H   -8.23565000   -1.52265000   8.84790000
H   -11.95495000   -0.71930000   6.02786000
H   -9.42352000   -0.73217000   6.10062000
C   -13.28448000   -1.46325000   7.58900000
C   -13.28329000   -2.92595000   7.07904000
C   -13.30990000   -5.87498000   7.53339000
C   -14.51244000   -0.69199000   7.06713000
C   -14.55243000   -3.67228000   7.53159000
C   -14.54736000   -5.11561000   7.01892000
H   -14.52594000   -0.69089000   5.95497000
H   -13.32615000   -1.47554000   8.70251000
H   -13.26323000   -2.91353000   5.96492000
H   -14.62825000   -3.67372000   8.64117000
H   -14.56843000   -5.11374000   5.90697000
H   -13.34467000   -5.88707000   8.64709000
C   -14.50474000   0.75316000   7.57769000
C   -13.22292000   1.47345000   7.14615000
C   -11.98480000   0.72499000   7.66173000
C   -10.70081000   1.44967000   7.22264000
C   -9.45734000   0.70671000   7.73784000
C   -8.17364000   1.43549000   7.30064000
H   -14.58620000   0.76068000   8.68589000
H   -12.01888000   0.72072000   8.77468000
H   -9.49077000   0.69984000   8.85071000
H   -13.19933000   1.54420000   6.03624000
H   -10.66662000   1.51846000   6.11182000
H   -8.14043000   1.50816000   6.19010000
C   -8.22281000   5.90509000   7.12315000
C   -9.50182000   5.16912000   7.58279000
C   -10.75866000   5.91672000   7.07305000
H   -8.20223000   5.92596000   6.00802000
C   -9.49501000   3.71016000   7.06199000
H   -9.52290000   5.15048000   8.69803000
C   -10.76925000   2.98079000   7.51759000
C   -12.02271000   3.71830000   7.01594000
C   -12.03697000   5.17969000   7.53329000
H   -9.47604000   3.71608000   5.94874000
H   -10.73666000   5.93444000   5.95794000
H   -12.05758000   5.16361000   8.64873000
H   -12.00226000   3.72190000   5.90262000
H   -10.78936000   2.91308000   8.62880000
C   -8.24057000   2.96885000   7.55909000
H   -8.25825000   2.89802000   8.67005000
C   -13.30138000   5.92012000   7.02403000
C   -13.29239000   2.98324000   7.47019000
C   -14.56154000   5.16204000   7.48486000
C   -14.54375000   3.71650000   6.97565000
H   -13.28816000   5.93212000   5.90978000
H   -14.62987000   5.16190000   8.59497000
H   -14.57050000   3.70894000   5.86477000
H   -13.32422000   2.91323000   8.57995000
C   -3.16734000   -5.88392000   7.59358000
C   -0.62883000   -5.89684000   7.64772000
C   -1.88423000   -5.14875000   7.13742000
H   -0.65184000   -5.91788000   8.76275000
H   -0.57647000   -2.93534000   6.09266000
C   -0.60363000   -2.95695000   7.20763000
C   -1.88879000   -3.69199000   7.65928000
H   -1.85948000   -5.12929000   6.02238000
C   -3.14113000   -2.94353000   7.14297000
C   -4.42826000   -3.67558000   7.59534000
C   -4.42335000   -5.13871000   7.07932000
H   -4.39600000   -5.12292000   5.96427000
H   -3.19241000   -5.90154000   8.70855000
H   -1.91628000   -3.71149000   8.77421000
H   -3.11253000   -2.92555000   6.02806000
H   -4.45541000   -3.69146000   8.71037000
C   -3.14320000   -1.48642000   7.66423000
C   -0.60696000   -1.50118000   7.73303000
C   -1.85585000   -0.75174000   7.21568000
C   -4.38996000   -0.73597000   7.14296000
H   -3.17496000   -1.50461000   8.77907000
H   -0.63665000   -1.52265000   8.84790000
H   -1.82452000   -0.73217000   6.10062000
C   -5.68548000   -1.46325000   7.58900000
C   -5.68429000   -2.92595000   7.07904000
C   -5.71090000   -5.87498000   7.53339000
C   -6.91344000   -0.69199000   7.06713000
C   -6.95343000   -3.67228000   7.53159000
C   -6.94836000   -5.11561000   7.01892000
H   -6.92694000   -0.69089000   5.95497000
H   -5.72715000   -1.47554000   8.70251000
H   -5.66423000   -2.91353000   5.96492000
H   -7.02925000   -3.67372000   8.64117000
H   -6.96943000   -5.11374000   5.90697000
H   -5.74567000   -5.88707000   8.64709000
C   -6.90574000   0.75316000   7.57769000
C   -5.62392000   1.47345000   7.14615000
C   -4.38580000   0.72499000   7.66173000
C   -3.10181000   1.44967000   7.22264000
C   -1.85834000   0.70671000   7.73784000
C   -0.57464000   1.43549000   7.30064000
H   -6.98720000   0.76068000   8.68589000
H   -4.41988000   0.72072000   8.77468000
H   -1.89177000   0.69984000   8.85071000
H   -5.60033000   1.54420000   6.03624000
H   -3.06762000   1.51846000   6.11182000
H   -0.54143000   1.50816000   6.19010000
C   -0.62381000   5.90509000   7.12315000
C   -1.90282000   5.16912000   7.58279000
C   -3.15966000   5.91672000   7.07305000
H   -0.60323000   5.92596000   6.00802000
C   -1.89601000   3.71016000   7.06199000
H   -1.92390000   5.15048000   8.69803000
C   -3.17025000   2.98079000   7.51759000
C   -4.42371000   3.71830000   7.01594000
C   -4.43797000   5.17969000   7.53329000
H   -1.87704000   3.71608000   5.94874000
H   -3.13766000   5.93444000   5.95794000
H   -4.45858000   5.16361000   8.64873000
H   -4.40326000   3.72190000   5.90262000
H   -3.19036000   2.91308000   8.62880000
C   -0.64157000   2.96885000   7.55909000
H   -0.65925000   2.89802000   8.67005000
C   -5.70238000   5.92012000   7.02403000
C   -5.69339000   2.98324000   7.47019000
C   -6.96254000   5.16204000   7.48486000
C   -6.94475000   3.71650000   6.97565000
H   -5.68916000   5.93212000   5.90978000
H   -7.03087000   5.16190000   8.59497000
H   -6.97150000   3.70894000   5.86477000
H   -5.72522000   2.91323000   8.57995000
C   4.43166000   -5.88392000   7.59358000
C   6.97017000   -5.89684000   7.64772000
C   5.71477000   -5.14875000   7.13742000
H   6.94716000   -5.91788000   8.76275000
H   7.02253000   -2.93534000   6.09266000
C   6.99537000   -2.95695000   7.20763000
C   5.71021000   -3.69199000   7.65928000
H   5.73952000   -5.12929000   6.02238000
C   4.45787000   -2.94353000   7.14297000
C   3.17074000   -3.67558000   7.59534000
C   3.17565000   -5.13871000   7.07932000
H   3.20300000   -5.12292000   5.96427000
H   4.40659000   -5.90154000   8.70855000
H   5.68272000   -3.71149000   8.77421000
H   4.48647000   -2.92555000   6.02806000
H   3.14359000   -3.69146000   8.71037000
C   4.45580000   -1.48642000   7.66423000
C   6.99204000   -1.50118000   7.73303000
C   5.74315000   -0.75174000   7.21568000
C   3.20904000   -0.73597000   7.14296000
H   4.42404000   -1.50461000   8.77907000
H   6.96235000   -1.52265000   8.84790000
H   3.24305000   -0.71930000   6.02786000
C   1.91352000   -1.46325000   7.58900000
C   1.91471000   -2.92595000   7.07904000
C   1.88810000   -5.87498000   7.53339000
C   0.68556000   -0.69199000   7.06713000
C   0.64557000   -3.67228000   7.53159000
C   0.65064000   -5.11561000   7.01892000
H   0.67206000   -0.69089000   5.95497000
H   1.87185000   -1.47554000   8.70251000
H   1.93477000   -2.91353000   5.96492000
H   0.56975000   -3.67372000   8.64117000
H   0.62957000   -5.11374000   5.90697000
H   1.85333000   -5.88707000   8.64709000
C   0.69326000   0.75316000   7.57769000
C   1.97508000   1.47345000   7.14615000
C   3.21320000   0.72499000   7.66173000
C   4.49719000   1.44967000   7.22264000
C   5.74066000   0.70671000   7.73784000
C   7.02436000   1.43549000   7.30064000
H   0.61180000   0.76068000   8.68589000
H   3.17912000   0.72072000   8.77468000
H   5.70723000   0.69984000   8.85071000
H   1.99867000   1.54420000   6.03624000
H   4.53138000   1.51846000   6.11182000
H   7.05757000   1.50816000   6.19010000
C   6.97519000   5.90509000   7.12315000
C   5.69618000   5.16912000   7.58279000
C   4.43934000   5.91672000   7.07305000
H   6.99577000   5.92596000   6.00802000
C   5.70299000   3.71016000   7.06199000
H   5.67510000   5.15048000   8.69803000
C   4.42875000   2.98079000   7.51759000
C   3.17529000   3.71830000   7.01594000
C   3.16103000   5.17969000   7.53329000
H   5.72196000   3.71608000   5.94874000
H   4.46134000   5.93444000   5.95794000
H   3.14042000   5.16361000   8.64873000
H   3.19574000   3.72190000   5.90262000
H   4.40864000   2.91308000   8.62880000
C   6.95743000   2.96885000   7.55909000
H   6.93975000   2.89802000   8.67005000
C   1.89662000   5.92012000   7.02403000
C   1.90561000   2.98324000   7.47019000
C   0.63646000   5.16204000   7.48486000
C   0.65425000   3.71650000   6.97565000
H   1.90984000   5.93212000   5.90978000
H   0.56813000   5.16190000   8.59497000
H   0.62750000   3.70894000   5.86477000
H   1.87378000   2.91323000   8.57995000
C   12.03066000   -5.88392000   7.59358000
C   14.56917000   -5.89684000   7.64772000
C   13.31377000   -5.14875000   7.13742000
H   14.54616000   -5.91788000   8.76275000
H   14.62153000   -2.93534000   6.09266000
C   14.59437000   -2.95695000   7.20763000
C   13.30921000   -3.69199000   7.65928000
H   13.33852000   -5.12929000   6.02238000
C   12.05687000   -2.94353000   7.14297000
C   10.76974000   -3.67558000   7.59534000
C   10.77465000   -5.13871000   7.07932000
H   10.80200000   -5.12292000   5.96427000
H   12.00559000   -5.90154000   8.70855000
H   13.28172000   -3.71149000   8.77421000
H   12.08547000   -2.92555000   6.02806000
H   10.74259000   -3.69146000   8.71037000
C   12.05480000   -1.48642000   7.66423000
C   14.59104000   -1.50118000   7.73303000
C   13.34215000   -0.75174000   7.21568000
C   10.80804000   -0.73597000   7.14296000
H   12.02304000   -1.50461000   8.77907000
H   14.56135000   -1.52265000   8.84790000
H   10.84205000   -0.71930000   6.02786000
H   13.37348000   -0.73217000   6.10062000
C   9.51252000   -1.46325000   7.58900000
C   9.51371000   -2.92595000   7.07904000
C   9.48710000   -5.87498000   7.53339000
C   8.28456000   -0.69199000   7.06713000
C   8.24457000   -3.67228000   7.53159000
C   8.24964000   -5.11561000   7.01892000
H   8.27106000   -0.69089000   5.95497000
H   9.47085000   -1.47554000   8.70251000
H   9.53377000   -2.91353000   5.96492000
H   8.16875000   -3.67372000   8.64117000
H   8.22857000   -5.11374000   5.90697000
H   9.45233000   -5.88707000   8.64709000
C   8.29226000   0.75316000   7.57769000
C   9.57408000   1.47345000   7.14615000
C   10.81220000   0.72499000   7.66173000
C   12.09619000   1.44967000   7.22264000
C   13.33966000   0.70671000   7.73784000
C   14.62336000   1.43549000   7.30064000
H   8.21080000   0.76068000   8.68589000
H   10.77812000   0.72072000   8.77468000
H   13.30623000   0.69984000   8.85071000
H   9.59767000   1.54420000   6.03624000
H   12.13038000   1.51846000   6.11182000
H   14.65657000   1.50816000   6.19010000
C   14.57419000   5.90509000   7.12315000
C   13.29518000   5.16912000   7.58279000
C   12.03834000   5.91672000   7.07305000
H   14.59477000   5.92596000   6.00802000
C   13.30199000   3.71016000   7.06199000
H   13.27410000   5.15048000   8.69803000
C   12.02775000   2.98079000   7.51759000
C   10.77429000   3.71830000   7.01594000
C   10.76003000   5.17969000   7.53329000
H   13.32096000   3.71608000   5.94874000
H   12.06034000   5.93444000   5.95794000
H   10.73942000   5.16361000   8.64873000
H   10.79474000   3.72190000   5.90262000
H   12.00764000   2.91308000   8.62880000
C   14.55643000   2.96885000   7.55909000
H   14.53875000   2.89802000   8.67005000
C   9.49562000   5.92012000   7.02403000
C   9.50461000   2.98324000   7.47019000
C   8.23546000   5.16204000   7.48486000
C   8.25325000   3.71650000   6.97565000
H   9.50884000   5.93212000   5.90978000
H   8.16713000   5.16190000   8.59497000
H   8.22650000   3.70894000   5.86477000
H   9.47278000   2.91323000   8.57995000
N   -3.58206397   -0.16722999   2.97532739
C   -4.29673888   -0.76388396   5.44570511
H   -5.28260446   -0.82291618   5.04826302
H   -3.86986075   -1.74667486   5.14835050
C   -3.58056569   0.23489598   4.53833032
H   -2.49294482   0.25827657   4.75497673
H   -3.88083814   1.32888120   4.61426852
C   -3.43726933   1.04301646   2.10648834
H   -4.24341698   1.80758612   2.28796430
H   -2.44202489   1.42667619   2.22347601
H   -3.52958483   0.74265715   1.12404036
C   -4.87158333   -0.87078933   2.65568193
H   -5.11541469   -0.82551455   1.59818557
H   -4.78326763   -1.90958247   2.95806702
H   -5.69792220   -0.29328432   3.19366884
C   -2.35535899   -1.06545678   2.75731123
H   -2.22028015   -1.34162670   1.67869217
H   -1.45008514   -0.61597003   3.15233528
H   -2.56578044   -1.97634978   3.20365945
N   6.94782205   -2.08496328   -0.74863488
C   5.73833362   -0.76837786   5.49059264
H   4.71847476   -0.91126202   5.20106686
H   6.24831615   -1.71396233   5.25109937
C   6.24113495   0.24257744   4.48596357
H   5.80695368   1.24716321   4.66723550
H   7.32176572   0.17981529   4.42053858
C   5.69689913   -0.01329160   3.04187975
H   4.61012405   0.31825402   3.09133352
H   5.63311252   -1.11350747   2.73393064
C   6.53086036   0.71567533   2.00572048
H   6.23795076   1.77723728   2.15724201
H   7.54742702   0.61067719   2.32193002
C   6.30610898   0.09290346   0.60184771
H   6.62244730   0.78508518   -0.15047869
H   5.21922421   -0.00070973   0.48522454
C   7.00791979   -1.35383080   0.58077566
H   6.46921737   -2.04096484   1.28080156
H   7.98603825   -1.27391943   0.89199686
C   7.03895829   -3.59309349   -0.49776677
H   6.92925457   -3.98032161   -1.42430497
H   6.09518314   -3.79631124   0.00278045
H   8.01127320   -3.89283199   -0.04895784
C   8.16577155   -1.57747708   -1.46476033
H   8.24736953   -2.04784278   -2.45011975
H   8.92889862   -2.00166960   -0.87105000
H   8.09589453   -0.50695007   -1.40744199
C   5.72824511   -1.80139418   -1.58034100
H   4.82225343   -1.76960876   -1.01123015
H   5.72508935   -2.56544315   -2.38258902
H   5.89401799   -0.77595451   -2.02232127
O   1.16060000   3.70447482   2.88229323
H   1.01378108   4.47301637   2.28239168
H   1.33456135   3.02918886   2.24686817
O   -8.49322548   -1.39901076   1.04258068
H   -8.71706853   -1.40006025   0.08307353
H   -8.20336085   -0.51449868   1.23089004
O   -10.91565531   -3.44105963   0.76690119
H   -11.38936656   -3.07202205   0.00003191
H   -10.30860801   -2.83875292   1.22803180
O   8.33953807   -5.89049153   0.84068890
H   8.57980553   -6.26756453   1.72348522
H   9.23704662   -5.86278493   0.46996784
O   10.98006373   -0.66111630   -0.40372782
H   11.40706511   -1.48249709   -0.11200848
H   10.66832785   -0.33503081   0.44980153
O   -1.31790391   4.05761294   -2.35581451
H   -1.09283996   3.39642398   -1.75085908
H   -2.28661255   4.04357649   -2.56452804
O   -4.42338194   -1.14068958   -3.70852475
H   -4.43667362   -0.48758527   -4.44871824
H   -3.48736315   -1.30053691   -3.52859786
O   1.44728819   4.43916910   -4.05678459
H   1.96727911   4.91770069   -3.37321830
H   0.54204684   4.36641089   -3.67105325
O   12.36454039   -5.89901390   2.63651616
H   13.31194263   -5.99019240   2.41134841
H   12.22571146   -4.96759320   2.39933619
O   9.81102151   -2.78589390   1.15282059
H   10.54030447   -3.29657391   0.80584788
H   9.86458968   -2.93319308   2.08492855
O   9.25712526   5.44113455   -1.47719335
H   9.08939545   6.09606827   -0.84851207
H   10.06010216   5.67263230   -1.88281295
O   13.90672153   2.74070112   -3.47522710
H   14.75199734   3.04869055   -3.81085097
H   6.34071992   6.41299933   2.52329129
O   1.12190119   0.08466109   2.29331576
H   0.64715585   -0.73795630   2.10367715
H   1.81402005   0.15835116   1.63235847
O   -3.76418059   -2.78295050   -0.74362174
H   -3.00295360   -2.27986821   -0.44131825
H   -3.97673169   -2.23061738   -1.48753602
O   14.30811264   -6.17883212   -0.94207682
H   13.59349634   -5.72348348   -0.56633159
H   14.80684615   -5.59436141   -1.50730049
O   -4.77347147   -3.97624136   1.76373757
H   -4.66704223   -3.48884006   0.93671090
H   -5.43235425   -4.69375904   1.54576753
O   -12.44133252   -2.75159269   -3.21007716
H   -13.12820830   -2.19955733   -2.89473079
H   5.18334615   6.27217486   -2.46391567
O   -4.82214893   3.47838651   -3.65551757
H   -4.47883835   4.41359792   -3.79526988
H   -4.10736494   2.96159765   -3.30500755
O   -1.69046383   -0.97615104   -3.04474647
H   -1.56268756   -1.01219073   -2.02696497
H   -0.93507951   -1.50701513   -3.24986612
O   -1.68413634   -5.67224785   -1.82226447
H   -2.59275013   -5.44066317   -1.76233659
H   -1.57573819   -6.28470755   -1.05248279
O   11.28369416   0.01211063   2.71323766
H   11.18627510   0.23887404   3.61899127
H   11.80105779   -0.79499135   2.57583752
O   12.64180879   -3.54564982   0.25805902
H   -11.24917699   -1.52687826   2.92718872
H   13.22943278   -4.23756908   0.58141231
O   -11.03458666   5.28526376   3.16718500
H   -11.29688474   5.41726903   2.27760908
H   -11.63879476   4.74424512   3.57928172
O   2.03875762   2.28279174   -2.09367182
H   2.15119213   1.32925567   -2.25689819
H   2.24270732   2.72949522   -2.94837831
O   -15.13139783   -6.13785063   2.81625336
H   -14.29385585   -5.59443008   2.90195383
H   -14.93087927   6.33663794   3.07875874
O   6.92790653   3.96205516   0.52093267
H   7.23924184   3.33690888   1.21419711
H   7.36640874   4.82776766   0.69464553
O   -10.65332988   -0.79527478   3.17783749
H   -12.79764771   -3.64115264   -3.37485758
H   -9.97859083   -0.55376594   2.46785136
O   -0.83806091   1.28809703   -0.64028964
H   -1.05280754   0.36683889   -0.65479844
H   0.11901014   1.23079976   -0.88738904
O   3.36466995   -2.93693939   1.83903192
H   4.26606151   -3.31319297   2.03143844
H   3.19299917   -2.03403027   1.48924927
O   -14.51027778   3.30353631   1.04632327
H   -14.86978564   3.10179577   0.16295229
H   -15.05183655   3.04290657   1.76189627
O   6.97050706   -4.07605770   -3.74069143
H   7.48669361   -4.54160510   -4.39619460
H   14.37000798   -0.97000675   0.96725143
O   10.93582780   -5.45381277   -0.08993418
H   10.84274978   -5.54803570   -1.01152059
H   11.66702843   -4.75154173   -0.01627808
O   -13.03818817   3.35199598   3.69719447
H   -12.49837652   2.53914466   3.55220649
H   -13.66937986   3.47704121   2.99011816
O   15.05761401   -3.58726130   -1.41668703
H   -14.87651535   -3.05845680   -0.80027022
H   14.13838495   -3.66001797   -1.11462928
O   0.15018584   -2.45198630   1.61734361
H   0.92202600   -2.94659426   1.37208597
H   -0.19879030   -2.06165605   0.79719554
O   6.67333528   -3.86046453   2.40867506
H   7.51033870   -3.70631437   2.82391395
H   6.33395060   -4.74417715   2.55313558
O   6.68286400   4.26462492   -2.84915408
H   6.59619389   3.65654991   -2.13411322
H   7.45715379   4.80136389   -2.58020011
O   -9.77413128   1.24804568   -0.79577783
H   -9.22887442   1.97247142   -1.10576283
H   -9.14175173   0.62767928   -0.38323961
O   6.84217674   1.21777845   -2.95101874
H   7.48520364   1.94177457   -2.97017490
H   6.42546865   1.20064994   -3.83661632
O   7.51291746   4.75246045   3.34025448
H   7.45893486   5.50114409   3.94746906
H   8.41008986   4.43565699   3.37095614
O   -7.29973765   3.10442347   -2.05147065
H   -0.28602960   2.62892120   3.27850484
H   -7.18099245   3.52606683   -1.17758377
O   9.47395937   2.53354162   1.62160681
H   9.75341110   1.58847450   1.66765014
H   10.29345112   2.97955079   1.88313717
O   1.03765348   -0.77412008   -2.04837562
H   1.42901862   -1.58347385   -2.49915011
H   0.31361036   -1.03927340   -1.41253694
O   -6.81669475   3.97350785   0.79550081
H   -7.60446317   4.07668622   1.34944989
H   -6.09936260   4.17123313   1.41070491
O   12.47116436   -2.36169749   2.55629189
H   13.37306279   -2.39806623   2.86985864
H   12.57262354   -2.74577171   1.57359029
O   -10.79725188   -1.19096006   -1.39721628
H   -9.98107065   -1.67731690   -1.56390169
H   -10.82697706   -0.47761376   -2.03962073
O   -0.34606542   -3.70101732   -3.80163253
H   0.24297625   -4.33279296   -4.31841890
H   -1.11136769   -4.19237291   -3.46678345
O   1.16490846   6.55072267   -2.37104895
H   0.16549514   6.64973229   -2.44364802
H   1.56069088   -6.03628903   -2.05087317
O   13.09370748   4.40890004   -1.45164818
H   13.43334326   5.27240910   -1.21516206
H   13.18999387   4.24652201   -2.40633598
O   -6.40548766   1.70033777   3.53213203
H   -7.10238486   1.81167079   4.17585279
H   -6.64416814   2.16837999   2.72005719
O   -1.03369729   -1.54749685   -0.55286631
H   -6.43529611   3.19072805   -2.51071396
H   -1.02827294   -2.43980790   -0.95224734
O   13.65339289   1.89850148   3.53141172
H   12.98871996   1.57913854   2.91495451
H   14.12076747   1.18294635   3.95591355
O   10.80899717   2.66500606   -2.79389085
H   11.56864055   2.97590252   -3.37000251
H   11.12110846   2.92557030   -1.92721068
O   -15.18943838   0.24315790   -1.93228826
H   -14.89242727   0.99482069   -1.36040910
H   14.61644864   -0.31963279   -1.44546916
O   -1.91402448   5.50696704   0.09627134
H   -1.46064926   5.03133855   -0.57323070
H   -1.34203342   5.41379225   0.85079394
O   12.77103235   2.20397596   0.31449240
H   13.00304921   2.93334285   -0.24975319
H   12.98748362   1.37074954   -0.09153014
O   12.07253190   0.02947126   -3.03651635
H   12.31919894   -0.32402744   -2.17634694
H   11.39241333   0.69864238   -2.93396555
O   4.20073888   4.64107669   2.40712484
H   4.14940952   4.91947880   3.33022163
H   5.14081068   4.40169709   2.34653869
O   -2.80191306   6.19271881   2.93238287
H   -2.13128907   6.19295662   2.27766973
H   -3.15539007   -6.34737466   3.02552598
O   1.79575224   -3.37893688   -1.90040937
H   1.62582914   -3.56178862   -1.02801264
H   0.96080729   -3.45236205   -2.41963380
O   5.22875752   -6.15970822   -2.42008910
H   4.91145750   -5.93072490   -1.59128814
H   -5.81476110   -0.32120426   -2.48942032
O   -6.94658164   0.84164588   0.39165944
H   -6.96543118   0.57103986   -0.57462744
H   -7.14665708   1.79825053   0.35568924
O   -6.70440918   -0.03903370   -2.21595888
H   6.24735809   -4.63581754   -3.45646279
H   -7.25899784   0.00128093   -2.98277246
O   1.16709410   3.90964564   0.10051019
H   0.83548559   3.14422391   -0.36876777
H   1.85140399   4.17219143   -0.47653596
O   13.72871620   -0.99393033   0.25352077
H   -4.26886346   5.03680830   2.98018984
H   13.15370289   -1.75974782   0.35549690
O   -2.76265605   1.71074478   -2.76141452
H   -1.88751613   1.72403402   -2.25773983
H   -2.77371797   0.81696070   -3.09335938
O   11.15644891   -3.95320535   -2.68309469
H   11.68990183   -3.33247628   -2.20154472
H   10.55547521   -3.41251171   -3.20702932
O   -1.94033005   -4.76104633   1.64257338
H   -2.81924625   -4.34815907   1.75307009
H   -1.27136207   -4.12570705   1.58292615
O   10.05601068   5.73400135   3.26175020
H   10.60944392   5.05513140   3.68765852
H   10.69677815   6.45390326   2.96767732
O   3.15649264   -0.33220131   -0.49142244
H   2.40132996   -0.57659539   -1.11576919
H   3.36566307   0.56079658   -0.78766626
O   -0.84370364   1.80552393   3.24645511
H   -0.24368224   1.21606117   2.73650975
H   13.92994220   1.83145998   -3.33741734
O   -10.12652747   2.06550691   2.88159208
H   -10.30596030   1.49806372   3.68121472
H   -9.87082514   1.53893778   2.10208283
O   -5.79242301   -6.56421217   0.67370478
H   -6.62886446   6.46753486   0.40279421
H   -5.17936282   6.06045014   0.56189390
O   -8.49297540   4.42634996   3.17635145
H   -9.41816488   4.15438803   3.27700571
H   -8.50553671   5.35725446   3.37870595
O   5.58789332   -6.35690356   2.65116658
H   4.94414432   6.69490634   2.02189613
O   -5.14206109   4.58302511   2.97995286
H   -4.94946852   3.71271028   3.42649637
