850

C   -10.76634000   -5.88392000   -7.40642000
C   -8.22783000   -5.89684000   -7.35228000
C   -9.48323000   -5.14875000   -7.86258000
H   -8.25084000   -5.91788000   -6.23725000
H   -8.17547000   -2.93534000   -8.90734000
C   -8.20263000   -2.95695000   -7.79237000
C   -9.48779000   -3.69199000   -7.34072000
H   -9.45848000   -5.12929000   -8.97762000
C   -10.74013000   -2.94353000   -7.85703000
C   -12.02726000   -3.67558000   -7.40466000
C   -12.02235000   -5.13871000   -7.92068000
H   -11.99500000   -5.12292000   -9.03573000
H   -10.79141000   -5.90154000   -6.29145000
H   -9.51528000   -3.71149000   -6.22579000
H   -10.71153000   -2.92555000   -8.97194000
H   -12.05441000   -3.69146000   -6.28963000
C   -10.74220000   -1.48642000   -7.33577000
C   -8.20596000   -1.50118000   -7.26697000
C   -9.45485000   -0.75174000   -7.78432000
C   -11.98896000   -0.73597000   -7.85704000
H   -10.77396000   -1.50461000   -6.22093000
H   -8.23565000   -1.52265000   -6.15210000
H   -11.95495000   -0.71930000   -8.97214000
H   -9.42352000   -0.73217000   -8.89938000
C   -13.28448000   -1.46325000   -7.41100000
C   -13.28329000   -2.92595000   -7.92096000
C   -13.30990000   -5.87498000   -7.46661000
C   -14.51244000   -0.69199000   -7.93287000
C   -14.55243000   -3.67228000   -7.46841000
C   -14.54736000   -5.11561000   -7.98108000
H   -14.52594000   -0.69089000   -9.04503000
H   -13.32615000   -1.47554000   -6.29749000
H   -13.26323000   -2.91353000   -9.03508000
H   -14.62825000   -3.67372000   -6.35883000
H   -14.56843000   -5.11374000   -9.09303000
H   -13.34467000   -5.88707000   -6.35291000
C   -14.50474000   0.75316000   -7.42231000
C   -13.22292000   1.47345000   -7.85385000
C   -11.98480000   0.72499000   -7.33827000
C   -10.70081000   1.44967000   -7.77736000
C   -9.45734000   0.70671000   -7.26216000
C   -8.17364000   1.43549000   -7.69936000
H   -14.58620000   0.76068000   -6.31411000
H   -12.01888000   0.72072000   -6.22532000
H   -9.49077000   0.69984000   -6.14929000
H   -13.19933000   1.54420000   -8.96376000
H   -10.66662000   1.51846000   -8.88818000
H   -8.14043000   1.50816000   -8.80990000
C   -8.22281000   5.90509000   -7.87685000
C   -9.50182000   5.16912000   -7.41721000
C   -10.75866000   5.91672000   -7.92695000
H   -8.20223000   5.92596000   -8.99198000
C   -9.49501000   3.71016000   -7.93801000
H   -9.52290000   5.15048000   -6.30197000
C   -10.76925000   2.98079000   -7.48241000
C   -12.02271000   3.71830000   -7.98406000
C   -12.03697000   5.17969000   -7.46671000
H   -9.47604000   3.71608000   -9.05126000
H   -10.73666000   5.93444000   -9.04206000
H   -12.05758000   5.16361000   -6.35127000
H   -12.00226000   3.72190000   -9.09738000
H   -10.78936000   2.91308000   -6.37120000
C   -8.24057000   2.96885000   -7.44091000
H   -8.25825000   2.89802000   -6.32995000
C   -13.30138000   5.92012000   -7.97597000
C   -13.29239000   2.98324000   -7.52981000
C   -14.56154000   5.16204000   -7.51514000
C   -14.54375000   3.71650000   -8.02435000
H   -13.28816000   5.93212000   -9.09022000
H   -14.62987000   5.16190000   -6.40503000
H   -14.57050000   3.70894000   -9.13523000
H   -13.32422000   2.91323000   -6.42005000
C   -3.16734000   -5.88392000   -7.40642000
C   -0.62883000   -5.89684000   -7.35228000
C   -1.88423000   -5.14875000   -7.86258000
H   -0.65184000   -5.91788000   -6.23725000
H   -0.57647000   -2.93534000   -8.90734000
C   -0.60363000   -2.95695000   -7.79237000
C   -1.88879000   -3.69199000   -7.34072000
H   -1.85948000   -5.12929000   -8.97762000
C   -3.14113000   -2.94353000   -7.85703000
C   -4.42826000   -3.67558000   -7.40466000
C   -4.42335000   -5.13871000   -7.92068000
H   -4.39600000   -5.12292000   -9.03573000
H   -3.19241000   -5.90154000   -6.29145000
H   -1.91628000   -3.71149000   -6.22579000
H   -3.11253000   -2.92555000   -8.97194000
H   -4.45541000   -3.69146000   -6.28963000
C   -3.14320000   -1.48642000   -7.33577000
C   -0.60696000   -1.50118000   -7.26697000
C   -1.85585000   -0.75174000   -7.78432000
C   -4.38996000   -0.73597000   -7.85704000
H   -3.17496000   -1.50461000   -6.22093000
H   -0.63665000   -1.52265000   -6.15210000
H   -4.35595000   -0.71930000   -8.97214000
H   -1.82452000   -0.73217000   -8.89938000
C   -5.68548000   -1.46325000   -7.41100000
C   -5.68429000   -2.92595000   -7.92096000
C   -5.71090000   -5.87498000   -7.46661000
C   -6.91344000   -0.69199000   -7.93287000
C   -6.95343000   -3.67228000   -7.46841000
C   -6.94836000   -5.11561000   -7.98108000
H   -6.92694000   -0.69089000   -9.04503000
H   -5.72715000   -1.47554000   -6.29749000
H   -5.66423000   -2.91353000   -9.03508000
H   -7.02925000   -3.67372000   -6.35883000
H   -6.96943000   -5.11374000   -9.09303000
H   -5.74567000   -5.88707000   -6.35291000
C   -6.90574000   0.75316000   -7.42231000
C   -5.62392000   1.47345000   -7.85385000
C   -4.38580000   0.72499000   -7.33827000
C   -3.10181000   1.44967000   -7.77736000
C   -1.85834000   0.70671000   -7.26216000
C   -0.57464000   1.43549000   -7.69936000
H   -6.98720000   0.76068000   -6.31411000
H   -4.41988000   0.72072000   -6.22532000
H   -1.89177000   0.69984000   -6.14929000
H   -5.60033000   1.54420000   -8.96376000
H   -3.06762000   1.51846000   -8.88818000
H   -0.54143000   1.50816000   -8.80990000
C   -0.62381000   5.90509000   -7.87685000
C   -1.90282000   5.16912000   -7.41721000
C   -3.15966000   5.91672000   -7.92695000
H   -0.60323000   5.92596000   -8.99198000
C   -1.89601000   3.71016000   -7.93801000
H   -1.92390000   5.15048000   -6.30197000
C   -3.17025000   2.98079000   -7.48241000
C   -4.42371000   3.71830000   -7.98406000
C   -4.43797000   5.17969000   -7.46671000
H   -1.87704000   3.71608000   -9.05126000
H   -3.13766000   5.93444000   -9.04206000
H   -4.45858000   5.16361000   -6.35127000
H   -4.40326000   3.72190000   -9.09738000
H   -3.19036000   2.91308000   -6.37120000
C   -0.64157000   2.96885000   -7.44091000
H   -0.65925000   2.89802000   -6.32995000
C   -5.70238000   5.92012000   -7.97597000
C   -5.69339000   2.98324000   -7.52981000
C   -6.96254000   5.16204000   -7.51514000
C   -6.94475000   3.71650000   -8.02435000
H   -5.68916000   5.93212000   -9.09022000
H   -7.03087000   5.16190000   -6.40503000
H   -6.97150000   3.70894000   -9.13523000
H   -5.72522000   2.91323000   -6.42005000
C   4.43166000   -5.88392000   -7.40642000
C   6.97017000   -5.89684000   -7.35228000
C   5.71477000   -5.14875000   -7.86258000
H   6.94716000   -5.91788000   -6.23725000
H   7.02253000   -2.93534000   -8.90734000
C   6.99537000   -2.95695000   -7.79237000
C   5.71021000   -3.69199000   -7.34072000
H   5.73952000   -5.12929000   -8.97762000
C   4.45787000   -2.94353000   -7.85703000
C   3.17074000   -3.67558000   -7.40466000
C   3.17565000   -5.13871000   -7.92068000
H   3.20300000   -5.12292000   -9.03573000
H   4.40659000   -5.90154000   -6.29145000
H   5.68272000   -3.71149000   -6.22579000
H   4.48647000   -2.92555000   -8.97194000
H   3.14359000   -3.69146000   -6.28963000
C   4.45580000   -1.48642000   -7.33577000
C   6.99204000   -1.50118000   -7.26697000
C   5.74315000   -0.75174000   -7.78432000
C   3.20904000   -0.73597000   -7.85704000
H   4.42404000   -1.50461000   -6.22093000
H   6.96235000   -1.52265000   -6.15210000
H   3.24305000   -0.71930000   -8.97214000
H   5.77448000   -0.73217000   -8.89938000
C   1.91352000   -1.46325000   -7.41100000
C   1.91471000   -2.92595000   -7.92096000
C   1.88810000   -5.87498000   -7.46661000
C   0.68556000   -0.69199000   -7.93287000
C   0.64557000   -3.67228000   -7.46841000
C   0.65064000   -5.11561000   -7.98108000
H   0.67206000   -0.69089000   -9.04503000
H   1.87185000   -1.47554000   -6.29749000
H   1.93477000   -2.91353000   -9.03508000
H   0.56975000   -3.67372000   -6.35883000
H   0.62957000   -5.11374000   -9.09303000
H   1.85333000   -5.88707000   -6.35291000
C   0.69326000   0.75316000   -7.42231000
C   1.97508000   1.47345000   -7.85385000
C   3.21320000   0.72499000   -7.33827000
C   4.49719000   1.44967000   -7.77736000
C   5.74066000   0.70671000   -7.26216000
C   7.02436000   1.43549000   -7.69936000
H   0.61180000   0.76068000   -6.31411000
H   3.17912000   0.72072000   -6.22532000
H   5.70723000   0.69984000   -6.14929000
H   1.99867000   1.54420000   -8.96376000
H   4.53138000   1.51846000   -8.88818000
H   7.05757000   1.50816000   -8.80990000
C   6.97519000   5.90509000   -7.87685000
C   5.69618000   5.16912000   -7.41721000
C   4.43934000   5.91672000   -7.92695000
H   6.99577000   5.92596000   -8.99198000
C   5.70299000   3.71016000   -7.93801000
H   5.67510000   5.15048000   -6.30197000
C   4.42875000   2.98079000   -7.48241000
C   3.17529000   3.71830000   -7.98406000
C   3.16103000   5.17969000   -7.46671000
H   5.72196000   3.71608000   -9.05126000
H   4.46134000   5.93444000   -9.04206000
H   3.14042000   5.16361000   -6.35127000
H   3.19574000   3.72190000   -9.09738000
H   4.40864000   2.91308000   -6.37120000
C   6.95743000   2.96885000   -7.44091000
H   6.93975000   2.89802000   -6.32995000
C   1.89662000   5.92012000   -7.97597000
C   1.90561000   2.98324000   -7.52981000
C   0.63646000   5.16204000   -7.51514000
C   0.65425000   3.71650000   -8.02435000
H   1.90984000   5.93212000   -9.09022000
H   0.56813000   5.16190000   -6.40503000
H   0.62750000   3.70894000   -9.13523000
H   1.87378000   2.91323000   -6.42005000
C   12.03066000   -5.88392000   -7.40642000
C   14.56917000   -5.89684000   -7.35228000
C   13.31377000   -5.14875000   -7.86258000
H   14.54616000   -5.91788000   -6.23725000
H   14.62153000   -2.93534000   -8.90734000
C   14.59437000   -2.95695000   -7.79237000
C   13.30921000   -3.69199000   -7.34072000
H   13.33852000   -5.12929000   -8.97762000
C   12.05687000   -2.94353000   -7.85703000
C   10.76974000   -3.67558000   -7.40466000
C   10.77465000   -5.13871000   -7.92068000
H   10.80200000   -5.12292000   -9.03573000
H   12.00559000   -5.90154000   -6.29145000
H   13.28172000   -3.71149000   -6.22579000
H   12.08547000   -2.92555000   -8.97194000
H   10.74259000   -3.69146000   -6.28963000
C   12.05480000   -1.48642000   -7.33577000
C   14.59104000   -1.50118000   -7.26697000
C   13.34215000   -0.75174000   -7.78432000
C   10.80804000   -0.73597000   -7.85704000
H   12.02304000   -1.50461000   -6.22093000
H   14.56135000   -1.52265000   -6.15210000
H   10.84205000   -0.71930000   -8.97214000
H   13.37348000   -0.73217000   -8.89938000
C   9.51252000   -1.46325000   -7.41100000
C   9.51371000   -2.92595000   -7.92096000
C   9.48710000   -5.87498000   -7.46661000
C   8.28456000   -0.69199000   -7.93287000
C   8.24457000   -3.67228000   -7.46841000
C   8.24964000   -5.11561000   -7.98108000
H   8.27106000   -0.69089000   -9.04503000
H   9.47085000   -1.47554000   -6.29749000
H   9.53377000   -2.91353000   -9.03508000
H   8.16875000   -3.67372000   -6.35883000
H   8.22857000   -5.11374000   -9.09303000
H   9.45233000   -5.88707000   -6.35291000
C   8.29226000   0.75316000   -7.42231000
C   9.57408000   1.47345000   -7.85385000
C   10.81220000   0.72499000   -7.33827000
C   12.09619000   1.44967000   -7.77736000
C   13.33966000   0.70671000   -7.26216000
C   14.62336000   1.43549000   -7.69936000
H   8.21080000   0.76068000   -6.31411000
H   10.77812000   0.72072000   -6.22532000
H   13.30623000   0.69984000   -6.14929000
H   9.59767000   1.54420000   -8.96376000
H   12.13038000   1.51846000   -8.88818000
H   14.65657000   1.50816000   -8.80990000
C   14.57419000   5.90509000   -7.87685000
C   13.29518000   5.16912000   -7.41721000
C   12.03834000   5.91672000   -7.92695000
H   14.59477000   5.92596000   -8.99198000
C   13.30199000   3.71016000   -7.93801000
H   13.27410000   5.15048000   -6.30197000
C   12.02775000   2.98079000   -7.48241000
C   10.77429000   3.71830000   -7.98406000
C   10.76003000   5.17969000   -7.46671000
H   13.32096000   3.71608000   -9.05126000
H   12.06034000   5.93444000   -9.04206000
H   10.73942000   5.16361000   -6.35127000
H   10.79474000   3.72190000   -9.09738000
H   12.00764000   2.91308000   -6.37120000
C   14.55643000   2.96885000   -7.44091000
H   14.53875000   2.89802000   -6.32995000
C   9.49562000   5.92012000   -7.97597000
C   9.50461000   2.98324000   -7.52981000
C   8.23546000   5.16204000   -7.51514000
C   8.25325000   3.71650000   -8.02435000
H   9.50884000   5.93212000   -9.09022000
H   8.16713000   5.16190000   -6.40503000
H   8.22650000   3.70894000   -9.13523000
H   9.47278000   2.91323000   -6.42005000
C   -10.76634000   -5.88392000   7.59358000
C   -8.22783000   -5.89684000   7.64772000
C   -9.48323000   -5.14875000   7.13742000
H   -8.25084000   -5.91788000   8.76275000
H   -8.17547000   -2.93534000   6.09266000
C   -8.20263000   -2.95695000   7.20763000
C   -9.48779000   -3.69199000   7.65928000
H   -9.45848000   -5.12929000   6.02238000
C   -10.74013000   -2.94353000   7.14297000
C   -12.02726000   -3.67558000   7.59534000
C   -12.02235000   -5.13871000   7.07932000
H   -11.99500000   -5.12292000   5.96427000
H   -10.79141000   -5.90154000   8.70855000
H   -9.51528000   -3.71149000   8.77421000
H   -10.71153000   -2.92555000   6.02806000
H   -12.05441000   -3.69146000   8.71037000
C   -10.74220000   -1.48642000   7.66423000
C   -8.20596000   -1.50118000   7.73303000
C   -9.45485000   -0.75174000   7.21568000
C   -11.98896000   -0.73597000   7.14296000
H   -10.77396000   -1.50461000   8.77907000
H   -8.23565000   -1.52265000   8.84790000
H   -11.95495000   -0.71930000   6.02786000
H   -9.42352000   -0.73217000   6.10062000
C   -13.28448000   -1.46325000   7.58900000
C   -13.28329000   -2.92595000   7.07904000
C   -13.30990000   -5.87498000   7.53339000
C   -14.51244000   -0.69199000   7.06713000
C   -14.55243000   -3.67228000   7.53159000
C   -14.54736000   -5.11561000   7.01892000
H   -14.52594000   -0.69089000   5.95497000
H   -13.32615000   -1.47554000   8.70251000
H   -13.26323000   -2.91353000   5.96492000
H   -14.62825000   -3.67372000   8.64117000
H   -14.56843000   -5.11374000   5.90697000
H   -13.34467000   -5.88707000   8.64709000
C   -14.50474000   0.75316000   7.57769000
C   -13.22292000   1.47345000   7.14615000
C   -11.98480000   0.72499000   7.66173000
C   -10.70081000   1.44967000   7.22264000
C   -9.45734000   0.70671000   7.73784000
C   -8.17364000   1.43549000   7.30064000
H   -14.58620000   0.76068000   8.68589000
H   -12.01888000   0.72072000   8.77468000
H   -9.49077000   0.69984000   8.85071000
H   -13.19933000   1.54420000   6.03624000
H   -10.66662000   1.51846000   6.11182000
H   -8.14043000   1.50816000   6.19010000
C   -8.22281000   5.90509000   7.12315000
C   -9.50182000   5.16912000   7.58279000
C   -10.75866000   5.91672000   7.07305000
H   -8.20223000   5.92596000   6.00802000
C   -9.49501000   3.71016000   7.06199000
H   -9.52290000   5.15048000   8.69803000
C   -10.76925000   2.98079000   7.51759000
C   -12.02271000   3.71830000   7.01594000
C   -12.03697000   5.17969000   7.53329000
H   -9.47604000   3.71608000   5.94874000
H   -10.73666000   5.93444000   5.95794000
H   -12.05758000   5.16361000   8.64873000
H   -12.00226000   3.72190000   5.90262000
H   -10.78936000   2.91308000   8.62880000
C   -8.24057000   2.96885000   7.55909000
H   -8.25825000   2.89802000   8.67005000
C   -13.30138000   5.92012000   7.02403000
C   -13.29239000   2.98324000   7.47019000
C   -14.56154000   5.16204000   7.48486000
C   -14.54375000   3.71650000   6.97565000
H   -13.28816000   5.93212000   5.90978000
H   -14.62987000   5.16190000   8.59497000
H   -14.57050000   3.70894000   5.86477000
H   -13.32422000   2.91323000   8.57995000
C   -3.16734000   -5.88392000   7.59358000
C   -0.62883000   -5.89684000   7.64772000
C   -1.88423000   -5.14875000   7.13742000
H   -0.65184000   -5.91788000   8.76275000
H   -0.57647000   -2.93534000   6.09266000
C   -0.60363000   -2.95695000   7.20763000
C   -1.88879000   -3.69199000   7.65928000
H   -1.85948000   -5.12929000   6.02238000
C   -3.14113000   -2.94353000   7.14297000
C   -4.42826000   -3.67558000   7.59534000
C   -4.42335000   -5.13871000   7.07932000
H   -4.39600000   -5.12292000   5.96427000
H   -3.19241000   -5.90154000   8.70855000
H   -1.91628000   -3.71149000   8.77421000
H   -3.11253000   -2.92555000   6.02806000
H   -4.45541000   -3.69146000   8.71037000
C   -3.14320000   -1.48642000   7.66423000
C   -0.60696000   -1.50118000   7.73303000
C   -1.85585000   -0.75174000   7.21568000
C   -4.38996000   -0.73597000   7.14296000
H   -3.17496000   -1.50461000   8.77907000
H   -0.63665000   -1.52265000   8.84790000
H   -1.82452000   -0.73217000   6.10062000
C   -5.68548000   -1.46325000   7.58900000
C   -5.68429000   -2.92595000   7.07904000
C   -5.71090000   -5.87498000   7.53339000
C   -6.91344000   -0.69199000   7.06713000
C   -6.95343000   -3.67228000   7.53159000
C   -6.94836000   -5.11561000   7.01892000
H   -6.92694000   -0.69089000   5.95497000
H   -5.72715000   -1.47554000   8.70251000
H   -5.66423000   -2.91353000   5.96492000
H   -7.02925000   -3.67372000   8.64117000
H   -6.96943000   -5.11374000   5.90697000
H   -5.74567000   -5.88707000   8.64709000
C   -6.90574000   0.75316000   7.57769000
C   -5.62392000   1.47345000   7.14615000
C   -4.38580000   0.72499000   7.66173000
C   -3.10181000   1.44967000   7.22264000
C   -1.85834000   0.70671000   7.73784000
C   -0.57464000   1.43549000   7.30064000
H   -6.98720000   0.76068000   8.68589000
H   -4.41988000   0.72072000   8.77468000
H   -1.89177000   0.69984000   8.85071000
H   -5.60033000   1.54420000   6.03624000
H   -3.06762000   1.51846000   6.11182000
H   -0.54143000   1.50816000   6.19010000
C   -0.62381000   5.90509000   7.12315000
C   -1.90282000   5.16912000   7.58279000
C   -3.15966000   5.91672000   7.07305000
H   -0.60323000   5.92596000   6.00802000
C   -1.89601000   3.71016000   7.06199000
H   -1.92390000   5.15048000   8.69803000
C   -3.17025000   2.98079000   7.51759000
C   -4.42371000   3.71830000   7.01594000
C   -4.43797000   5.17969000   7.53329000
H   -1.87704000   3.71608000   5.94874000
H   -3.13766000   5.93444000   5.95794000
H   -4.45858000   5.16361000   8.64873000
H   -4.40326000   3.72190000   5.90262000
H   -3.19036000   2.91308000   8.62880000
C   -0.64157000   2.96885000   7.55909000
H   -0.65925000   2.89802000   8.67005000
C   -5.70238000   5.92012000   7.02403000
C   -5.69339000   2.98324000   7.47019000
C   -6.96254000   5.16204000   7.48486000
C   -6.94475000   3.71650000   6.97565000
H   -5.68916000   5.93212000   5.90978000
H   -7.03087000   5.16190000   8.59497000
H   -6.97150000   3.70894000   5.86477000
H   -5.72522000   2.91323000   8.57995000
C   4.43166000   -5.88392000   7.59358000
C   6.97017000   -5.89684000   7.64772000
C   5.71477000   -5.14875000   7.13742000
H   6.94716000   -5.91788000   8.76275000
H   7.02253000   -2.93534000   6.09266000
C   6.99537000   -2.95695000   7.20763000
C   5.71021000   -3.69199000   7.65928000
H   5.73952000   -5.12929000   6.02238000
C   4.45787000   -2.94353000   7.14297000
C   3.17074000   -3.67558000   7.59534000
C   3.17565000   -5.13871000   7.07932000
H   3.20300000   -5.12292000   5.96427000
H   4.40659000   -5.90154000   8.70855000
H   5.68272000   -3.71149000   8.77421000
H   4.48647000   -2.92555000   6.02806000
H   3.14359000   -3.69146000   8.71037000
C   4.45580000   -1.48642000   7.66423000
C   6.99204000   -1.50118000   7.73303000
C   5.74315000   -0.75174000   7.21568000
C   3.20904000   -0.73597000   7.14296000
H   4.42404000   -1.50461000   8.77907000
H   6.96235000   -1.52265000   8.84790000
H   3.24305000   -0.71930000   6.02786000
C   1.91352000   -1.46325000   7.58900000
C   1.91471000   -2.92595000   7.07904000
C   1.88810000   -5.87498000   7.53339000
C   0.68556000   -0.69199000   7.06713000
C   0.64557000   -3.67228000   7.53159000
C   0.65064000   -5.11561000   7.01892000
H   0.67206000   -0.69089000   5.95497000
H   1.87185000   -1.47554000   8.70251000
H   1.93477000   -2.91353000   5.96492000
H   0.56975000   -3.67372000   8.64117000
H   0.62957000   -5.11374000   5.90697000
H   1.85333000   -5.88707000   8.64709000
C   0.69326000   0.75316000   7.57769000
C   1.97508000   1.47345000   7.14615000
C   3.21320000   0.72499000   7.66173000
C   4.49719000   1.44967000   7.22264000
C   5.74066000   0.70671000   7.73784000
C   7.02436000   1.43549000   7.30064000
H   0.61180000   0.76068000   8.68589000
H   3.17912000   0.72072000   8.77468000
H   5.70723000   0.69984000   8.85071000
H   1.99867000   1.54420000   6.03624000
H   4.53138000   1.51846000   6.11182000
H   7.05757000   1.50816000   6.19010000
C   6.97519000   5.90509000   7.12315000
C   5.69618000   5.16912000   7.58279000
C   4.43934000   5.91672000   7.07305000
H   6.99577000   5.92596000   6.00802000
C   5.70299000   3.71016000   7.06199000
H   5.67510000   5.15048000   8.69803000
C   4.42875000   2.98079000   7.51759000
C   3.17529000   3.71830000   7.01594000
C   3.16103000   5.17969000   7.53329000
H   5.72196000   3.71608000   5.94874000
H   4.46134000   5.93444000   5.95794000
H   3.14042000   5.16361000   8.64873000
H   3.19574000   3.72190000   5.90262000
H   4.40864000   2.91308000   8.62880000
C   6.95743000   2.96885000   7.55909000
H   6.93975000   2.89802000   8.67005000
C   1.89662000   5.92012000   7.02403000
C   1.90561000   2.98324000   7.47019000
C   0.63646000   5.16204000   7.48486000
C   0.65425000   3.71650000   6.97565000
H   1.90984000   5.93212000   5.90978000
H   0.56813000   5.16190000   8.59497000
H   0.62750000   3.70894000   5.86477000
H   1.87378000   2.91323000   8.57995000
C   12.03066000   -5.88392000   7.59358000
C   14.56917000   -5.89684000   7.64772000
C   13.31377000   -5.14875000   7.13742000
H   14.54616000   -5.91788000   8.76275000
H   14.62153000   -2.93534000   6.09266000
C   14.59437000   -2.95695000   7.20763000
C   13.30921000   -3.69199000   7.65928000
H   13.33852000   -5.12929000   6.02238000
C   12.05687000   -2.94353000   7.14297000
C   10.76974000   -3.67558000   7.59534000
C   10.77465000   -5.13871000   7.07932000
H   10.80200000   -5.12292000   5.96427000
H   12.00559000   -5.90154000   8.70855000
H   13.28172000   -3.71149000   8.77421000
H   12.08547000   -2.92555000   6.02806000
H   10.74259000   -3.69146000   8.71037000
C   12.05480000   -1.48642000   7.66423000
C   14.59104000   -1.50118000   7.73303000
C   13.34215000   -0.75174000   7.21568000
C   10.80804000   -0.73597000   7.14296000
H   12.02304000   -1.50461000   8.77907000
H   14.56135000   -1.52265000   8.84790000
H   10.84205000   -0.71930000   6.02786000
H   13.37348000   -0.73217000   6.10062000
C   9.51252000   -1.46325000   7.58900000
C   9.51371000   -2.92595000   7.07904000
C   9.48710000   -5.87498000   7.53339000
C   8.28456000   -0.69199000   7.06713000
C   8.24457000   -3.67228000   7.53159000
C   8.24964000   -5.11561000   7.01892000
H   8.27106000   -0.69089000   5.95497000
H   9.47085000   -1.47554000   8.70251000
H   9.53377000   -2.91353000   5.96492000
H   8.16875000   -3.67372000   8.64117000
H   8.22857000   -5.11374000   5.90697000
H   9.45233000   -5.88707000   8.64709000
C   8.29226000   0.75316000   7.57769000
C   9.57408000   1.47345000   7.14615000
C   10.81220000   0.72499000   7.66173000
C   12.09619000   1.44967000   7.22264000
C   13.33966000   0.70671000   7.73784000
C   14.62336000   1.43549000   7.30064000
H   8.21080000   0.76068000   8.68589000
H   10.77812000   0.72072000   8.77468000
H   13.30623000   0.69984000   8.85071000
H   9.59767000   1.54420000   6.03624000
H   12.13038000   1.51846000   6.11182000
H   14.65657000   1.50816000   6.19010000
C   14.57419000   5.90509000   7.12315000
C   13.29518000   5.16912000   7.58279000
C   12.03834000   5.91672000   7.07305000
H   14.59477000   5.92596000   6.00802000
C   13.30199000   3.71016000   7.06199000
H   13.27410000   5.15048000   8.69803000
C   12.02775000   2.98079000   7.51759000
C   10.77429000   3.71830000   7.01594000
C   10.76003000   5.17969000   7.53329000
H   13.32096000   3.71608000   5.94874000
H   12.06034000   5.93444000   5.95794000
H   10.73942000   5.16361000   8.64873000
H   10.79474000   3.72190000   5.90262000
H   12.00764000   2.91308000   8.62880000
C   14.55643000   2.96885000   7.55909000
H   14.53875000   2.89802000   8.67005000
C   9.49562000   5.92012000   7.02403000
C   9.50461000   2.98324000   7.47019000
C   8.23546000   5.16204000   7.48486000
C   8.25325000   3.71650000   6.97565000
H   9.50884000   5.93212000   5.90978000
H   8.16713000   5.16190000   8.59497000
H   8.22650000   3.70894000   5.86477000
H   9.47278000   2.91323000   8.57995000
N   -3.91805211   -0.32203049   2.93998251
C   -4.43505049   -0.77953533   5.46483584
H   -5.24208820   -0.12139867   5.14277738
H   -4.75053331   -1.78327230   5.15018492
C   -3.31173588   -0.51690166   4.44126671
H   -2.61066886   -1.32198844   4.21006018
H   -2.77966121   0.39302657   4.53875637
C   -4.61474220   0.98749531   2.70747320
H   -5.70724301   0.79263278   2.69617798
H   -4.39401454   1.62827600   3.56676315
H   -4.26804986   1.52499713   1.80638168
C   -4.81974070   -1.51092555   2.67234511
H   -4.42981259   -2.45719887   3.09128981
H   -5.82290121   -1.39917816   3.11376218
H   -4.84264696   -1.72779092   1.60757295
C   -2.71514522   -0.44912583   2.09134107
H   -2.07912185   0.45660695   2.13619292
H   -2.11878509   -1.30609109   2.39926474
H   -3.00551662   -0.46520196   1.03621306
N   4.67961219   -4.50388106   -0.35784083
C   5.87106256   -0.80262812   5.58954682
H   6.40667310   -1.72614435   5.23695527
H   6.55946418   0.01996263   5.16060520
C   4.76070365   -0.78524342   4.38595176
H   4.12402155   -1.69243692   4.43601547
H   4.17430868   0.18792424   4.48271253
C   5.49057502   -0.81210382   3.01918692
H   6.57547462   -0.50389731   3.08721303
H   4.93360580   -0.22808222   2.37838394
C   5.53452046   -2.25455067   2.40463220
H   6.36293097   -2.71801407   2.85950112
H   4.73213059   -2.97000855   2.80644515
C   5.51250021   -2.26910832   0.85576535
H   6.06612172   -1.59210705   0.26309657
H   4.48412823   -1.95547248   0.51900915
C   5.88749622   -3.70195378   0.30127593
H   6.28703271   -4.35816877   1.09327057
H   6.63757355   -3.57330956   -0.48720770
C   3.53459596   -4.89565775   0.66940406
H   2.82562842   -5.35563279   -0.04025879
H   3.12133000   -4.02700528   1.08767351
H   3.92936036   -5.65324301   1.33267761
C   5.28772655   -5.91746487   -0.76196323
H   4.43228342   -6.52691287   -1.24099830
H   5.65943755   -6.44391926   0.11675177
H   6.12259562   -5.66575742   -1.37751454
C   4.06758472   -3.82148166   -1.53512466
H   3.49777943   -4.56221607   -2.10151909
H   4.94069717   -3.54017986   -2.19096730
H   3.46303526   -3.06298040   -1.18414635
O   9.37772212   1.53779513   3.25599756
H   0.47620256   4.66047796   2.55956552
H   8.59715077   2.07847959   3.07302371
O   1.11084684   -6.64015269   0.83307888
H   0.27054406   -6.54153390   0.32532338
H   0.91544220   -6.66034497   1.82772593
O   1.86649667   -1.83162222   -0.85445950
H   1.82315815   -1.24671527   -1.66079940
H   1.01331313   -1.75245626   -0.41235346
O   13.62273215   -2.22822332   -0.68071445
H   13.34417852   -3.10560307   -0.93898496
H   13.47017448   -1.63571331   -1.43353571
O   -5.03013274   2.79632168   -0.61291274
H   -5.26882176   3.41334173   0.05034484
H   -4.09635405   2.76828458   -0.53505446
O   -0.67370537   1.97633850   -1.38048559
H   -1.04391279   2.87826202   -1.57543399
H   0.25740834   2.18634891   -1.20451881
O   -14.01075446   -2.25798119   -3.68318283
H   -13.26434965   -2.52627704   -4.20776716
H   -14.19010812   -3.02059283   -3.09119141
O   13.39308183   -3.32509644   -3.58922951
H   13.80171335   -2.58405915   -4.12771419
H   14.08913465   -3.99812218   -3.55262674
O   6.36589047   2.14752428   -0.88294688
H   6.28929866   3.05232674   -0.39450161
H   7.27967614   2.09714911   -1.17883965
O   -8.90187572   -5.83647761   -0.49998706
H   -9.13218881   -5.71819789   0.38952743
H   -9.70159376   -6.19013220   -0.94368101
O   -15.00086896   0.42438839   -2.75688402
H   14.43240953   0.38751929   -2.86140862
H   -14.71073825   -0.38517420   -3.13403391
O   -2.28259325   4.40157673   -1.26375100
H   -2.90761202   5.06316729   -0.71421365
H   2.08684318   0.10439391   1.78689279
O   -5.86876544   3.21171951   3.74804307
H   -5.19587342   3.77249223   4.09612335
H   -6.64422492   3.79085571   3.68094613
O   -1.75384961   5.21467768   1.75100671
H   -1.28956238   5.63958103   1.01728950
H   -2.64667379   5.43429900   1.42820939
O   1.47084619   0.67481238   -3.28964951
H   1.50653003   0.48244228   -4.26098009
H   2.29396399   0.41462513   -2.85100262
O   1.95848198   3.93283033   -0.55908847
H   2.14753847   4.53858733   0.12367040
H   1.28362781   3.35113421   -0.07677851
O   12.86646077   3.80419330   2.51442079
H   13.69953442   3.39658883   2.38023361
H   12.13880433   3.16004544   2.55132028
O   -0.71167449   -5.97232239   3.17459539
H   -1.56922921   -6.12824237   2.71990668
H   -0.88040926   -6.40681447   4.00168368
O   -5.51212006   2.61959940   -4.01629237
H   -6.41649932   2.89478200   -4.21911730
H   -5.27041357   2.95579678   -3.11153840
O   -1.49202807   -5.88781329   -0.46420548
H   -1.83425300   -6.05167774   -1.32711346
H   -2.27119451   -5.44921736   0.05011937
O   11.05416857   4.89400206   -1.74230831
H   10.68738446   4.35435287   -2.39431772
H   10.46287604   4.99440056   -0.94725719
O   -14.86855070   -4.85593922   -2.35685970
H   -2.60651457   -4.23950109   2.39035466
H   14.97377055   -5.64416483   -2.45021469
O   10.04315158   2.08030076   -1.18843493
H   9.76781573   2.69519749   -0.51363748
H   10.01158978   2.53753787   -1.98120496
O   2.84014589   -5.69601132   3.81067872
H   2.21388031   -6.44325847   3.91261397
H   -6.20202178   -4.83407457   -1.65998587
O   -7.68543839   -2.98281860   -3.92768124
H   -3.62981636   -6.49432626   -1.63032208
H   -7.19383468   -2.22467402   -4.23774034
O   -1.39490386   0.85606520   -3.96147091
H   -0.48696060   0.65838590   -3.88462392
H   -1.64579650   1.22321903   -3.11596389
O   -8.55277425   -5.80618949   2.51591576
H   -9.48443567   -5.53942353   2.69752150
H   -8.65327381   -6.64935536   2.03335446
O   0.35992112   2.14903846   1.11921865
H   0.51801748   2.31307252   2.04975379
H   -0.62349354   2.22129433   0.94501273
O   -15.17400925   4.48277832   0.17282061
H   14.47634348   3.83452674   0.28571667
H   14.78786460   5.39397236   0.12256193
O   -11.42118009   -6.17469524   2.23960524
H   -11.44799992   -6.40888109   1.33375865
H   -12.21781171   -6.53636625   2.71271233
O   -12.58149989   -1.47553553   1.62871083
H   -13.23218580   -1.53166537   0.91408481
H   -0.46676214   -6.12978532   -3.18098780
O   3.54070107   3.87874113   3.06817597
H   4.23946671   4.47689568   2.69310567
H   4.12463034   3.39197748   3.64277730
O   2.10827485   -4.77649343   -3.95178498
H   2.08143726   -5.73274020   -3.70516425
H   2.22950069   -4.88197868   -4.88849883
O   8.10856298   -6.19370523   0.49349720
H   8.16899413   -5.83321374   1.41124514
H   7.71204377   6.28210367   0.67379138
O   13.11799647   2.52085179   -1.17033502
H   12.30110809   1.98662212   -1.12016056
H   13.70123481   1.74099196   -1.30926021
O   11.05757508   -2.23836400   3.83203652
H   10.31770409   -1.62821283   3.94908304
H   11.63778211   -1.81169624   3.17512456
O   9.61281620   -1.65803656   -0.86999571
H   10.09432231   -2.38990926   -0.46850460
H   9.83520363   -0.76611715   -0.44270007
O   -6.52663168   0.03639496   -3.26680141
H   -5.62570730   -0.40280703   -3.22823564
H   -6.50164570   0.89640531   -3.69372015
O   1.86611517   4.36197585   -3.45316499
H   1.31011379   5.14739451   -3.41667992
H   2.25413842   4.19708428   -2.57234916
O   -5.31805459   -5.01341853   -1.34626158
H   -12.25852939   -5.18236631   -0.32954248
H   -5.27434467   -5.76400825   -0.71458667
O   5.60232741   6.20932417   2.17461290
H   5.82303220   5.62305563   1.43542786
H   6.55850372   6.42307531   2.41218296
O   -14.55932223   -4.63967504   0.40017172
H   -14.31502279   -4.07206060   1.14854201
H   -15.18976065   -5.27290097   0.78471116
O   13.88004491   6.46982763   -3.82011799
H   13.95522623   6.34247950   -4.81520799
H   14.68324730   6.04269891   -3.46055140
O   -2.17448059   -3.51539581   2.97456040
H   -1.26330737   -3.70628402   2.80391082
H   -8.02198761   -3.08525179   2.65705762
O   -11.34210402   -4.79800680   -0.29189127
H   -14.88131586   -4.60550963   -1.39082534
H   -11.17056903   -4.19660040   -0.97058122
O   6.70939195   -2.28265237   -3.13721574
H   6.64136916   -1.54008176   -2.56410586
H   7.20627103   -1.99674452   -3.97807036
O   -12.29865941   -0.22580261   -0.94373925
H   -11.59938547   0.43917772   -1.06853286
H   -12.57225177   -0.27846870   -1.86562811
O   9.22371388   4.05597573   0.79978369
H   9.12760919   4.07793259   1.74194131
H   8.29843510   4.17140532   0.47046204
O   -8.11040444   -2.29395836   3.19864056
H   -2.01317365   4.91177935   -2.03990495
H   -8.92772976   -2.49946772   3.67655232
O   13.44998849   6.60910063   -1.18251728
H   12.99916378   5.82102854   -1.52082154
H   13.31930222   -6.10972927   -1.90037574
O   -3.77441686   -0.63396717   -3.77022584
H   -3.45951192   -1.54939897   -3.82367215
H   -3.14275613   -0.07698446   -4.25807584
O   11.82209451   0.21426709   -2.29897493
H   10.97281835   -0.20575996   -2.59274222
H   11.75740347   1.05581591   -2.74207362
O   13.43846873   -5.63754889   1.68130256
H   12.89712804   -5.76832419   2.47952704
H   12.85924143   -5.98963301   0.98415781
O   -4.93080228   -0.59413892   -0.33875437
H   -4.81248048   -1.05454351   -1.20884413
H   -4.89671673   0.32482245   -0.58135963
O   -3.72682779   6.15790532   0.24419189
H   -4.73096521   6.06726239   0.41189054
H   -3.51484193   -6.01246684   0.88630490
O   -9.31918338   -0.17876583   -2.96964615
H   -8.44998286   -0.22970494   -3.39248195
H   -9.23096396   -0.81632638   -2.22093805
O   -11.35366566   -1.83556130   -3.91520794
H   -10.91760055   -0.97788411   -4.04999667
H   -10.68945060   -2.47943980   -3.84724874
O   1.11122239   5.13776043   3.11787632
H   1.78872308   4.47579485   3.33240284
H   3.68145080   -6.06926678   3.95433689
O   7.80351677   4.40756505   -2.16270602
H   7.41260897   4.46059090   -1.26214938
H   7.71034577   5.28412727   -2.46803357
O   3.66044411   0.82362267   -0.73598618
H   3.43128460   1.71021899   -0.58178624
H   4.56060262   0.81974777   -1.18144374
O   -3.37745614   -6.26672383   -2.55829133
H   -3.47618362   -5.34551153   -2.56206999
H   13.96929499   -1.04797203   2.09197179
O   6.99271514   3.58668918   2.84466580
H   6.79920122   3.99826058   1.93387488
H   6.79261735   4.33275925   3.48913114
O   13.05047445   -1.11215635   1.79064048
H   -11.80639638   -1.04113762   1.35408778
H   13.12365460   -1.50078729   0.88211908
O   -3.50351140   -5.01520667   1.17763694
H   -4.15455708   -4.63345983   0.57043408
H   -8.25125950   -3.40226684   -4.63923203
O   -0.83906722   6.43048256   -3.45545355
H   10.11285009   -4.89259977   3.66291644
H   -1.73657453   6.47312345   -3.08650769
O   -13.69962303   5.54394358   2.58718810
H   -14.33964666   5.54181540   3.24428948
H   -14.06598809   5.07563519   1.86557831
O   -2.44189533   2.55246762   0.86799120
H   -2.52556489   3.38884192   1.44811884
H   -2.18514571   3.01969563   -0.00128828
O   6.48647991   4.75325263   0.33096006
H   5.60406128   4.73853347   -0.12646831
H   9.51497312   1.20747394   2.39066002
O   10.93895679   -5.55296439   -3.39914384
H   10.84288437   -6.44218625   -3.10646252
H   11.83223975   -5.50719744   -3.66890150
O   -9.26421906   -3.16510343   -1.60364048
H   -9.28183309   -3.98926543   -1.03152218
H   -8.53007592   -3.17842251   -2.22468692
O   7.46092705   -4.93129471   -2.88756159
H   7.62467091   -4.03252468   -3.17115597
H   8.13197197   -5.05977188   -2.18403536
O   -14.60741194   4.56420820   -2.61674736
H   15.16076248   4.41120995   -1.91227670
H   -14.57834533   3.81988334   -3.25178823
O   9.40373911   -1.79547714   -3.63316477
H   9.93358462   -2.56405832   -3.97345436
H   9.59346365   -1.76054319   -2.68672627
O   9.81068151   2.75352837   -3.93561774
H   9.04569460   3.16301482   -3.63087607
H   9.48060259   2.22176768   -4.68006193
O   2.47175419   0.84613184   2.27215068
H   2.96796005   1.37223341   1.59844503
O   9.58148657   -4.91626378   2.81270174
H   9.71281726   -4.04559276   2.44414847
