850

C   -10.76634000   -5.88392000   -7.40642000
C   -8.22783000   -5.89684000   -7.35228000
C   -9.48323000   -5.14875000   -7.86258000
H   -8.25084000   -5.91788000   -6.23725000
H   -8.17547000   -2.93534000   -8.90734000
C   -8.20263000   -2.95695000   -7.79237000
C   -9.48779000   -3.69199000   -7.34072000
H   -9.45848000   -5.12929000   -8.97762000
C   -10.74013000   -2.94353000   -7.85703000
C   -12.02726000   -3.67558000   -7.40466000
C   -12.02235000   -5.13871000   -7.92068000
H   -11.99500000   -5.12292000   -9.03573000
H   -10.79141000   -5.90154000   -6.29145000
H   -9.51528000   -3.71149000   -6.22579000
H   -10.71153000   -2.92555000   -8.97194000
H   -12.05441000   -3.69146000   -6.28963000
C   -10.74220000   -1.48642000   -7.33577000
C   -8.20596000   -1.50118000   -7.26697000
C   -9.45485000   -0.75174000   -7.78432000
C   -11.98896000   -0.73597000   -7.85704000
H   -10.77396000   -1.50461000   -6.22093000
H   -8.23565000   -1.52265000   -6.15210000
H   -11.95495000   -0.71930000   -8.97214000
H   -9.42352000   -0.73217000   -8.89938000
C   -13.28448000   -1.46325000   -7.41100000
C   -13.28329000   -2.92595000   -7.92096000
C   -13.30990000   -5.87498000   -7.46661000
C   -14.51244000   -0.69199000   -7.93287000
C   -14.55243000   -3.67228000   -7.46841000
C   -14.54736000   -5.11561000   -7.98108000
H   -14.52594000   -0.69089000   -9.04503000
H   -13.32615000   -1.47554000   -6.29749000
H   -13.26323000   -2.91353000   -9.03508000
H   -14.62825000   -3.67372000   -6.35883000
H   -14.56843000   -5.11374000   -9.09303000
H   -13.34467000   -5.88707000   -6.35291000
C   -14.50474000   0.75316000   -7.42231000
C   -13.22292000   1.47345000   -7.85385000
C   -11.98480000   0.72499000   -7.33827000
C   -10.70081000   1.44967000   -7.77736000
C   -9.45734000   0.70671000   -7.26216000
C   -8.17364000   1.43549000   -7.69936000
H   -14.58620000   0.76068000   -6.31411000
H   -12.01888000   0.72072000   -6.22532000
H   -9.49077000   0.69984000   -6.14929000
H   -13.19933000   1.54420000   -8.96376000
H   -10.66662000   1.51846000   -8.88818000
H   -8.14043000   1.50816000   -8.80990000
C   -8.22281000   5.90509000   -7.87685000
C   -9.50182000   5.16912000   -7.41721000
C   -10.75866000   5.91672000   -7.92695000
H   -8.20223000   5.92596000   -8.99198000
C   -9.49501000   3.71016000   -7.93801000
H   -9.52290000   5.15048000   -6.30197000
C   -10.76925000   2.98079000   -7.48241000
C   -12.02271000   3.71830000   -7.98406000
C   -12.03697000   5.17969000   -7.46671000
H   -9.47604000   3.71608000   -9.05126000
H   -10.73666000   5.93444000   -9.04206000
H   -12.05758000   5.16361000   -6.35127000
H   -12.00226000   3.72190000   -9.09738000
H   -10.78936000   2.91308000   -6.37120000
C   -8.24057000   2.96885000   -7.44091000
H   -8.25825000   2.89802000   -6.32995000
C   -13.30138000   5.92012000   -7.97597000
C   -13.29239000   2.98324000   -7.52981000
C   -14.56154000   5.16204000   -7.51514000
C   -14.54375000   3.71650000   -8.02435000
H   -13.28816000   5.93212000   -9.09022000
H   -14.62987000   5.16190000   -6.40503000
H   -14.57050000   3.70894000   -9.13523000
H   -13.32422000   2.91323000   -6.42005000
C   -3.16734000   -5.88392000   -7.40642000
C   -0.62883000   -5.89684000   -7.35228000
C   -1.88423000   -5.14875000   -7.86258000
H   -0.65184000   -5.91788000   -6.23725000
H   -0.57647000   -2.93534000   -8.90734000
C   -0.60363000   -2.95695000   -7.79237000
C   -1.88879000   -3.69199000   -7.34072000
H   -1.85948000   -5.12929000   -8.97762000
C   -3.14113000   -2.94353000   -7.85703000
C   -4.42826000   -3.67558000   -7.40466000
C   -4.42335000   -5.13871000   -7.92068000
H   -4.39600000   -5.12292000   -9.03573000
H   -3.19241000   -5.90154000   -6.29145000
H   -1.91628000   -3.71149000   -6.22579000
H   -3.11253000   -2.92555000   -8.97194000
H   -4.45541000   -3.69146000   -6.28963000
C   -3.14320000   -1.48642000   -7.33577000
C   -0.60696000   -1.50118000   -7.26697000
C   -1.85585000   -0.75174000   -7.78432000
C   -4.38996000   -0.73597000   -7.85704000
H   -3.17496000   -1.50461000   -6.22093000
H   -0.63665000   -1.52265000   -6.15210000
H   -4.35595000   -0.71930000   -8.97214000
H   -1.82452000   -0.73217000   -8.89938000
C   -5.68548000   -1.46325000   -7.41100000
C   -5.68429000   -2.92595000   -7.92096000
C   -5.71090000   -5.87498000   -7.46661000
C   -6.91344000   -0.69199000   -7.93287000
C   -6.95343000   -3.67228000   -7.46841000
C   -6.94836000   -5.11561000   -7.98108000
H   -6.92694000   -0.69089000   -9.04503000
H   -5.72715000   -1.47554000   -6.29749000
H   -5.66423000   -2.91353000   -9.03508000
H   -7.02925000   -3.67372000   -6.35883000
H   -6.96943000   -5.11374000   -9.09303000
H   -5.74567000   -5.88707000   -6.35291000
C   -6.90574000   0.75316000   -7.42231000
C   -5.62392000   1.47345000   -7.85385000
C   -4.38580000   0.72499000   -7.33827000
C   -3.10181000   1.44967000   -7.77736000
C   -1.85834000   0.70671000   -7.26216000
C   -0.57464000   1.43549000   -7.69936000
H   -6.98720000   0.76068000   -6.31411000
H   -4.41988000   0.72072000   -6.22532000
H   -1.89177000   0.69984000   -6.14929000
H   -5.60033000   1.54420000   -8.96376000
H   -3.06762000   1.51846000   -8.88818000
H   -0.54143000   1.50816000   -8.80990000
C   -0.62381000   5.90509000   -7.87685000
C   -1.90282000   5.16912000   -7.41721000
C   -3.15966000   5.91672000   -7.92695000
H   -0.60323000   5.92596000   -8.99198000
C   -1.89601000   3.71016000   -7.93801000
H   -1.92390000   5.15048000   -6.30197000
C   -3.17025000   2.98079000   -7.48241000
C   -4.42371000   3.71830000   -7.98406000
C   -4.43797000   5.17969000   -7.46671000
H   -1.87704000   3.71608000   -9.05126000
H   -3.13766000   5.93444000   -9.04206000
H   -4.45858000   5.16361000   -6.35127000
H   -4.40326000   3.72190000   -9.09738000
H   -3.19036000   2.91308000   -6.37120000
C   -0.64157000   2.96885000   -7.44091000
H   -0.65925000   2.89802000   -6.32995000
C   -5.70238000   5.92012000   -7.97597000
C   -5.69339000   2.98324000   -7.52981000
C   -6.96254000   5.16204000   -7.51514000
C   -6.94475000   3.71650000   -8.02435000
H   -5.68916000   5.93212000   -9.09022000
H   -7.03087000   5.16190000   -6.40503000
H   -6.97150000   3.70894000   -9.13523000
H   -5.72522000   2.91323000   -6.42005000
C   4.43166000   -5.88392000   -7.40642000
C   6.97017000   -5.89684000   -7.35228000
C   5.71477000   -5.14875000   -7.86258000
H   6.94716000   -5.91788000   -6.23725000
H   7.02253000   -2.93534000   -8.90734000
C   6.99537000   -2.95695000   -7.79237000
C   5.71021000   -3.69199000   -7.34072000
H   5.73952000   -5.12929000   -8.97762000
C   4.45787000   -2.94353000   -7.85703000
C   3.17074000   -3.67558000   -7.40466000
C   3.17565000   -5.13871000   -7.92068000
H   3.20300000   -5.12292000   -9.03573000
H   4.40659000   -5.90154000   -6.29145000
H   5.68272000   -3.71149000   -6.22579000
H   4.48647000   -2.92555000   -8.97194000
H   3.14359000   -3.69146000   -6.28963000
C   4.45580000   -1.48642000   -7.33577000
C   6.99204000   -1.50118000   -7.26697000
C   5.74315000   -0.75174000   -7.78432000
C   3.20904000   -0.73597000   -7.85704000
H   4.42404000   -1.50461000   -6.22093000
H   6.96235000   -1.52265000   -6.15210000
H   3.24305000   -0.71930000   -8.97214000
H   5.77448000   -0.73217000   -8.89938000
C   1.91352000   -1.46325000   -7.41100000
C   1.91471000   -2.92595000   -7.92096000
C   1.88810000   -5.87498000   -7.46661000
C   0.68556000   -0.69199000   -7.93287000
C   0.64557000   -3.67228000   -7.46841000
C   0.65064000   -5.11561000   -7.98108000
H   0.67206000   -0.69089000   -9.04503000
H   1.87185000   -1.47554000   -6.29749000
H   1.93477000   -2.91353000   -9.03508000
H   0.56975000   -3.67372000   -6.35883000
H   0.62957000   -5.11374000   -9.09303000
H   1.85333000   -5.88707000   -6.35291000
C   0.69326000   0.75316000   -7.42231000
C   1.97508000   1.47345000   -7.85385000
C   3.21320000   0.72499000   -7.33827000
C   4.49719000   1.44967000   -7.77736000
C   5.74066000   0.70671000   -7.26216000
C   7.02436000   1.43549000   -7.69936000
H   0.61180000   0.76068000   -6.31411000
H   3.17912000   0.72072000   -6.22532000
H   5.70723000   0.69984000   -6.14929000
H   1.99867000   1.54420000   -8.96376000
H   4.53138000   1.51846000   -8.88818000
H   7.05757000   1.50816000   -8.80990000
C   6.97519000   5.90509000   -7.87685000
C   5.69618000   5.16912000   -7.41721000
C   4.43934000   5.91672000   -7.92695000
H   6.99577000   5.92596000   -8.99198000
C   5.70299000   3.71016000   -7.93801000
H   5.67510000   5.15048000   -6.30197000
C   4.42875000   2.98079000   -7.48241000
C   3.17529000   3.71830000   -7.98406000
C   3.16103000   5.17969000   -7.46671000
H   5.72196000   3.71608000   -9.05126000
H   4.46134000   5.93444000   -9.04206000
H   3.14042000   5.16361000   -6.35127000
H   3.19574000   3.72190000   -9.09738000
H   4.40864000   2.91308000   -6.37120000
C   6.95743000   2.96885000   -7.44091000
H   6.93975000   2.89802000   -6.32995000
C   1.89662000   5.92012000   -7.97597000
C   1.90561000   2.98324000   -7.52981000
C   0.63646000   5.16204000   -7.51514000
C   0.65425000   3.71650000   -8.02435000
H   1.90984000   5.93212000   -9.09022000
H   0.56813000   5.16190000   -6.40503000
H   0.62750000   3.70894000   -9.13523000
H   1.87378000   2.91323000   -6.42005000
C   12.03066000   -5.88392000   -7.40642000
C   14.56917000   -5.89684000   -7.35228000
C   13.31377000   -5.14875000   -7.86258000
H   14.54616000   -5.91788000   -6.23725000
H   14.62153000   -2.93534000   -8.90734000
C   14.59437000   -2.95695000   -7.79237000
C   13.30921000   -3.69199000   -7.34072000
H   13.33852000   -5.12929000   -8.97762000
C   12.05687000   -2.94353000   -7.85703000
C   10.76974000   -3.67558000   -7.40466000
C   10.77465000   -5.13871000   -7.92068000
H   10.80200000   -5.12292000   -9.03573000
H   12.00559000   -5.90154000   -6.29145000
H   13.28172000   -3.71149000   -6.22579000
H   12.08547000   -2.92555000   -8.97194000
H   10.74259000   -3.69146000   -6.28963000
C   12.05480000   -1.48642000   -7.33577000
C   14.59104000   -1.50118000   -7.26697000
C   13.34215000   -0.75174000   -7.78432000
C   10.80804000   -0.73597000   -7.85704000
H   12.02304000   -1.50461000   -6.22093000
H   14.56135000   -1.52265000   -6.15210000
H   10.84205000   -0.71930000   -8.97214000
H   13.37348000   -0.73217000   -8.89938000
C   9.51252000   -1.46325000   -7.41100000
C   9.51371000   -2.92595000   -7.92096000
C   9.48710000   -5.87498000   -7.46661000
C   8.28456000   -0.69199000   -7.93287000
C   8.24457000   -3.67228000   -7.46841000
C   8.24964000   -5.11561000   -7.98108000
H   8.27106000   -0.69089000   -9.04503000
H   9.47085000   -1.47554000   -6.29749000
H   9.53377000   -2.91353000   -9.03508000
H   8.16875000   -3.67372000   -6.35883000
H   8.22857000   -5.11374000   -9.09303000
H   9.45233000   -5.88707000   -6.35291000
C   8.29226000   0.75316000   -7.42231000
C   9.57408000   1.47345000   -7.85385000
C   10.81220000   0.72499000   -7.33827000
C   12.09619000   1.44967000   -7.77736000
C   13.33966000   0.70671000   -7.26216000
C   14.62336000   1.43549000   -7.69936000
H   8.21080000   0.76068000   -6.31411000
H   10.77812000   0.72072000   -6.22532000
H   13.30623000   0.69984000   -6.14929000
H   9.59767000   1.54420000   -8.96376000
H   12.13038000   1.51846000   -8.88818000
H   14.65657000   1.50816000   -8.80990000
C   14.57419000   5.90509000   -7.87685000
C   13.29518000   5.16912000   -7.41721000
C   12.03834000   5.91672000   -7.92695000
H   14.59477000   5.92596000   -8.99198000
C   13.30199000   3.71016000   -7.93801000
H   13.27410000   5.15048000   -6.30197000
C   12.02775000   2.98079000   -7.48241000
C   10.77429000   3.71830000   -7.98406000
C   10.76003000   5.17969000   -7.46671000
H   13.32096000   3.71608000   -9.05126000
H   12.06034000   5.93444000   -9.04206000
H   10.73942000   5.16361000   -6.35127000
H   10.79474000   3.72190000   -9.09738000
H   12.00764000   2.91308000   -6.37120000
C   14.55643000   2.96885000   -7.44091000
H   14.53875000   2.89802000   -6.32995000
C   9.49562000   5.92012000   -7.97597000
C   9.50461000   2.98324000   -7.52981000
C   8.23546000   5.16204000   -7.51514000
C   8.25325000   3.71650000   -8.02435000
H   9.50884000   5.93212000   -9.09022000
H   8.16713000   5.16190000   -6.40503000
H   8.22650000   3.70894000   -9.13523000
H   9.47278000   2.91323000   -6.42005000
C   -10.76634000   -5.88392000   7.59358000
C   -8.22783000   -5.89684000   7.64772000
C   -9.48323000   -5.14875000   7.13742000
H   -8.25084000   -5.91788000   8.76275000
H   -8.17547000   -2.93534000   6.09266000
C   -8.20263000   -2.95695000   7.20763000
C   -9.48779000   -3.69199000   7.65928000
H   -9.45848000   -5.12929000   6.02238000
C   -10.74013000   -2.94353000   7.14297000
C   -12.02726000   -3.67558000   7.59534000
C   -12.02235000   -5.13871000   7.07932000
H   -11.99500000   -5.12292000   5.96427000
H   -10.79141000   -5.90154000   8.70855000
H   -9.51528000   -3.71149000   8.77421000
H   -10.71153000   -2.92555000   6.02806000
H   -12.05441000   -3.69146000   8.71037000
C   -10.74220000   -1.48642000   7.66423000
C   -8.20596000   -1.50118000   7.73303000
C   -9.45485000   -0.75174000   7.21568000
C   -11.98896000   -0.73597000   7.14296000
H   -10.77396000   -1.50461000   8.77907000
H   -8.23565000   -1.52265000   8.84790000
H   -11.95495000   -0.71930000   6.02786000
H   -9.42352000   -0.73217000   6.10062000
C   -13.28448000   -1.46325000   7.58900000
C   -13.28329000   -2.92595000   7.07904000
C   -13.30990000   -5.87498000   7.53339000
C   -14.51244000   -0.69199000   7.06713000
C   -14.55243000   -3.67228000   7.53159000
C   -14.54736000   -5.11561000   7.01892000
H   -14.52594000   -0.69089000   5.95497000
H   -13.32615000   -1.47554000   8.70251000
H   -13.26323000   -2.91353000   5.96492000
H   -14.62825000   -3.67372000   8.64117000
H   -14.56843000   -5.11374000   5.90697000
H   -13.34467000   -5.88707000   8.64709000
C   -14.50474000   0.75316000   7.57769000
C   -13.22292000   1.47345000   7.14615000
C   -11.98480000   0.72499000   7.66173000
C   -10.70081000   1.44967000   7.22264000
C   -9.45734000   0.70671000   7.73784000
C   -8.17364000   1.43549000   7.30064000
H   -14.58620000   0.76068000   8.68589000
H   -12.01888000   0.72072000   8.77468000
H   -9.49077000   0.69984000   8.85071000
H   -13.19933000   1.54420000   6.03624000
H   -10.66662000   1.51846000   6.11182000
H   -8.14043000   1.50816000   6.19010000
C   -8.22281000   5.90509000   7.12315000
C   -9.50182000   5.16912000   7.58279000
C   -10.75866000   5.91672000   7.07305000
H   -8.20223000   5.92596000   6.00802000
C   -9.49501000   3.71016000   7.06199000
H   -9.52290000   5.15048000   8.69803000
C   -10.76925000   2.98079000   7.51759000
C   -12.02271000   3.71830000   7.01594000
C   -12.03697000   5.17969000   7.53329000
H   -9.47604000   3.71608000   5.94874000
H   -10.73666000   5.93444000   5.95794000
H   -12.05758000   5.16361000   8.64873000
H   -12.00226000   3.72190000   5.90262000
H   -10.78936000   2.91308000   8.62880000
C   -8.24057000   2.96885000   7.55909000
H   -8.25825000   2.89802000   8.67005000
C   -13.30138000   5.92012000   7.02403000
C   -13.29239000   2.98324000   7.47019000
C   -14.56154000   5.16204000   7.48486000
C   -14.54375000   3.71650000   6.97565000
H   -13.28816000   5.93212000   5.90978000
H   -14.62987000   5.16190000   8.59497000
H   -14.57050000   3.70894000   5.86477000
H   -13.32422000   2.91323000   8.57995000
C   -3.16734000   -5.88392000   7.59358000
C   -0.62883000   -5.89684000   7.64772000
C   -1.88423000   -5.14875000   7.13742000
H   -0.65184000   -5.91788000   8.76275000
H   -0.57647000   -2.93534000   6.09266000
C   -0.60363000   -2.95695000   7.20763000
C   -1.88879000   -3.69199000   7.65928000
H   -1.85948000   -5.12929000   6.02238000
C   -3.14113000   -2.94353000   7.14297000
C   -4.42826000   -3.67558000   7.59534000
C   -4.42335000   -5.13871000   7.07932000
H   -4.39600000   -5.12292000   5.96427000
H   -3.19241000   -5.90154000   8.70855000
H   -1.91628000   -3.71149000   8.77421000
H   -3.11253000   -2.92555000   6.02806000
H   -4.45541000   -3.69146000   8.71037000
C   -3.14320000   -1.48642000   7.66423000
C   -0.60696000   -1.50118000   7.73303000
C   -1.85585000   -0.75174000   7.21568000
C   -4.38996000   -0.73597000   7.14296000
H   -3.17496000   -1.50461000   8.77907000
H   -0.63665000   -1.52265000   8.84790000
H   -1.82452000   -0.73217000   6.10062000
C   -5.68548000   -1.46325000   7.58900000
C   -5.68429000   -2.92595000   7.07904000
C   -5.71090000   -5.87498000   7.53339000
C   -6.91344000   -0.69199000   7.06713000
C   -6.95343000   -3.67228000   7.53159000
C   -6.94836000   -5.11561000   7.01892000
H   -6.92694000   -0.69089000   5.95497000
H   -5.72715000   -1.47554000   8.70251000
H   -5.66423000   -2.91353000   5.96492000
H   -7.02925000   -3.67372000   8.64117000
H   -6.96943000   -5.11374000   5.90697000
H   -5.74567000   -5.88707000   8.64709000
C   -6.90574000   0.75316000   7.57769000
C   -5.62392000   1.47345000   7.14615000
C   -4.38580000   0.72499000   7.66173000
C   -3.10181000   1.44967000   7.22264000
C   -1.85834000   0.70671000   7.73784000
C   -0.57464000   1.43549000   7.30064000
H   -6.98720000   0.76068000   8.68589000
H   -4.41988000   0.72072000   8.77468000
H   -1.89177000   0.69984000   8.85071000
H   -5.60033000   1.54420000   6.03624000
H   -3.06762000   1.51846000   6.11182000
H   -0.54143000   1.50816000   6.19010000
C   -0.62381000   5.90509000   7.12315000
C   -1.90282000   5.16912000   7.58279000
C   -3.15966000   5.91672000   7.07305000
H   -0.60323000   5.92596000   6.00802000
C   -1.89601000   3.71016000   7.06199000
H   -1.92390000   5.15048000   8.69803000
C   -3.17025000   2.98079000   7.51759000
C   -4.42371000   3.71830000   7.01594000
C   -4.43797000   5.17969000   7.53329000
H   -1.87704000   3.71608000   5.94874000
H   -3.13766000   5.93444000   5.95794000
H   -4.45858000   5.16361000   8.64873000
H   -4.40326000   3.72190000   5.90262000
H   -3.19036000   2.91308000   8.62880000
C   -0.64157000   2.96885000   7.55909000
H   -0.65925000   2.89802000   8.67005000
C   -5.70238000   5.92012000   7.02403000
C   -5.69339000   2.98324000   7.47019000
C   -6.96254000   5.16204000   7.48486000
C   -6.94475000   3.71650000   6.97565000
H   -5.68916000   5.93212000   5.90978000
H   -7.03087000   5.16190000   8.59497000
H   -6.97150000   3.70894000   5.86477000
H   -5.72522000   2.91323000   8.57995000
C   4.43166000   -5.88392000   7.59358000
C   6.97017000   -5.89684000   7.64772000
C   5.71477000   -5.14875000   7.13742000
H   6.94716000   -5.91788000   8.76275000
H   7.02253000   -2.93534000   6.09266000
C   6.99537000   -2.95695000   7.20763000
C   5.71021000   -3.69199000   7.65928000
H   5.73952000   -5.12929000   6.02238000
C   4.45787000   -2.94353000   7.14297000
C   3.17074000   -3.67558000   7.59534000
C   3.17565000   -5.13871000   7.07932000
H   3.20300000   -5.12292000   5.96427000
H   4.40659000   -5.90154000   8.70855000
H   5.68272000   -3.71149000   8.77421000
H   4.48647000   -2.92555000   6.02806000
H   3.14359000   -3.69146000   8.71037000
C   4.45580000   -1.48642000   7.66423000
C   6.99204000   -1.50118000   7.73303000
C   5.74315000   -0.75174000   7.21568000
C   3.20904000   -0.73597000   7.14296000
H   4.42404000   -1.50461000   8.77907000
H   6.96235000   -1.52265000   8.84790000
H   3.24305000   -0.71930000   6.02786000
C   1.91352000   -1.46325000   7.58900000
C   1.91471000   -2.92595000   7.07904000
C   1.88810000   -5.87498000   7.53339000
C   0.68556000   -0.69199000   7.06713000
C   0.64557000   -3.67228000   7.53159000
C   0.65064000   -5.11561000   7.01892000
H   0.67206000   -0.69089000   5.95497000
H   1.87185000   -1.47554000   8.70251000
H   1.93477000   -2.91353000   5.96492000
H   0.56975000   -3.67372000   8.64117000
H   0.62957000   -5.11374000   5.90697000
H   1.85333000   -5.88707000   8.64709000
C   0.69326000   0.75316000   7.57769000
C   1.97508000   1.47345000   7.14615000
C   3.21320000   0.72499000   7.66173000
C   4.49719000   1.44967000   7.22264000
C   5.74066000   0.70671000   7.73784000
C   7.02436000   1.43549000   7.30064000
H   0.61180000   0.76068000   8.68589000
H   3.17912000   0.72072000   8.77468000
H   5.70723000   0.69984000   8.85071000
H   1.99867000   1.54420000   6.03624000
H   4.53138000   1.51846000   6.11182000
H   7.05757000   1.50816000   6.19010000
C   6.97519000   5.90509000   7.12315000
C   5.69618000   5.16912000   7.58279000
C   4.43934000   5.91672000   7.07305000
H   6.99577000   5.92596000   6.00802000
C   5.70299000   3.71016000   7.06199000
H   5.67510000   5.15048000   8.69803000
C   4.42875000   2.98079000   7.51759000
C   3.17529000   3.71830000   7.01594000
C   3.16103000   5.17969000   7.53329000
H   5.72196000   3.71608000   5.94874000
H   4.46134000   5.93444000   5.95794000
H   3.14042000   5.16361000   8.64873000
H   3.19574000   3.72190000   5.90262000
H   4.40864000   2.91308000   8.62880000
C   6.95743000   2.96885000   7.55909000
H   6.93975000   2.89802000   8.67005000
C   1.89662000   5.92012000   7.02403000
C   1.90561000   2.98324000   7.47019000
C   0.63646000   5.16204000   7.48486000
C   0.65425000   3.71650000   6.97565000
H   1.90984000   5.93212000   5.90978000
H   0.56813000   5.16190000   8.59497000
H   0.62750000   3.70894000   5.86477000
H   1.87378000   2.91323000   8.57995000
C   12.03066000   -5.88392000   7.59358000
C   14.56917000   -5.89684000   7.64772000
C   13.31377000   -5.14875000   7.13742000
H   14.54616000   -5.91788000   8.76275000
H   14.62153000   -2.93534000   6.09266000
C   14.59437000   -2.95695000   7.20763000
C   13.30921000   -3.69199000   7.65928000
H   13.33852000   -5.12929000   6.02238000
C   12.05687000   -2.94353000   7.14297000
C   10.76974000   -3.67558000   7.59534000
C   10.77465000   -5.13871000   7.07932000
H   10.80200000   -5.12292000   5.96427000
H   12.00559000   -5.90154000   8.70855000
H   13.28172000   -3.71149000   8.77421000
H   12.08547000   -2.92555000   6.02806000
H   10.74259000   -3.69146000   8.71037000
C   12.05480000   -1.48642000   7.66423000
C   14.59104000   -1.50118000   7.73303000
C   13.34215000   -0.75174000   7.21568000
C   10.80804000   -0.73597000   7.14296000
H   12.02304000   -1.50461000   8.77907000
H   14.56135000   -1.52265000   8.84790000
H   10.84205000   -0.71930000   6.02786000
H   13.37348000   -0.73217000   6.10062000
C   9.51252000   -1.46325000   7.58900000
C   9.51371000   -2.92595000   7.07904000
C   9.48710000   -5.87498000   7.53339000
C   8.28456000   -0.69199000   7.06713000
C   8.24457000   -3.67228000   7.53159000
C   8.24964000   -5.11561000   7.01892000
H   8.27106000   -0.69089000   5.95497000
H   9.47085000   -1.47554000   8.70251000
H   9.53377000   -2.91353000   5.96492000
H   8.16875000   -3.67372000   8.64117000
H   8.22857000   -5.11374000   5.90697000
H   9.45233000   -5.88707000   8.64709000
C   8.29226000   0.75316000   7.57769000
C   9.57408000   1.47345000   7.14615000
C   10.81220000   0.72499000   7.66173000
C   12.09619000   1.44967000   7.22264000
C   13.33966000   0.70671000   7.73784000
C   14.62336000   1.43549000   7.30064000
H   8.21080000   0.76068000   8.68589000
H   10.77812000   0.72072000   8.77468000
H   13.30623000   0.69984000   8.85071000
H   9.59767000   1.54420000   6.03624000
H   12.13038000   1.51846000   6.11182000
H   14.65657000   1.50816000   6.19010000
C   14.57419000   5.90509000   7.12315000
C   13.29518000   5.16912000   7.58279000
C   12.03834000   5.91672000   7.07305000
H   14.59477000   5.92596000   6.00802000
C   13.30199000   3.71016000   7.06199000
H   13.27410000   5.15048000   8.69803000
C   12.02775000   2.98079000   7.51759000
C   10.77429000   3.71830000   7.01594000
C   10.76003000   5.17969000   7.53329000
H   13.32096000   3.71608000   5.94874000
H   12.06034000   5.93444000   5.95794000
H   10.73942000   5.16361000   8.64873000
H   10.79474000   3.72190000   5.90262000
H   12.00764000   2.91308000   8.62880000
C   14.55643000   2.96885000   7.55909000
H   14.53875000   2.89802000   8.67005000
C   9.49562000   5.92012000   7.02403000
C   9.50461000   2.98324000   7.47019000
C   8.23546000   5.16204000   7.48486000
C   8.25325000   3.71650000   6.97565000
H   9.50884000   5.93212000   5.90978000
H   8.16713000   5.16190000   8.59497000
H   8.22650000   3.70894000   5.86477000
H   9.47278000   2.91323000   8.57995000
N   -4.90870410   -0.45518245   3.00632531
C   -4.26825575   -0.78889666   5.45430638
H   -4.46235930   -1.87664908   5.21330720
H   -3.18748539   -0.80428946   5.20523879
C   -5.01732862   0.09750888   4.50153413
H   -4.52203992   1.13269578   4.51420709
H   -6.04474449   0.18129186   4.69193750
C   -5.59726678   -1.74827595   2.95536269
H   -5.22328487   -2.38832537   3.66975161
H   -6.69268651   -1.56962513   3.13711835
H   -5.39092993   -2.22104727   1.92559008
C   -3.46547004   -0.59361894   2.52711445
H   -2.94377733   -1.35291099   3.09941036
H   -3.56337477   -1.06393201   1.50500848
H   -2.95465494   0.40904769   2.56106610
C   -5.67205230   0.45357735   2.09440325
H   -5.59520644   0.07725094   1.02907600
H   -6.62652056   0.40239726   2.58753039
H   -5.31142874   1.43715670   2.07682694
N   10.31786909   1.83538114   1.20353267
C   5.73638625   -0.77267981   5.51458868
H   4.78835189   -1.10544829   5.13074781
H   6.47188986   -1.59424772   5.20386287
C   6.07850238   0.36150260   4.57534426
H   5.46610039   1.23871380   4.60156302
H   7.09522494   0.77742728   4.71810932
C   6.10545761   -0.17554726   3.11721291
H   5.10921564   -0.35148027   2.65564385
H   6.46587902   -1.19342980   3.05428456
C   6.81088800   0.62276982   2.06690238
H   6.88050951   0.06002465   1.14278568
H   6.29388093   1.57303886   1.89324933
C   8.23621400   1.07800727   2.43459338
H   9.08596415   0.35859768   2.51051048
H   8.24752385   1.72158284   3.31638761
C   8.82305067   1.86105935   1.16171412
H   8.47709305   2.93830305   1.00652150
H   8.47612857   1.26130427   0.30611147
C   11.00060166   2.10955362   2.49964395
H   10.89276360   1.26617750   3.18191863
H   10.69478214   3.04789768   2.99304060
H   12.06630612   2.37379562   2.27777005
C   10.83763558   2.77043347   0.14381483
H   10.65402520   2.32515974   -0.88138125
H   11.90259623   2.90570527   0.08123718
H   10.45969199   3.73556701   0.27554828
C   10.83949156   0.47141071   0.77691539
H   10.20897978   -0.22465542   1.26678383
H   11.80846417   0.21031841   1.17998438
H   10.83338756   0.17791403   -0.26471536
O   12.06736996   -6.60421172   -0.88421105
H   12.43442421   -6.02225981   -1.56889319
H   11.66038222   -5.99311937   -0.25006080
O   -6.88182353   -2.85500129   -2.00894338
H   -7.23387522   -3.12089558   -2.86009422
H   -7.51600955   -3.32307292   -1.40944966
O   8.97092285   4.41883066   2.52900906
H   8.87701141   4.79340560   3.37463054
H   9.75387242   4.82302940   2.27131257
O   0.83364121   2.33674311   -3.32556293
H   0.05993080   2.38670059   -3.90346718
H   0.94038166   3.17897494   -2.97155894
O   4.96174803   -1.71530289   -3.46164482
H   4.53878137   -0.87712722   -3.09006283
H   4.53645332   -1.80798679   -4.28673214
O   -12.60846083   -4.06649417   -3.48703603
H   -12.22903871   -4.56855831   -4.23003784
H   -12.28425306   -4.59504946   -2.72506123
O   9.53192251   -5.42703688   -3.13535689
H   8.79222918   -5.74813042   -3.61080800
H   10.23660281   -6.10576486   -3.09856170
O   0.72178123   4.58899789   0.20590707
H   0.52074123   5.51749494   0.43267669
H   1.31924052   4.64387821   -0.52775170
O   4.96257578   -4.40776703   -1.90389223
H   4.53084284   -4.80488645   -2.69823818
H   5.02181565   -3.46860330   -2.18922591
O   -9.99699346   -2.88683747   -2.80082907
H   -9.97667749   -2.69774372   -1.79495046
H   -10.93032114   -2.83253957   -3.05205130
O   -7.16765173   -3.70465929   1.31372949
H   -7.50511425   -2.89545704   0.99284252
H   -7.03194700   -4.29550399   0.56676303
O   -13.95892537   -5.81420264   2.28756882
H   -14.29643543   -4.95761389   1.89294729
H   8.65416759   5.17167750   -1.82375956
O   -8.27617124   3.01169874   3.31186606
H   -8.40523854   3.42441072   2.44120295
H   -7.76681976   3.69953673   3.74049875
O   10.91373155   1.97938314   -3.23754386
H   10.39903362   1.17684663   -3.29221966
H   11.78014876   1.58863852   -3.08780379
O   11.62046664   5.23379423   1.47240217
H   11.71360991   5.93117676   2.12141027
H   12.29191598   5.54902776   0.88123902
O   -13.25806876   0.68813415   3.41274185
H   -12.44680999   0.43700904   2.95775694
H   -13.17057040   0.69798312   4.36306319
O   -8.29996712   -0.10236645   3.86236940
H   -9.10304128   -0.45592277   3.52463170
H   -8.39847253   0.85004240   3.72480353
O   -4.57609257   -6.36483424   -2.38005845
H   -4.02803322   -6.59167670   -3.13961200
H   -3.94075988   -6.07445711   -1.71242308
O   -9.61457879   -2.84437864   -0.15424807
H   -9.15091453   -2.28548629   0.52763049
H   -10.58770059   -2.85542741   0.23634862
O   15.08816347   -3.04803359   -3.86438845
H   -14.83731957   -2.74031481   -3.06998749
H   14.80293086   -3.91370402   -3.72148522
O   15.16352567   0.42875855   -3.47054721
H   -14.95047197   0.84887786   -4.29773569
H   -14.56305008   -0.25210298   -3.33781963
O   -13.42641377   2.69750980   -2.27530054
H   13.68289111   1.02715539   -2.12792376
H   -14.37172818   2.58400748   -1.95822932
O   3.42766482   -1.53045336   -0.08151811
H   2.65946419   -1.09849224   0.30858701
H   3.65236535   -2.30150936   0.39337501
O   -8.32518177   -0.46816928   0.26002630
H   -8.94504058   -0.28286710   0.97423728
H   -8.68152972   -0.50205386   -0.60531834
O   1.02346575   -5.96544732   -0.00148593
H   -4.04075185   4.26815027   -0.57175978
H   1.11720645   -5.52382278   -0.85944792
O   -4.67773487   -0.57004054   -1.11521661
H   -4.92827752   0.32578364   -1.47931569
H   -5.30137130   -1.15165967   -1.54074228
O   -2.03495156   5.39305410   -2.05990401
H   -1.23311709   4.83891806   -1.95647953
H   -1.89202627   6.17256184   -1.42207469
O   -14.70572138   -5.49850337   -1.56437161
H   -14.19537762   -4.86008695   -2.01173636
H   -14.16287244   -6.30108246   -1.30606886
O   3.76471833   0.52471455   -2.25933605
H   2.86871214   0.76732337   -2.10003855
H   4.14400778   0.30761755   -1.39705120
O   2.40901292   -1.69386765   2.47072363
H   1.46645826   -1.77581063   2.13217190
H   2.75404737   -2.57363019   2.17856468
O   -9.03399021   -0.05944475   -2.77212893
H   -8.17938352   0.09922691   -3.14458058
H   10.61682566   -1.54451249   3.08391760
O   -15.09131048   5.23968878   -0.14013668
H   -14.36541537   4.61779751   -0.28227851
H   14.87172116   4.91283473   0.63036216
O   8.92815857   -1.93777051   1.75520054
H   8.32252793   -1.67598121   2.44898278
H   8.60939087   -1.40099044   1.00810911
O   -8.91667680   2.90255436   -2.00333163
H   -8.15434375   2.46126038   -2.35458694
H   -9.77420864   2.53366756   -2.17394001
O   -13.21040315   3.40417921   0.75410788
H   -13.10280679   2.92027752   -0.04821522
H   -12.57905600   3.14396949   1.43511625
O   13.44926842   -1.68963653   0.42527652
H   13.40689097   -0.84297638   0.89176060
H   14.21094436   -2.10661304   0.88088727
O   -9.21583291   3.54528246   0.76914796
H   -10.08794123   3.17282160   0.73597378
H   -8.83619831   3.49971492   -0.14467609
O   4.06696447   3.67098631   -1.34076997
H   3.30910421   3.06829176   -1.42647426
H   3.78544624   4.62757359   -1.10563603
O   -2.89804309   2.54018966   -2.64239499
H   -2.99723810   3.34593296   -2.12657394
H   -2.30847965   1.98996711   -2.05950040
O   -6.74655748   -6.16831871   -0.66562473
H   -6.14656196   -6.50025432   -1.33638497
H   -7.53869047   6.62739845   -0.76477696
O   7.42183119   -0.29290770   -1.18496922
H   7.18005398   0.29763601   -1.89118361
H   7.37262111   -1.19152188   -1.46908351
O   11.42120790   -3.55108178   -1.40911773
H   10.57754591   -3.95948202   -1.60925116
H   11.74661169   -3.63338132   -0.54102933
O   -3.13430788   2.52653309   3.61526225
H   -2.49191878   2.88740401   4.19816837
H   -2.89925911   3.04393344   2.80542875
O   13.20285264   -5.81057628   -3.37312969
H   13.02034756   -6.58232283   -3.86250035
H   13.98768027   -5.83866681   -2.79949801
O   3.47271200   6.14168355   -0.06623795
H   4.03343041   -6.51557926   -0.26909337
H   2.58326206   6.59662753   -0.17166384
O   13.77462008   3.83921374   -1.91990614
H   12.84904889   3.78812206   -1.62848040
H   14.26516582   4.52033335   -1.40327855
O   0.25552189   -3.11568133   0.83466586
H   -0.67991710   -3.02389032   0.63476916
H   0.48209316   -3.98822146   0.49668957
O   6.85187820   4.24160855   -0.32588468
H   6.08711990   3.91182002   -0.85689057
H   12.12612660   -1.74383301   3.29745366
O   -14.39447615   -3.22921331   1.01104292
H   -14.57809765   -3.58966909   0.11634369
H   -13.37156199   -2.91569243   0.89700193
O   -2.01973529   5.07709977   2.50934015
H   -2.47659001   5.86037562   2.16633617
H   -1.11159211   5.27183352   2.73071173
O   6.02725248   -3.17208802   0.97834787
H   5.47809953   -2.44962338   1.28351687
H   5.69141774   -3.98820582   1.37523948
O   -11.90793002   -2.78347051   0.86191361
H   -13.37220882   3.57947400   -2.64254849
H   -11.67440164   -3.53179889   1.61222141
O   -3.75081991   -3.84610111   0.23346269
H   -3.96683947   -3.39526743   -0.51643485
H   -4.42099523   -4.53108378   0.38949328
O   -12.15026370   -4.74498762   -0.94371266
H   -11.33931365   -5.19263277   -0.81326946
H   -12.27596509   -4.01820078   -0.30971598
O   -14.18572428   0.52776991   0.55675776
H   -13.67656871   -0.04787995   -0.04436658
H   -14.52293132   -0.02307157   1.34883014
O   -3.88029890   4.03521008   0.37055896
H   -3.04972730   4.44078145   0.62067961
H   15.08342299   -1.83583308   2.31854354
O   13.20421765   -3.84756561   3.07265532
H   14.06591050   -3.50284214   2.89454982
H   13.08073130   -4.43435156   2.33823632
O   -5.64674079   1.58076592   -3.31256685
H   -5.81148488   1.89976261   -4.21440949
H   -4.73553648   1.89736705   -3.00724010
O   12.86442282   0.85302824   -1.61267500
H   0.32643054   -6.34238754   1.97762173
H   13.04199009   -0.05599575   -1.32120482
O   2.91068311   -4.29466651   1.35463503
H   -9.19890511   -0.99032850   -2.81990383
H   2.22873146   -4.84506697   0.87287601
O   -11.13777338   0.95114576   -1.07921984
H   -11.92712110   0.57302608   -1.43918785
H   -10.39869795   0.70295864   -1.67775673
O   5.39293022   6.29146952   -3.76088072
H   5.12538589   6.49493176   -4.64567801
H   4.75668501   5.63047502   -3.46917268
O   13.81839287   2.13332050   0.94552684
H   13.72371863   2.09247682   0.01056584
H   14.33852488   2.90604178   1.17741585
O   0.38677501   -6.66761084   2.90548186
H   1.18580859   6.23267217   3.05892778
H   3.26742588   -4.96583485   1.92697041
O   11.46715161   -1.06544444   3.16718814
H   9.90480436   -4.65332139   1.05878552
H   6.56006111   4.47735797   0.56493310
O   -10.95725123   -0.25708631   1.49174150
H   -11.23143551   0.33251942   0.75677510
H   -11.33732277   -1.12129908   1.20789053
O   -13.21248199   5.38303599   -3.48113345
H   -13.33389307   4.65546647   -4.03861967
H   -13.93735337   6.02534150   -3.47896536
O   14.89607886   -1.15310503   2.95812741
H   -13.75345586   -6.34430998   1.55428680
H   -14.68341818   -0.72157651   3.32799441
O   7.45832446   -3.30628370   -1.79623611
H   8.07130444   -3.67949369   -2.41878698
H   6.72109717   -3.90262272   -1.70983343
O   -1.64611326   -6.05517299   -0.13311123
H   -1.91820126   -5.12941418   -0.13020342
H   -0.63500495   -6.01825128   -0.15431655
O   3.64048636   5.64501868   2.90984439
H   3.24528755   5.62732083   2.08102508
H   3.55978577   4.77820149   3.29139180
O   0.99046581   5.55968506   -2.25263559
H   1.81976662   5.96398253   -2.32873697
H   0.53546607   6.04081181   -1.56778483
O   -12.37511514   -1.54163542   -1.57160623
H   -12.26138469   -2.08061524   -0.71601128
H   -13.27932621   -1.80315630   -1.85479211
O   8.09829162   -5.17693590   0.31273871
H   7.40075273   -4.71810592   0.67893906
H   8.36114871   -4.57810728   -0.41256470
O   8.86104696   5.36038951   -2.75294560
H   8.16454366   4.94019433   -3.31428940
O   10.83724790   -4.56451969   1.40209648
H   10.72977579   -3.97171243   2.18929679
