844

C   -10.71333000   -5.92690000   -7.35910000
C   -8.17482000   -5.93982000   -7.30496000
C   -9.43022000   -5.19173000   -7.81526000
H   -8.19783000   -5.96086000   -6.18993000
H   -8.12246000   -2.97832000   -8.86002000
C   -8.14962000   -2.99993000   -7.74505000
C   -9.43478000   -3.73497000   -7.29340000
H   -9.40547000   -5.17227000   -8.93030000
C   -10.68712000   -2.98651000   -7.80971000
C   -11.97425000   -3.71856000   -7.35734000
C   -11.96934000   -5.18169000   -7.87336000
H   -11.94199000   -5.16590000   -8.98841000
H   -10.73840000   -5.94452000   -6.24413000
H   -9.46227000   -3.75447000   -6.17847000
H   -10.65852000   -2.96853000   -8.92462000
H   -12.00140000   -3.73444000   -6.24231000
C   -10.68919000   -1.52940000   -7.28845000
C   -8.15295000   -1.54416000   -7.21965000
C   -9.40184000   -0.79472000   -7.73700000
C   -11.93595000   -0.77895000   -7.80972000
H   -10.72095000   -1.54759000   -6.17361000
H   -8.18264000   -1.56563000   -6.10478000
H   -11.90194000   -0.76228000   -8.92482000
H   -9.37051000   -0.77515000   -8.85206000
C   -13.23147000   -1.50623000   -7.36368000
C   -13.23028000   -2.96893000   -7.87364000
C   -13.25689000   -5.91796000   -7.41929000
C   -14.45943000   -0.73497000   -7.88555000
C   -14.49942000   -3.71526000   -7.42109000
C   -14.49435000   -5.15859000   -7.93376000
H   -14.47293000   -0.73387000   -8.99771000
H   -13.27314000   -1.51852000   -6.25017000
H   -13.21022000   -2.95651000   -8.98776000
H   -14.57524000   -3.71670000   -6.31151000
H   -14.51542000   -5.15672000   -9.04571000
H   -13.29166000   -5.93005000   -6.30559000
C   -14.45173000   0.71018000   -7.37499000
C   -13.16991000   1.43047000   -7.80653000
C   -11.93179000   0.68201000   -7.29095000
C   -10.64780000   1.40669000   -7.73004000
C   -9.40433000   0.66373000   -7.21484000
C   -8.12063000   1.39251000   -7.65204000
H   -14.53319000   0.71770000   -6.26679000
H   -11.96587000   0.67774000   -6.17800000
H   -9.43776000   0.65686000   -6.10197000
H   -13.14632000   1.50122000   -8.91644000
H   -10.61361000   1.47548000   -8.84086000
H   -8.08742000   1.46518000   -8.76258000
C   -8.16980000   5.86211000   -7.82953000
C   -9.44881000   5.12614000   -7.36989000
C   -10.70565000   5.87374000   -7.87963000
H   -8.14922000   5.88298000   -8.94466000
C   -9.44200000   3.66718000   -7.89069000
H   -9.46989000   5.10750000   -6.25465000
C   -10.71624000   2.93781000   -7.43509000
C   -11.96970000   3.67532000   -7.93674000
C   -11.98396000   5.13671000   -7.41939000
H   -9.42303000   3.67310000   -9.00394000
H   -10.68365000   5.89146000   -8.99474000
H   -12.00457000   5.12063000   -6.30395000
H   -11.94925000   3.67892000   -9.05006000
H   -10.73635000   2.87010000   -6.32388000
C   -8.18756000   2.92587000   -7.39359000
H   -8.20524000   2.85504000   -6.28263000
C   -13.24837000   5.87714000   -7.92865000
C   -13.23938000   2.94026000   -7.48249000
C   -14.50853000   5.11906000   -7.46782000
C   -14.49074000   3.67352000   -7.97703000
H   -13.23515000   5.88914000   -9.04290000
H   -14.57686000   5.11892000   -6.35771000
H   -14.51749000   3.66596000   -9.08791000
H   -13.27121000   2.87025000   -6.37273000
C   -3.11433000   -5.92690000   -7.35910000
C   -0.57582000   -5.93982000   -7.30496000
C   -1.83122000   -5.19173000   -7.81526000
H   -0.59883000   -5.96086000   -6.18993000
H   -0.52346000   -2.97832000   -8.86002000
C   -0.55062000   -2.99993000   -7.74505000
C   -1.83578000   -3.73497000   -7.29340000
H   -1.80647000   -5.17227000   -8.93030000
C   -3.08812000   -2.98651000   -7.80971000
C   -4.37525000   -3.71856000   -7.35734000
C   -4.37034000   -5.18169000   -7.87336000
H   -4.34299000   -5.16590000   -8.98841000
H   -3.13940000   -5.94452000   -6.24413000
H   -1.86327000   -3.75447000   -6.17847000
H   -3.05952000   -2.96853000   -8.92462000
H   -4.40240000   -3.73444000   -6.24231000
C   -3.09019000   -1.52940000   -7.28845000
C   -0.55395000   -1.54416000   -7.21965000
C   -1.80284000   -0.79472000   -7.73700000
C   -4.33695000   -0.77895000   -7.80972000
H   -3.12195000   -1.54759000   -6.17361000
H   -0.58364000   -1.56563000   -6.10478000
H   -4.30294000   -0.76228000   -8.92482000
H   -1.77151000   -0.77515000   -8.85206000
C   -5.63247000   -1.50623000   -7.36368000
C   -5.63128000   -2.96893000   -7.87364000
C   -5.65789000   -5.91796000   -7.41929000
C   -6.86043000   -0.73497000   -7.88555000
C   -6.90042000   -3.71526000   -7.42109000
C   -6.89535000   -5.15859000   -7.93376000
H   -6.87393000   -0.73387000   -8.99771000
H   -5.67414000   -1.51852000   -6.25017000
H   -5.61122000   -2.95651000   -8.98776000
H   -6.97624000   -3.71670000   -6.31151000
H   -6.91642000   -5.15672000   -9.04571000
H   -5.69266000   -5.93005000   -6.30559000
C   -6.85273000   0.71018000   -7.37499000
C   -5.57091000   1.43047000   -7.80653000
C   -4.33279000   0.68201000   -7.29095000
C   -3.04880000   1.40669000   -7.73004000
C   -1.80533000   0.66373000   -7.21484000
C   -0.52163000   1.39251000   -7.65204000
H   -6.93419000   0.71770000   -6.26679000
H   -4.36687000   0.67774000   -6.17800000
H   -1.83876000   0.65686000   -6.10197000
H   -5.54732000   1.50122000   -8.91644000
H   -3.01461000   1.47548000   -8.84086000
H   -0.48842000   1.46518000   -8.76258000
C   -0.57080000   5.86211000   -7.82953000
C   -1.84981000   5.12614000   -7.36989000
C   -3.10665000   5.87374000   -7.87963000
H   -0.55022000   5.88298000   -8.94466000
C   -1.84300000   3.66718000   -7.89069000
H   -1.87089000   5.10750000   -6.25465000
C   -3.11724000   2.93781000   -7.43509000
C   -4.37070000   3.67532000   -7.93674000
C   -4.38496000   5.13671000   -7.41939000
H   -1.82403000   3.67310000   -9.00394000
H   -3.08465000   5.89146000   -8.99474000
H   -4.40557000   5.12063000   -6.30395000
H   -4.35025000   3.67892000   -9.05006000
H   -3.13735000   2.87010000   -6.32388000
C   -0.58856000   2.92587000   -7.39359000
H   -0.60624000   2.85504000   -6.28263000
C   -5.64937000   5.87714000   -7.92865000
C   -5.64038000   2.94026000   -7.48249000
C   -6.90953000   5.11906000   -7.46782000
C   -6.89174000   3.67352000   -7.97703000
H   -5.63615000   5.88914000   -9.04290000
H   -6.97786000   5.11892000   -6.35771000
H   -6.91849000   3.66596000   -9.08791000
H   -5.67221000   2.87025000   -6.37273000
C   4.48467000   -5.92690000   -7.35910000
C   7.02318000   -5.93982000   -7.30496000
C   5.76778000   -5.19173000   -7.81526000
H   7.00017000   -5.96086000   -6.18993000
H   7.07554000   -2.97832000   -8.86002000
C   7.04838000   -2.99993000   -7.74505000
C   5.76322000   -3.73497000   -7.29340000
H   5.79253000   -5.17227000   -8.93030000
C   4.51088000   -2.98651000   -7.80971000
C   3.22375000   -3.71856000   -7.35734000
C   3.22866000   -5.18169000   -7.87336000
H   3.25601000   -5.16590000   -8.98841000
H   4.45960000   -5.94452000   -6.24413000
H   5.73573000   -3.75447000   -6.17847000
H   4.53948000   -2.96853000   -8.92462000
H   3.19660000   -3.73444000   -6.24231000
C   4.50881000   -1.52940000   -7.28845000
C   7.04505000   -1.54416000   -7.21965000
C   5.79616000   -0.79472000   -7.73700000
C   3.26205000   -0.77895000   -7.80972000
H   4.47705000   -1.54759000   -6.17361000
H   7.01536000   -1.56563000   -6.10478000
H   3.29606000   -0.76228000   -8.92482000
H   5.82749000   -0.77515000   -8.85206000
C   1.96653000   -1.50623000   -7.36368000
C   1.96772000   -2.96893000   -7.87364000
C   1.94111000   -5.91796000   -7.41929000
C   0.73857000   -0.73497000   -7.88555000
C   0.69858000   -3.71526000   -7.42109000
C   0.70365000   -5.15859000   -7.93376000
H   0.72507000   -0.73387000   -8.99771000
H   1.92486000   -1.51852000   -6.25017000
H   1.98778000   -2.95651000   -8.98776000
H   0.62276000   -3.71670000   -6.31151000
H   0.68258000   -5.15672000   -9.04571000
H   1.90634000   -5.93005000   -6.30559000
C   0.74627000   0.71018000   -7.37499000
C   2.02809000   1.43047000   -7.80653000
C   3.26621000   0.68201000   -7.29095000
C   4.55020000   1.40669000   -7.73004000
C   5.79367000   0.66373000   -7.21484000
C   7.07737000   1.39251000   -7.65204000
H   0.66481000   0.71770000   -6.26679000
H   3.23213000   0.67774000   -6.17800000
H   5.76024000   0.65686000   -6.10197000
H   2.05168000   1.50122000   -8.91644000
H   4.58439000   1.47548000   -8.84086000
H   7.11058000   1.46518000   -8.76258000
C   7.02820000   5.86211000   -7.82953000
C   5.74919000   5.12614000   -7.36989000
C   4.49235000   5.87374000   -7.87963000
H   7.04878000   5.88298000   -8.94466000
C   5.75600000   3.66718000   -7.89069000
H   5.72811000   5.10750000   -6.25465000
C   4.48176000   2.93781000   -7.43509000
C   3.22830000   3.67532000   -7.93674000
C   3.21404000   5.13671000   -7.41939000
H   5.77497000   3.67310000   -9.00394000
H   4.51435000   5.89146000   -8.99474000
H   3.19343000   5.12063000   -6.30395000
H   3.24875000   3.67892000   -9.05006000
H   4.46165000   2.87010000   -6.32388000
C   7.01044000   2.92587000   -7.39359000
H   6.99276000   2.85504000   -6.28263000
C   1.94963000   5.87714000   -7.92865000
C   1.95862000   2.94026000   -7.48249000
C   0.68947000   5.11906000   -7.46782000
C   0.70726000   3.67352000   -7.97703000
H   1.96285000   5.88914000   -9.04290000
H   0.62114000   5.11892000   -6.35771000
H   0.68051000   3.66596000   -9.08791000
H   1.92679000   2.87025000   -6.37273000
C   12.08367000   -5.92690000   -7.35910000
C   14.62218000   -5.93982000   -7.30496000
C   13.36678000   -5.19173000   -7.81526000
H   14.59917000   -5.96086000   -6.18993000
H   14.67454000   -2.97832000   -8.86002000
C   14.64738000   -2.99993000   -7.74505000
C   13.36222000   -3.73497000   -7.29340000
H   13.39153000   -5.17227000   -8.93030000
C   12.10988000   -2.98651000   -7.80971000
C   10.82275000   -3.71856000   -7.35734000
C   10.82766000   -5.18169000   -7.87336000
H   10.85501000   -5.16590000   -8.98841000
H   12.05860000   -5.94452000   -6.24413000
H   13.33473000   -3.75447000   -6.17847000
H   12.13848000   -2.96853000   -8.92462000
H   10.79560000   -3.73444000   -6.24231000
C   12.10781000   -1.52940000   -7.28845000
C   14.64405000   -1.54416000   -7.21965000
C   13.39516000   -0.79472000   -7.73700000
C   10.86105000   -0.77895000   -7.80972000
H   12.07605000   -1.54759000   -6.17361000
H   14.61436000   -1.56563000   -6.10478000
H   10.89506000   -0.76228000   -8.92482000
H   13.42649000   -0.77515000   -8.85206000
C   9.56553000   -1.50623000   -7.36368000
C   9.56672000   -2.96893000   -7.87364000
C   9.54011000   -5.91796000   -7.41929000
C   8.33757000   -0.73497000   -7.88555000
C   8.29758000   -3.71526000   -7.42109000
C   8.30265000   -5.15859000   -7.93376000
H   8.32407000   -0.73387000   -8.99771000
H   9.52386000   -1.51852000   -6.25017000
H   9.58678000   -2.95651000   -8.98776000
H   8.22176000   -3.71670000   -6.31151000
H   8.28158000   -5.15672000   -9.04571000
H   9.50534000   -5.93005000   -6.30559000
C   8.34527000   0.71018000   -7.37499000
C   9.62709000   1.43047000   -7.80653000
C   10.86521000   0.68201000   -7.29095000
C   12.14920000   1.40669000   -7.73004000
C   13.39267000   0.66373000   -7.21484000
C   14.67637000   1.39251000   -7.65204000
H   8.26381000   0.71770000   -6.26679000
H   10.83113000   0.67774000   -6.17800000
H   13.35924000   0.65686000   -6.10197000
H   9.65068000   1.50122000   -8.91644000
H   12.18339000   1.47548000   -8.84086000
H   14.70958000   1.46518000   -8.76258000
C   14.62720000   5.86211000   -7.82953000
C   13.34819000   5.12614000   -7.36989000
C   12.09135000   5.87374000   -7.87963000
H   14.64778000   5.88298000   -8.94466000
C   13.35500000   3.66718000   -7.89069000
H   13.32711000   5.10750000   -6.25465000
C   12.08076000   2.93781000   -7.43509000
C   10.82730000   3.67532000   -7.93674000
C   10.81304000   5.13671000   -7.41939000
H   13.37397000   3.67310000   -9.00394000
H   12.11335000   5.89146000   -8.99474000
H   10.79243000   5.12063000   -6.30395000
H   10.84775000   3.67892000   -9.05006000
H   12.06065000   2.87010000   -6.32388000
C   14.60944000   2.92587000   -7.39359000
H   14.59176000   2.85504000   -6.28263000
C   9.54863000   5.87714000   -7.92865000
C   9.55762000   2.94026000   -7.48249000
C   8.28847000   5.11906000   -7.46782000
C   8.30626000   3.67352000   -7.97703000
H   9.56185000   5.88914000   -9.04290000
H   8.22014000   5.11892000   -6.35771000
H   8.27951000   3.66596000   -9.08791000
H   9.52579000   2.87025000   -6.37273000
C   -10.71333000   -5.92690000   7.64090000
C   -8.17482000   -5.93982000   7.69504000
C   -9.43022000   -5.19173000   7.18474000
H   -8.19783000   -5.96086000   8.81007000
H   -8.12246000   -2.97832000   6.13998000
C   -8.14962000   -2.99993000   7.25495000
C   -9.43478000   -3.73497000   7.70660000
H   -9.40547000   -5.17227000   6.06970000
C   -10.68712000   -2.98651000   7.19029000
C   -11.97425000   -3.71856000   7.64266000
C   -11.96934000   -5.18169000   7.12664000
H   -11.94199000   -5.16590000   6.01159000
H   -10.73840000   -5.94452000   8.75587000
H   -9.46227000   -3.75447000   8.82153000
H   -10.65852000   -2.96853000   6.07538000
H   -12.00140000   -3.73444000   8.75769000
C   -10.68919000   -1.52940000   7.71155000
C   -8.15295000   -1.54416000   7.78035000
C   -9.40184000   -0.79472000   7.26300000
C   -11.93595000   -0.77895000   7.19028000
H   -10.72095000   -1.54759000   8.82639000
H   -8.18264000   -1.56563000   8.89522000
H   -11.90194000   -0.76228000   6.07518000
H   -9.37051000   -0.77515000   6.14794000
C   -13.23147000   -1.50623000   7.63632000
C   -13.23028000   -2.96893000   7.12636000
C   -13.25689000   -5.91796000   7.58071000
C   -14.45943000   -0.73497000   7.11445000
C   -14.49942000   -3.71526000   7.57891000
C   -14.49435000   -5.15859000   7.06624000
H   -14.47293000   -0.73387000   6.00229000
H   -13.27314000   -1.51852000   8.74983000
H   -13.21022000   -2.95651000   6.01224000
H   -14.57524000   -3.71670000   8.68849000
H   -14.51542000   -5.15672000   5.95429000
H   -13.29166000   -5.93005000   8.69441000
C   -14.45173000   0.71018000   7.62501000
C   -13.16991000   1.43047000   7.19347000
C   -11.93179000   0.68201000   7.70905000
C   -10.64780000   1.40669000   7.26996000
C   -9.40433000   0.66373000   7.78516000
C   -8.12063000   1.39251000   7.34796000
H   -14.53319000   0.71770000   8.73321000
H   -11.96587000   0.67774000   8.82200000
H   -9.43776000   0.65686000   8.89803000
H   -13.14632000   1.50122000   6.08356000
H   -10.61361000   1.47548000   6.15914000
H   -8.08742000   1.46518000   6.23742000
C   -8.16980000   5.86211000   7.17047000
C   -9.44881000   5.12614000   7.63011000
C   -10.70565000   5.87374000   7.12037000
H   -8.14922000   5.88298000   6.05534000
C   -9.44200000   3.66718000   7.10931000
H   -9.46989000   5.10750000   8.74535000
C   -10.71624000   2.93781000   7.56491000
C   -11.96970000   3.67532000   7.06326000
C   -11.98396000   5.13671000   7.58061000
H   -9.42303000   3.67310000   5.99606000
H   -10.68365000   5.89146000   6.00526000
H   -12.00457000   5.12063000   8.69605000
H   -11.94925000   3.67892000   5.94994000
H   -10.73635000   2.87010000   8.67612000
C   -8.18756000   2.92587000   7.60641000
H   -8.20524000   2.85504000   8.71737000
C   -13.24837000   5.87714000   7.07135000
C   -13.23938000   2.94026000   7.51751000
C   -14.50853000   5.11906000   7.53218000
C   -14.49074000   3.67352000   7.02297000
H   -13.23515000   5.88914000   5.95710000
H   -14.57686000   5.11892000   8.64229000
H   -14.51749000   3.66596000   5.91209000
H   -13.27121000   2.87025000   8.62727000
C   -3.11433000   -5.92690000   7.64090000
C   -0.57582000   -5.93982000   7.69504000
C   -1.83122000   -5.19173000   7.18474000
H   -0.59883000   -5.96086000   8.81007000
H   -0.52346000   -2.97832000   6.13998000
C   -0.55062000   -2.99993000   7.25495000
C   -1.83578000   -3.73497000   7.70660000
H   -1.80647000   -5.17227000   6.06970000
C   -3.08812000   -2.98651000   7.19029000
C   -4.37525000   -3.71856000   7.64266000
C   -4.37034000   -5.18169000   7.12664000
H   -4.34299000   -5.16590000   6.01159000
H   -3.13940000   -5.94452000   8.75587000
H   -1.86327000   -3.75447000   8.82153000
H   -3.05952000   -2.96853000   6.07538000
H   -4.40240000   -3.73444000   8.75769000
C   -3.09019000   -1.52940000   7.71155000
C   -0.55395000   -1.54416000   7.78035000
C   -1.80284000   -0.79472000   7.26300000
C   -4.33695000   -0.77895000   7.19028000
H   -3.12195000   -1.54759000   8.82639000
H   -0.58364000   -1.56563000   8.89522000
H   -1.77151000   -0.77515000   6.14794000
C   -5.63247000   -1.50623000   7.63632000
C   -5.63128000   -2.96893000   7.12636000
C   -5.65789000   -5.91796000   7.58071000
C   -6.86043000   -0.73497000   7.11445000
C   -6.90042000   -3.71526000   7.57891000
C   -6.89535000   -5.15859000   7.06624000
H   -6.87393000   -0.73387000   6.00229000
H   -5.67414000   -1.51852000   8.74983000
H   -5.61122000   -2.95651000   6.01224000
H   -6.97624000   -3.71670000   8.68849000
H   -6.91642000   -5.15672000   5.95429000
H   -5.69266000   -5.93005000   8.69441000
C   -6.85273000   0.71018000   7.62501000
C   -5.57091000   1.43047000   7.19347000
C   -4.33279000   0.68201000   7.70905000
C   -3.04880000   1.40669000   7.26996000
C   -1.80533000   0.66373000   7.78516000
C   -0.52163000   1.39251000   7.34796000
H   -6.93419000   0.71770000   8.73321000
H   -4.36687000   0.67774000   8.82200000
H   -1.83876000   0.65686000   8.89803000
H   -5.54732000   1.50122000   6.08356000
H   -3.01461000   1.47548000   6.15914000
H   -0.48842000   1.46518000   6.23742000
C   -0.57080000   5.86211000   7.17047000
C   -1.84981000   5.12614000   7.63011000
C   -3.10665000   5.87374000   7.12037000
H   -0.55022000   5.88298000   6.05534000
C   -1.84300000   3.66718000   7.10931000
H   -1.87089000   5.10750000   8.74535000
C   -3.11724000   2.93781000   7.56491000
C   -4.37070000   3.67532000   7.06326000
C   -4.38496000   5.13671000   7.58061000
H   -1.82403000   3.67310000   5.99606000
H   -3.08465000   5.89146000   6.00526000
H   -4.40557000   5.12063000   8.69605000
H   -4.35025000   3.67892000   5.94994000
H   -3.13735000   2.87010000   8.67612000
C   -0.58856000   2.92587000   7.60641000
H   -0.60624000   2.85504000   8.71737000
C   -5.64937000   5.87714000   7.07135000
C   -5.64038000   2.94026000   7.51751000
C   -6.90953000   5.11906000   7.53218000
C   -6.89174000   3.67352000   7.02297000
H   -5.63615000   5.88914000   5.95710000
H   -6.97786000   5.11892000   8.64229000
H   -6.91849000   3.66596000   5.91209000
H   -5.67221000   2.87025000   8.62727000
C   4.48467000   -5.92690000   7.64090000
C   7.02318000   -5.93982000   7.69504000
C   5.76778000   -5.19173000   7.18474000
H   7.00017000   -5.96086000   8.81007000
H   7.07554000   -2.97832000   6.13998000
C   7.04838000   -2.99993000   7.25495000
C   5.76322000   -3.73497000   7.70660000
H   5.79253000   -5.17227000   6.06970000
C   4.51088000   -2.98651000   7.19029000
C   3.22375000   -3.71856000   7.64266000
C   3.22866000   -5.18169000   7.12664000
H   3.25601000   -5.16590000   6.01159000
H   4.45960000   -5.94452000   8.75587000
H   5.73573000   -3.75447000   8.82153000
H   4.53948000   -2.96853000   6.07538000
H   3.19660000   -3.73444000   8.75769000
C   4.50881000   -1.52940000   7.71155000
C   7.04505000   -1.54416000   7.78035000
C   5.79616000   -0.79472000   7.26300000
C   3.26205000   -0.77895000   7.19028000
H   4.47705000   -1.54759000   8.82639000
H   7.01536000   -1.56563000   8.89522000
H   3.29606000   -0.76228000   6.07518000
C   1.96653000   -1.50623000   7.63632000
C   1.96772000   -2.96893000   7.12636000
C   1.94111000   -5.91796000   7.58071000
C   0.73857000   -0.73497000   7.11445000
C   0.69858000   -3.71526000   7.57891000
C   0.70365000   -5.15859000   7.06624000
H   0.72507000   -0.73387000   6.00229000
H   1.92486000   -1.51852000   8.74983000
H   1.98778000   -2.95651000   6.01224000
H   0.62276000   -3.71670000   8.68849000
H   0.68258000   -5.15672000   5.95429000
H   1.90634000   -5.93005000   8.69441000
C   0.74627000   0.71018000   7.62501000
C   2.02809000   1.43047000   7.19347000
C   3.26621000   0.68201000   7.70905000
C   4.55020000   1.40669000   7.26996000
C   5.79367000   0.66373000   7.78516000
C   7.07737000   1.39251000   7.34796000
H   0.66481000   0.71770000   8.73321000
H   3.23213000   0.67774000   8.82200000
H   5.76024000   0.65686000   8.89803000
H   2.05168000   1.50122000   6.08356000
H   4.58439000   1.47548000   6.15914000
H   7.11058000   1.46518000   6.23742000
C   7.02820000   5.86211000   7.17047000
C   5.74919000   5.12614000   7.63011000
C   4.49235000   5.87374000   7.12037000
H   7.04878000   5.88298000   6.05534000
C   5.75600000   3.66718000   7.10931000
H   5.72811000   5.10750000   8.74535000
C   4.48176000   2.93781000   7.56491000
C   3.22830000   3.67532000   7.06326000
C   3.21404000   5.13671000   7.58061000
H   5.77497000   3.67310000   5.99606000
H   4.51435000   5.89146000   6.00526000
H   3.19343000   5.12063000   8.69605000
H   3.24875000   3.67892000   5.94994000
H   4.46165000   2.87010000   8.67612000
C   7.01044000   2.92587000   7.60641000
H   6.99276000   2.85504000   8.71737000
C   1.94963000   5.87714000   7.07135000
C   1.95862000   2.94026000   7.51751000
C   0.68947000   5.11906000   7.53218000
C   0.70726000   3.67352000   7.02297000
H   1.96285000   5.88914000   5.95710000
H   0.62114000   5.11892000   8.64229000
H   0.68051000   3.66596000   5.91209000
H   1.92679000   2.87025000   8.62727000
C   12.08367000   -5.92690000   7.64090000
C   14.62218000   -5.93982000   7.69504000
C   13.36678000   -5.19173000   7.18474000
H   14.59917000   -5.96086000   8.81007000
H   14.67454000   -2.97832000   6.13998000
C   14.64738000   -2.99993000   7.25495000
C   13.36222000   -3.73497000   7.70660000
H   13.39153000   -5.17227000   6.06970000
C   12.10988000   -2.98651000   7.19029000
C   10.82275000   -3.71856000   7.64266000
C   10.82766000   -5.18169000   7.12664000
H   10.85501000   -5.16590000   6.01159000
H   12.05860000   -5.94452000   8.75587000
H   13.33473000   -3.75447000   8.82153000
H   12.13848000   -2.96853000   6.07538000
H   10.79560000   -3.73444000   8.75769000
C   12.10781000   -1.52940000   7.71155000
C   14.64405000   -1.54416000   7.78035000
C   13.39516000   -0.79472000   7.26300000
C   10.86105000   -0.77895000   7.19028000
H   12.07605000   -1.54759000   8.82639000
H   14.61436000   -1.56563000   8.89522000
H   10.89506000   -0.76228000   6.07518000
H   13.42649000   -0.77515000   6.14794000
C   9.56553000   -1.50623000   7.63632000
C   9.56672000   -2.96893000   7.12636000
C   9.54011000   -5.91796000   7.58071000
C   8.33757000   -0.73497000   7.11445000
C   8.29758000   -3.71526000   7.57891000
C   8.30265000   -5.15859000   7.06624000
H   8.32407000   -0.73387000   6.00229000
H   9.52386000   -1.51852000   8.74983000
H   9.58678000   -2.95651000   6.01224000
H   8.22176000   -3.71670000   8.68849000
H   8.28158000   -5.15672000   5.95429000
H   9.50534000   -5.93005000   8.69441000
C   8.34527000   0.71018000   7.62501000
C   9.62709000   1.43047000   7.19347000
C   10.86521000   0.68201000   7.70905000
C   12.14920000   1.40669000   7.26996000
C   13.39267000   0.66373000   7.78516000
C   14.67637000   1.39251000   7.34796000
H   8.26381000   0.71770000   8.73321000
H   10.83113000   0.67774000   8.82200000
H   13.35924000   0.65686000   8.89803000
H   9.65068000   1.50122000   6.08356000
H   12.18339000   1.47548000   6.15914000
H   14.70958000   1.46518000   6.23742000
C   14.62720000   5.86211000   7.17047000
C   13.34819000   5.12614000   7.63011000
C   12.09135000   5.87374000   7.12037000
H   14.64778000   5.88298000   6.05534000
C   13.35500000   3.66718000   7.10931000
H   13.32711000   5.10750000   8.74535000
C   12.08076000   2.93781000   7.56491000
C   10.82730000   3.67532000   7.06326000
C   10.81304000   5.13671000   7.58061000
H   13.37397000   3.67310000   5.99606000
H   12.11335000   5.89146000   6.00526000
H   10.79243000   5.12063000   8.69605000
H   10.84775000   3.67892000   5.94994000
H   12.06065000   2.87010000   8.67612000
C   14.60944000   2.92587000   7.60641000
H   14.59176000   2.85504000   8.71737000
C   9.54863000   5.87714000   7.07135000
C   9.55762000   2.94026000   7.51751000
C   8.28847000   5.11906000   7.53218000
C   8.30626000   3.67352000   7.02297000
H   9.56185000   5.88914000   5.95710000
H   8.22014000   5.11892000   8.64229000
H   8.27951000   3.66596000   5.91209000
H   9.52579000   2.87025000   8.62727000
N   -3.59061687   -0.69995904   3.08902117
C   -3.23261552   -0.66351260   4.57004291
H   -2.52774887   -1.45955150   4.73188586
H   -2.70490702   0.33947004   4.59304672
C   -4.45774128   -0.75631010   5.56975539
H   -5.03397014   0.18827565   5.31009272
H   -5.18632749   -1.55264520   5.23682356
C   -4.44874250   0.41952151   2.71227931
H   -4.88116872   0.43640612   1.69123214
H   -5.36955383   0.33056800   3.25922396
H   -3.94169454   1.34894024   2.97252023
C   -4.29234001   -1.96706961   2.72189472
H   -5.03817909   -2.26269794   3.32741063
H   -4.63920853   -1.84658028   1.68199268
H   -3.55312805   -2.81998511   2.76029702
C   -2.30800287   -0.50485516   2.36998394
H   -1.94559206   0.54305214   2.49418518
H   -1.60106187   -1.28837647   2.87739277
H   -2.42111740   -0.75836869   1.33091916
N   6.55459444   -0.95507873   3.19329542
C   6.33010670   -1.65682060   4.51197287
H   5.63273494   -2.53095545   4.32044268
H   7.28125785   -2.07911562   4.66229247
C   5.86425473   -0.64462355   5.56982566
H   6.50853101   0.19655805   5.32938696
H   4.87415788   -0.41641625   5.28028742
C   6.60646019   -2.04837217   2.04965769
H   5.81163696   -2.79772461   2.16111995
H   6.52583971   -1.48671452   1.11155870
H   7.57249136   -2.55330675   2.14690574
C   7.85395581   -0.22520143   3.14353617
H   8.70683570   -0.87255859   3.40010065
H   7.97156479   0.09935327   2.11866473
H   7.81076230   0.67029606   3.67587696
C   5.47381693   0.09976724   2.85692962
H   5.55731166   0.78757778   3.63160209
H   5.78972238   0.67806371   1.98204797
H   4.48575004   -0.29193581   2.76042813
O   -16.28414614   -20.51737502   -0.84099713
H   13.77954585   -19.94639034   -1.50739214
H   -16.29336900   -20.09944407   -0.00987177
O   1.10834216   -17.16914688   1.04789396
H   1.90555685   -17.42877611   0.55794987
H   -7.12702663   12.73990766   3.28423823
O   -6.57721645   8.48123088   -3.79966944
H   -6.20058217   7.60364915   -4.03399825
H   -7.50591959   8.38632130   -3.89168245
O   -4.36212329   33.12439284   -1.52499450
H   -5.12230350   33.10187368   -0.94673016
H   13.92167478   -4.38645305   1.55389987
O   -0.78604019   -6.46221083   -1.66357270
H   0.15310782   -6.78893352   -1.56808313
H   -1.21353372   -6.40655080   -0.80495830
O   0.09838873   14.51196734   0.76146473
H   -0.43307550   15.29500260   0.99786529
H   -0.30736269   14.13894702   0.03316609
O   -10.91669211   -16.12906826   -1.05195958
H   0.98789892   -2.72459458   -1.52750976
H   -10.90450716   -16.99257284   -0.67852982
O   -33.92990973   42.60206712   0.31611034
H   -33.54950833   43.47685109   0.19610967
H   -33.97467278   42.34889236   -0.60230094
O   -28.58404133   4.56231982   2.72784065
H   -28.06165912   5.36469571   2.54196624
H   -27.94437184   3.90656315   2.88735056
O   23.05974966   14.42691880   1.40394592
H   22.58225920   13.74914932   0.85468858
H   22.38007616   14.81593545   1.93934488
O   -16.46876803   0.33003545   2.95292377
H   -15.55957736   0.69323939   2.93758013
H   -16.95357629   1.07101864   3.39949691
O   -7.50751168   12.15005695   3.96432452
H   -8.44750900   12.03603789   3.60842162
H   -9.93968288   -15.90170189   -0.97839040
O   2.88147353   17.88900945   -1.60616078
H   2.99584112   18.76972492   -1.92407926
H   2.40360695   17.31351029   -2.13885617
O   9.92483594   10.34287456   2.52150688
H   9.97822196   9.41195690   2.18016185
H   10.56260875   10.34023897   3.22280152
O   -19.03760375   7.89800412   4.09156998
H   -19.09774398   7.50231143   3.18573812
H   -18.25596671   8.46681485   4.06494295
O   17.60088862   -21.07823527   1.55093202
H   16.74385563   -20.79419010   1.77639345
H   18.16104664   -20.30454182   1.72711791
O   3.68957111   -3.35415012   2.81634099
H   3.24844508   -3.04047952   3.62585359
H   3.04175411   -3.60899840   2.14511525
O   37.82860323   -9.00062706   1.16572461
H   38.18670300   -9.09284482   0.26947385
H   37.17815471   -9.68018377   1.29288416
O   -3.37328709   -1.09133469   -0.49705080
H   -3.92950816   -0.33685676   -0.71735788
H   -3.73932344   -1.78507087   -1.05531539
O   -8.52957746   -27.59665813   -0.54470414
H   -8.85224096   -27.41055856   -1.44193682
H   -7.81653105   -28.24637029   -0.66394454
O   -27.59930428   -12.47351845   1.82361954
H   -28.53819579   -12.64196674   1.92865121
H   -27.61232662   -11.71633743   1.21245548
O   42.66053549   3.97013198   -1.69726746
H   42.66916480   3.20388044   -1.10368636
H   43.31542706   4.61771606   -1.42882352
O   -3.64603573   23.83840105   -3.08846037
H   -2.77723511   24.02465356   -3.53623200
H   0.40075849   9.00515803   0.94370337
O   -6.52771384   -16.56504876   -1.22668349
H   -6.45245904   -17.53754753   -1.11700707
H   -5.90867167   -16.37673933   -1.95302777
O   9.53042641   -4.85364357   0.66876474
H   8.78664146   -5.42350201   0.37325352
H   10.13850091   -5.53049836   1.07050547
O   27.95148768   -4.79769836   2.43037513
H   28.66829615   -4.93740901   3.05482534
H   28.03157747   -5.38429862   1.74480547
O   1.00381412   -26.42389641   -2.60892565
H   0.03260157   -26.36374931   -2.27502121
H   1.11400783   -25.60806739   -3.13180010
O   13.01195016   -4.26988583   1.63498383
H   12.34475279   14.65697904   -3.80760120
H   40.02568476   2.97790496   3.84309743
O   2.17594538   20.49893749   -2.71239957
H   3.01060356   20.96502405   -2.90539138
H   2.05819126   19.92770732   -3.43386435
O   -8.88840111   6.32903065   -0.29744238
H   -8.20476340   5.81238661   -0.68132011
H   -8.92504666   6.08928378   0.64519172
O   4.86097001   -10.06752628   1.96742864
H   4.70207443   -10.56530759   1.13910321
H   4.10372058   -9.48944957   2.04231947
O   3.54734772   -14.92406190   0.43199960
H   3.91958203   -14.52981371   -0.38844552
H   3.15401551   -14.16886416   0.88055514
O   12.54108172   22.30094486   -1.12683979
H   12.32882884   22.54785570   -0.22576964
H   12.63327064   8.23809067   1.89116594
O   -16.70748496   -2.98338662   -3.38960188
H   -17.65665657   -2.89763020   -3.66142148
H   -16.30989947   -3.48879016   -4.10874788
O   13.06507809   0.81486365   -0.31290428
H   13.38389470   0.38754853   0.50331781
H   12.92841947   0.10627687   -0.90110848
O   -22.56573740   -14.41134922   -2.43025517
H   -21.95453534   -14.97417084   -2.01579658
H   -22.50842082   -14.64293178   -3.36640782
O   -36.03369390   0.71271303   -1.02705147
H   -36.34880133   1.29820968   -0.28755209
H   -36.74838724   0.13717783   -1.32494797
O   -1.91205297   19.80702330   0.50539140
H   -2.76612729   19.34992577   0.36336497
H   -3.88216796   22.92332230   -3.42438722
O   -23.32458028   27.96761060   -0.40217684
H   -23.36986349   28.59313185   -1.03604655
H   -23.29437459   27.15186693   -0.93509953
O   -7.29657043   4.29385331   -1.75440599
H   -6.33085364   4.24448060   -1.69021050
H   -7.54817718   3.50448144   -2.28966365
O   45.05204747   0.03199751   -3.09084794
H   44.93343896   0.39688455   -2.23747879
H   44.58399576   -0.78983489   -3.11992738
O   11.51003955   15.03999802   -3.63731475
H   11.57898298   15.92327588   -4.01580337
H   -3.66790990   20.33667926   -1.17388296
O   -2.09861996   -8.04982725   3.06041667
H   -1.65336271   -7.34874080   3.55863232
H   -1.93138495   -7.82372869   2.09648461
O   4.28785043   1.33181835   -0.77942834
H   4.65239691   0.93800809   -1.53867893
H   3.92333442   2.20416897   -1.10268997
O   11.32788443   -19.92904982   1.59431884
H   13.43101206   -17.53375415   -1.20590813
H   11.54530766   -20.04063213   0.64593022
O   -2.04071942   17.12687683   -1.72126062
H   -1.25439860   16.99301624   -1.09372239
H   -2.26597610   18.06312403   -1.82570363
O   0.44164331   10.33999937   3.57835564
H   -0.18674755   9.60582231   3.54122615
H   1.03035604   10.18894035   2.78888088
O   45.48524075   23.04642522   -0.57468500
H   45.14312453   23.84118387   -0.15943347
H   46.17728743   23.44738642   -1.13604746
O   -15.59786230   -9.79076791   1.11409339
H   -14.95637373   -10.27706894   1.59878032
H   -15.77167010   3.21231268   0.25947225
O   10.28822773   -8.95316441   1.52906743
H   10.95396570   -8.19023558   1.61070641
H   9.44561328   -8.60784170   1.87577870
O   -14.15251310   15.47464304   3.00580977
H   -14.57050051   15.99664114   3.72538944
H   -13.36371582   15.95424825   2.76954476
O   0.32649685   7.22499626   1.97409978
H   0.49342609   6.29906338   2.06614016
H   -0.38215197   7.35029591   1.33387229
O   -10.61030305   -0.25751602   -2.36132858
H   -11.41621649   0.28656339   -2.35862117
H   -10.96532659   -1.15189640   -2.35169109
O   10.42330668   8.11660100   -2.71356978
H   11.34468748   7.83464055   -2.78047325
H   10.14914348   8.53419198   -1.84545523
O   -22.36819592   -7.11369482   -2.32617136
H   8.13881557   -8.04301073   -2.08084461
H   -21.53262076   -6.89670452   -2.75301905
O   18.61515861   3.35721170   2.40605253
H   18.86050460   2.82719994   1.67432610
H   18.33056219   4.21905244   2.07494593
O   -4.66262004   -8.30632731   3.92492942
H   -3.77799961   -8.34837516   3.61727817
H   -5.09584267   -7.51362654   3.68652165
O   6.25697446   8.22166192   -0.88527524
H   -23.45124138   8.36081725   -0.19835939
H   6.86233647   7.90394967   -1.60796458
O   -30.90280347   3.97957775   0.70727116
H   -31.26937090   4.91400279   0.55288714
H   -0.08851015   -9.40645186   1.64226703
O   -19.97844060   11.41618263   -0.43423179
H   -20.86995415   10.99368078   -0.38240982
H   -19.44998568   11.13691815   0.34105407
O   4.03435028   36.13156064   -2.95684978
H   4.86173735   36.24700720   -3.43062611
H   3.67679074   36.90807415   -2.53783917
O   -16.53140468   -1.44672312   0.61301415
H   -16.38266706   -1.02973954   1.48661947
H   -17.17640825   -2.16290903   0.73707012
O   39.93603478   2.00583972   4.08653094
H   -14.98231244   3.94042794   -1.80441834
H   40.59328174   1.67531977   3.37981669
O   -1.71542737   2.68141307   3.41158528
H   -2.28158176   2.89883695   2.68049298
H   -1.77301816   3.42422708   4.02097149
O   6.32991780   -29.45077574   -3.88589420
H   5.63048571   -28.79237300   -3.66976489
H   6.69750332   -29.19840725   -4.72218827
O   -0.83263070   -4.03023633   -3.41125946
H   -0.71044005   -4.58155021   -2.60046281
H   -0.22251295   -3.26909866   -3.28822037
O   9.51944768   17.34925058   -1.27853543
H   10.26163235   17.15782615   -1.87794127
H   9.93083473   17.43050121   -0.35760608
O   -1.65213259   -47.62867343   -4.20477154
H   -2.22480078   -48.31531686   -3.77707416
H   -1.41368977   -46.97498159   -3.49310872
O   33.93305060   35.06387689   0.22056529
H   34.01470797   34.97085476   -0.74581918
H   34.77146400   35.42834888   0.46545371
O   6.52013622   6.78244106   2.15830290
H   6.73658671   6.66623891   1.19002928
H   6.71490292   5.91175859   2.50207855
O   14.09525129   33.18945230   2.22592368
H   14.04768314   32.28301618   1.83392695
H   13.16617234   33.48148627   2.11891952
O   -29.96421666   3.43174980   -3.86820934
H   -29.75286645   3.96179870   -4.63440047
H   -30.56553300   3.83006660   -3.25398968
O   -17.42000140   43.42223480   3.61944001
H   -17.87910086   44.26986328   3.37343281
H   -17.67142495   43.19999130   4.56900686
O   3.67385897   19.88628671   2.58284057
H   3.65551734   20.82452277   2.62617773
H   4.56110128   19.55384783   2.31084183
O   24.54529218   -24.15818368   -3.33409209
H   -5.18813319   -23.46328840   -3.36466230
H   25.02596436   -24.97659629   -3.17913346
O   -19.46518441   -11.76051727   1.53556809
H   -18.60193067   1.55794865   1.07929142
H   -19.82192889   -10.93527025   1.31070403
O   1.36946965   -2.31567555   -2.30240512
H   1.35914810   -1.38621941   -2.08628220
O   -15.15086665   3.45314123   -2.62531162
H   -16.08353854   3.06851362   -2.65245141
