844

C   -10.71333000   -5.92690000   -7.35910000
C   -8.17482000   -5.93982000   -7.30496000
C   -9.43022000   -5.19173000   -7.81526000
H   -8.19783000   -5.96086000   -6.18993000
H   -8.12246000   -2.97832000   -8.86002000
C   -8.14962000   -2.99993000   -7.74505000
C   -9.43478000   -3.73497000   -7.29340000
H   -9.40547000   -5.17227000   -8.93030000
C   -10.68712000   -2.98651000   -7.80971000
C   -11.97425000   -3.71856000   -7.35734000
C   -11.96934000   -5.18169000   -7.87336000
H   -11.94199000   -5.16590000   -8.98841000
H   -10.73840000   -5.94452000   -6.24413000
H   -9.46227000   -3.75447000   -6.17847000
H   -10.65852000   -2.96853000   -8.92462000
H   -12.00140000   -3.73444000   -6.24231000
C   -10.68919000   -1.52940000   -7.28845000
C   -8.15295000   -1.54416000   -7.21965000
C   -9.40184000   -0.79472000   -7.73700000
C   -11.93595000   -0.77895000   -7.80972000
H   -10.72095000   -1.54759000   -6.17361000
H   -8.18264000   -1.56563000   -6.10478000
H   -11.90194000   -0.76228000   -8.92482000
H   -9.37051000   -0.77515000   -8.85206000
C   -13.23147000   -1.50623000   -7.36368000
C   -13.23028000   -2.96893000   -7.87364000
C   -13.25689000   -5.91796000   -7.41929000
C   -14.45943000   -0.73497000   -7.88555000
C   -14.49942000   -3.71526000   -7.42109000
C   -14.49435000   -5.15859000   -7.93376000
H   -14.47293000   -0.73387000   -8.99771000
H   -13.27314000   -1.51852000   -6.25017000
H   -13.21022000   -2.95651000   -8.98776000
H   -14.57524000   -3.71670000   -6.31151000
H   -14.51542000   -5.15672000   -9.04571000
H   -13.29166000   -5.93005000   -6.30559000
C   -14.45173000   0.71018000   -7.37499000
C   -13.16991000   1.43047000   -7.80653000
C   -11.93179000   0.68201000   -7.29095000
C   -10.64780000   1.40669000   -7.73004000
C   -9.40433000   0.66373000   -7.21484000
C   -8.12063000   1.39251000   -7.65204000
H   -14.53319000   0.71770000   -6.26679000
H   -11.96587000   0.67774000   -6.17800000
H   -9.43776000   0.65686000   -6.10197000
H   -13.14632000   1.50122000   -8.91644000
H   -10.61361000   1.47548000   -8.84086000
H   -8.08742000   1.46518000   -8.76258000
C   -8.16980000   5.86211000   -7.82953000
C   -9.44881000   5.12614000   -7.36989000
C   -10.70565000   5.87374000   -7.87963000
H   -8.14922000   5.88298000   -8.94466000
C   -9.44200000   3.66718000   -7.89069000
H   -9.46989000   5.10750000   -6.25465000
C   -10.71624000   2.93781000   -7.43509000
C   -11.96970000   3.67532000   -7.93674000
C   -11.98396000   5.13671000   -7.41939000
H   -9.42303000   3.67310000   -9.00394000
H   -10.68365000   5.89146000   -8.99474000
H   -12.00457000   5.12063000   -6.30395000
H   -11.94925000   3.67892000   -9.05006000
H   -10.73635000   2.87010000   -6.32388000
C   -8.18756000   2.92587000   -7.39359000
H   -8.20524000   2.85504000   -6.28263000
C   -13.24837000   5.87714000   -7.92865000
C   -13.23938000   2.94026000   -7.48249000
C   -14.50853000   5.11906000   -7.46782000
C   -14.49074000   3.67352000   -7.97703000
H   -13.23515000   5.88914000   -9.04290000
H   -14.57686000   5.11892000   -6.35771000
H   -14.51749000   3.66596000   -9.08791000
H   -13.27121000   2.87025000   -6.37273000
C   -3.11433000   -5.92690000   -7.35910000
C   -0.57582000   -5.93982000   -7.30496000
C   -1.83122000   -5.19173000   -7.81526000
H   -0.59883000   -5.96086000   -6.18993000
H   -0.52346000   -2.97832000   -8.86002000
C   -0.55062000   -2.99993000   -7.74505000
C   -1.83578000   -3.73497000   -7.29340000
H   -1.80647000   -5.17227000   -8.93030000
C   -3.08812000   -2.98651000   -7.80971000
C   -4.37525000   -3.71856000   -7.35734000
C   -4.37034000   -5.18169000   -7.87336000
H   -4.34299000   -5.16590000   -8.98841000
H   -3.13940000   -5.94452000   -6.24413000
H   -1.86327000   -3.75447000   -6.17847000
H   -3.05952000   -2.96853000   -8.92462000
H   -4.40240000   -3.73444000   -6.24231000
C   -3.09019000   -1.52940000   -7.28845000
C   -0.55395000   -1.54416000   -7.21965000
C   -1.80284000   -0.79472000   -7.73700000
C   -4.33695000   -0.77895000   -7.80972000
H   -3.12195000   -1.54759000   -6.17361000
H   -0.58364000   -1.56563000   -6.10478000
H   -4.30294000   -0.76228000   -8.92482000
H   -1.77151000   -0.77515000   -8.85206000
C   -5.63247000   -1.50623000   -7.36368000
C   -5.63128000   -2.96893000   -7.87364000
C   -5.65789000   -5.91796000   -7.41929000
C   -6.86043000   -0.73497000   -7.88555000
C   -6.90042000   -3.71526000   -7.42109000
C   -6.89535000   -5.15859000   -7.93376000
H   -6.87393000   -0.73387000   -8.99771000
H   -5.67414000   -1.51852000   -6.25017000
H   -5.61122000   -2.95651000   -8.98776000
H   -6.97624000   -3.71670000   -6.31151000
H   -6.91642000   -5.15672000   -9.04571000
H   -5.69266000   -5.93005000   -6.30559000
C   -6.85273000   0.71018000   -7.37499000
C   -5.57091000   1.43047000   -7.80653000
C   -4.33279000   0.68201000   -7.29095000
C   -3.04880000   1.40669000   -7.73004000
C   -1.80533000   0.66373000   -7.21484000
C   -0.52163000   1.39251000   -7.65204000
H   -6.93419000   0.71770000   -6.26679000
H   -4.36687000   0.67774000   -6.17800000
H   -1.83876000   0.65686000   -6.10197000
H   -5.54732000   1.50122000   -8.91644000
H   -3.01461000   1.47548000   -8.84086000
H   -0.48842000   1.46518000   -8.76258000
C   -0.57080000   5.86211000   -7.82953000
C   -1.84981000   5.12614000   -7.36989000
C   -3.10665000   5.87374000   -7.87963000
H   -0.55022000   5.88298000   -8.94466000
C   -1.84300000   3.66718000   -7.89069000
H   -1.87089000   5.10750000   -6.25465000
C   -3.11724000   2.93781000   -7.43509000
C   -4.37070000   3.67532000   -7.93674000
C   -4.38496000   5.13671000   -7.41939000
H   -1.82403000   3.67310000   -9.00394000
H   -3.08465000   5.89146000   -8.99474000
H   -4.40557000   5.12063000   -6.30395000
H   -4.35025000   3.67892000   -9.05006000
H   -3.13735000   2.87010000   -6.32388000
C   -0.58856000   2.92587000   -7.39359000
H   -0.60624000   2.85504000   -6.28263000
C   -5.64937000   5.87714000   -7.92865000
C   -5.64038000   2.94026000   -7.48249000
C   -6.90953000   5.11906000   -7.46782000
C   -6.89174000   3.67352000   -7.97703000
H   -5.63615000   5.88914000   -9.04290000
H   -6.97786000   5.11892000   -6.35771000
H   -6.91849000   3.66596000   -9.08791000
H   -5.67221000   2.87025000   -6.37273000
C   4.48467000   -5.92690000   -7.35910000
C   7.02318000   -5.93982000   -7.30496000
C   5.76778000   -5.19173000   -7.81526000
H   7.00017000   -5.96086000   -6.18993000
H   7.07554000   -2.97832000   -8.86002000
C   7.04838000   -2.99993000   -7.74505000
C   5.76322000   -3.73497000   -7.29340000
H   5.79253000   -5.17227000   -8.93030000
C   4.51088000   -2.98651000   -7.80971000
C   3.22375000   -3.71856000   -7.35734000
C   3.22866000   -5.18169000   -7.87336000
H   3.25601000   -5.16590000   -8.98841000
H   4.45960000   -5.94452000   -6.24413000
H   5.73573000   -3.75447000   -6.17847000
H   4.53948000   -2.96853000   -8.92462000
H   3.19660000   -3.73444000   -6.24231000
C   4.50881000   -1.52940000   -7.28845000
C   7.04505000   -1.54416000   -7.21965000
C   5.79616000   -0.79472000   -7.73700000
C   3.26205000   -0.77895000   -7.80972000
H   4.47705000   -1.54759000   -6.17361000
H   7.01536000   -1.56563000   -6.10478000
H   3.29606000   -0.76228000   -8.92482000
H   5.82749000   -0.77515000   -8.85206000
C   1.96653000   -1.50623000   -7.36368000
C   1.96772000   -2.96893000   -7.87364000
C   1.94111000   -5.91796000   -7.41929000
C   0.73857000   -0.73497000   -7.88555000
C   0.69858000   -3.71526000   -7.42109000
C   0.70365000   -5.15859000   -7.93376000
H   0.72507000   -0.73387000   -8.99771000
H   1.92486000   -1.51852000   -6.25017000
H   1.98778000   -2.95651000   -8.98776000
H   0.62276000   -3.71670000   -6.31151000
H   0.68258000   -5.15672000   -9.04571000
H   1.90634000   -5.93005000   -6.30559000
C   0.74627000   0.71018000   -7.37499000
C   2.02809000   1.43047000   -7.80653000
C   3.26621000   0.68201000   -7.29095000
C   4.55020000   1.40669000   -7.73004000
C   5.79367000   0.66373000   -7.21484000
C   7.07737000   1.39251000   -7.65204000
H   0.66481000   0.71770000   -6.26679000
H   3.23213000   0.67774000   -6.17800000
H   5.76024000   0.65686000   -6.10197000
H   2.05168000   1.50122000   -8.91644000
H   4.58439000   1.47548000   -8.84086000
H   7.11058000   1.46518000   -8.76258000
C   7.02820000   5.86211000   -7.82953000
C   5.74919000   5.12614000   -7.36989000
C   4.49235000   5.87374000   -7.87963000
H   7.04878000   5.88298000   -8.94466000
C   5.75600000   3.66718000   -7.89069000
H   5.72811000   5.10750000   -6.25465000
C   4.48176000   2.93781000   -7.43509000
C   3.22830000   3.67532000   -7.93674000
C   3.21404000   5.13671000   -7.41939000
H   5.77497000   3.67310000   -9.00394000
H   4.51435000   5.89146000   -8.99474000
H   3.19343000   5.12063000   -6.30395000
H   3.24875000   3.67892000   -9.05006000
H   4.46165000   2.87010000   -6.32388000
C   7.01044000   2.92587000   -7.39359000
H   6.99276000   2.85504000   -6.28263000
C   1.94963000   5.87714000   -7.92865000
C   1.95862000   2.94026000   -7.48249000
C   0.68947000   5.11906000   -7.46782000
C   0.70726000   3.67352000   -7.97703000
H   1.96285000   5.88914000   -9.04290000
H   0.62114000   5.11892000   -6.35771000
H   0.68051000   3.66596000   -9.08791000
H   1.92679000   2.87025000   -6.37273000
C   12.08367000   -5.92690000   -7.35910000
C   14.62218000   -5.93982000   -7.30496000
C   13.36678000   -5.19173000   -7.81526000
H   14.59917000   -5.96086000   -6.18993000
H   14.67454000   -2.97832000   -8.86002000
C   14.64738000   -2.99993000   -7.74505000
C   13.36222000   -3.73497000   -7.29340000
H   13.39153000   -5.17227000   -8.93030000
C   12.10988000   -2.98651000   -7.80971000
C   10.82275000   -3.71856000   -7.35734000
C   10.82766000   -5.18169000   -7.87336000
H   10.85501000   -5.16590000   -8.98841000
H   12.05860000   -5.94452000   -6.24413000
H   13.33473000   -3.75447000   -6.17847000
H   12.13848000   -2.96853000   -8.92462000
H   10.79560000   -3.73444000   -6.24231000
C   12.10781000   -1.52940000   -7.28845000
C   14.64405000   -1.54416000   -7.21965000
C   13.39516000   -0.79472000   -7.73700000
C   10.86105000   -0.77895000   -7.80972000
H   12.07605000   -1.54759000   -6.17361000
H   14.61436000   -1.56563000   -6.10478000
H   10.89506000   -0.76228000   -8.92482000
H   13.42649000   -0.77515000   -8.85206000
C   9.56553000   -1.50623000   -7.36368000
C   9.56672000   -2.96893000   -7.87364000
C   9.54011000   -5.91796000   -7.41929000
C   8.33757000   -0.73497000   -7.88555000
C   8.29758000   -3.71526000   -7.42109000
C   8.30265000   -5.15859000   -7.93376000
H   8.32407000   -0.73387000   -8.99771000
H   9.52386000   -1.51852000   -6.25017000
H   9.58678000   -2.95651000   -8.98776000
H   8.22176000   -3.71670000   -6.31151000
H   8.28158000   -5.15672000   -9.04571000
H   9.50534000   -5.93005000   -6.30559000
C   8.34527000   0.71018000   -7.37499000
C   9.62709000   1.43047000   -7.80653000
C   10.86521000   0.68201000   -7.29095000
C   12.14920000   1.40669000   -7.73004000
C   13.39267000   0.66373000   -7.21484000
C   14.67637000   1.39251000   -7.65204000
H   8.26381000   0.71770000   -6.26679000
H   10.83113000   0.67774000   -6.17800000
H   13.35924000   0.65686000   -6.10197000
H   9.65068000   1.50122000   -8.91644000
H   12.18339000   1.47548000   -8.84086000
H   14.70958000   1.46518000   -8.76258000
C   14.62720000   5.86211000   -7.82953000
C   13.34819000   5.12614000   -7.36989000
C   12.09135000   5.87374000   -7.87963000
H   14.64778000   5.88298000   -8.94466000
C   13.35500000   3.66718000   -7.89069000
H   13.32711000   5.10750000   -6.25465000
C   12.08076000   2.93781000   -7.43509000
C   10.82730000   3.67532000   -7.93674000
C   10.81304000   5.13671000   -7.41939000
H   13.37397000   3.67310000   -9.00394000
H   12.11335000   5.89146000   -8.99474000
H   10.79243000   5.12063000   -6.30395000
H   10.84775000   3.67892000   -9.05006000
H   12.06065000   2.87010000   -6.32388000
C   14.60944000   2.92587000   -7.39359000
H   14.59176000   2.85504000   -6.28263000
C   9.54863000   5.87714000   -7.92865000
C   9.55762000   2.94026000   -7.48249000
C   8.28847000   5.11906000   -7.46782000
C   8.30626000   3.67352000   -7.97703000
H   9.56185000   5.88914000   -9.04290000
H   8.22014000   5.11892000   -6.35771000
H   8.27951000   3.66596000   -9.08791000
H   9.52579000   2.87025000   -6.37273000
C   -10.71333000   -5.92690000   7.64090000
C   -8.17482000   -5.93982000   7.69504000
C   -9.43022000   -5.19173000   7.18474000
H   -8.19783000   -5.96086000   8.81007000
H   -8.12246000   -2.97832000   6.13998000
C   -8.14962000   -2.99993000   7.25495000
C   -9.43478000   -3.73497000   7.70660000
H   -9.40547000   -5.17227000   6.06970000
C   -10.68712000   -2.98651000   7.19029000
C   -11.97425000   -3.71856000   7.64266000
C   -11.96934000   -5.18169000   7.12664000
H   -11.94199000   -5.16590000   6.01159000
H   -10.73840000   -5.94452000   8.75587000
H   -9.46227000   -3.75447000   8.82153000
H   -10.65852000   -2.96853000   6.07538000
H   -12.00140000   -3.73444000   8.75769000
C   -10.68919000   -1.52940000   7.71155000
C   -8.15295000   -1.54416000   7.78035000
C   -9.40184000   -0.79472000   7.26300000
C   -11.93595000   -0.77895000   7.19028000
H   -10.72095000   -1.54759000   8.82639000
H   -8.18264000   -1.56563000   8.89522000
H   -11.90194000   -0.76228000   6.07518000
H   -9.37051000   -0.77515000   6.14794000
C   -13.23147000   -1.50623000   7.63632000
C   -13.23028000   -2.96893000   7.12636000
C   -13.25689000   -5.91796000   7.58071000
C   -14.45943000   -0.73497000   7.11445000
C   -14.49942000   -3.71526000   7.57891000
C   -14.49435000   -5.15859000   7.06624000
H   -14.47293000   -0.73387000   6.00229000
H   -13.27314000   -1.51852000   8.74983000
H   -13.21022000   -2.95651000   6.01224000
H   -14.57524000   -3.71670000   8.68849000
H   -14.51542000   -5.15672000   5.95429000
H   -13.29166000   -5.93005000   8.69441000
C   -14.45173000   0.71018000   7.62501000
C   -13.16991000   1.43047000   7.19347000
C   -11.93179000   0.68201000   7.70905000
C   -10.64780000   1.40669000   7.26996000
C   -9.40433000   0.66373000   7.78516000
C   -8.12063000   1.39251000   7.34796000
H   -14.53319000   0.71770000   8.73321000
H   -11.96587000   0.67774000   8.82200000
H   -9.43776000   0.65686000   8.89803000
H   -13.14632000   1.50122000   6.08356000
H   -10.61361000   1.47548000   6.15914000
H   -8.08742000   1.46518000   6.23742000
C   -8.16980000   5.86211000   7.17047000
C   -9.44881000   5.12614000   7.63011000
C   -10.70565000   5.87374000   7.12037000
H   -8.14922000   5.88298000   6.05534000
C   -9.44200000   3.66718000   7.10931000
H   -9.46989000   5.10750000   8.74535000
C   -10.71624000   2.93781000   7.56491000
C   -11.96970000   3.67532000   7.06326000
C   -11.98396000   5.13671000   7.58061000
H   -9.42303000   3.67310000   5.99606000
H   -10.68365000   5.89146000   6.00526000
H   -12.00457000   5.12063000   8.69605000
H   -11.94925000   3.67892000   5.94994000
H   -10.73635000   2.87010000   8.67612000
C   -8.18756000   2.92587000   7.60641000
H   -8.20524000   2.85504000   8.71737000
C   -13.24837000   5.87714000   7.07135000
C   -13.23938000   2.94026000   7.51751000
C   -14.50853000   5.11906000   7.53218000
C   -14.49074000   3.67352000   7.02297000
H   -13.23515000   5.88914000   5.95710000
H   -14.57686000   5.11892000   8.64229000
H   -14.51749000   3.66596000   5.91209000
H   -13.27121000   2.87025000   8.62727000
C   -3.11433000   -5.92690000   7.64090000
C   -0.57582000   -5.93982000   7.69504000
C   -1.83122000   -5.19173000   7.18474000
H   -0.59883000   -5.96086000   8.81007000
H   -0.52346000   -2.97832000   6.13998000
C   -0.55062000   -2.99993000   7.25495000
C   -1.83578000   -3.73497000   7.70660000
H   -1.80647000   -5.17227000   6.06970000
C   -3.08812000   -2.98651000   7.19029000
C   -4.37525000   -3.71856000   7.64266000
C   -4.37034000   -5.18169000   7.12664000
H   -4.34299000   -5.16590000   6.01159000
H   -3.13940000   -5.94452000   8.75587000
H   -1.86327000   -3.75447000   8.82153000
H   -3.05952000   -2.96853000   6.07538000
H   -4.40240000   -3.73444000   8.75769000
C   -3.09019000   -1.52940000   7.71155000
C   -0.55395000   -1.54416000   7.78035000
C   -1.80284000   -0.79472000   7.26300000
C   -4.33695000   -0.77895000   7.19028000
H   -3.12195000   -1.54759000   8.82639000
H   -0.58364000   -1.56563000   8.89522000
H   -1.77151000   -0.77515000   6.14794000
C   -5.63247000   -1.50623000   7.63632000
C   -5.63128000   -2.96893000   7.12636000
C   -5.65789000   -5.91796000   7.58071000
C   -6.86043000   -0.73497000   7.11445000
C   -6.90042000   -3.71526000   7.57891000
C   -6.89535000   -5.15859000   7.06624000
H   -6.87393000   -0.73387000   6.00229000
H   -5.67414000   -1.51852000   8.74983000
H   -5.61122000   -2.95651000   6.01224000
H   -6.97624000   -3.71670000   8.68849000
H   -6.91642000   -5.15672000   5.95429000
H   -5.69266000   -5.93005000   8.69441000
C   -6.85273000   0.71018000   7.62501000
C   -5.57091000   1.43047000   7.19347000
C   -4.33279000   0.68201000   7.70905000
C   -3.04880000   1.40669000   7.26996000
C   -1.80533000   0.66373000   7.78516000
C   -0.52163000   1.39251000   7.34796000
H   -6.93419000   0.71770000   8.73321000
H   -4.36687000   0.67774000   8.82200000
H   -1.83876000   0.65686000   8.89803000
H   -5.54732000   1.50122000   6.08356000
H   -3.01461000   1.47548000   6.15914000
H   -0.48842000   1.46518000   6.23742000
C   -0.57080000   5.86211000   7.17047000
C   -1.84981000   5.12614000   7.63011000
C   -3.10665000   5.87374000   7.12037000
H   -0.55022000   5.88298000   6.05534000
C   -1.84300000   3.66718000   7.10931000
H   -1.87089000   5.10750000   8.74535000
C   -3.11724000   2.93781000   7.56491000
C   -4.37070000   3.67532000   7.06326000
C   -4.38496000   5.13671000   7.58061000
H   -1.82403000   3.67310000   5.99606000
H   -3.08465000   5.89146000   6.00526000
H   -4.40557000   5.12063000   8.69605000
H   -4.35025000   3.67892000   5.94994000
H   -3.13735000   2.87010000   8.67612000
C   -0.58856000   2.92587000   7.60641000
H   -0.60624000   2.85504000   8.71737000
C   -5.64937000   5.87714000   7.07135000
C   -5.64038000   2.94026000   7.51751000
C   -6.90953000   5.11906000   7.53218000
C   -6.89174000   3.67352000   7.02297000
H   -5.63615000   5.88914000   5.95710000
H   -6.97786000   5.11892000   8.64229000
H   -6.91849000   3.66596000   5.91209000
H   -5.67221000   2.87025000   8.62727000
C   4.48467000   -5.92690000   7.64090000
C   7.02318000   -5.93982000   7.69504000
C   5.76778000   -5.19173000   7.18474000
H   7.00017000   -5.96086000   8.81007000
H   7.07554000   -2.97832000   6.13998000
C   7.04838000   -2.99993000   7.25495000
C   5.76322000   -3.73497000   7.70660000
H   5.79253000   -5.17227000   6.06970000
C   4.51088000   -2.98651000   7.19029000
C   3.22375000   -3.71856000   7.64266000
C   3.22866000   -5.18169000   7.12664000
H   3.25601000   -5.16590000   6.01159000
H   4.45960000   -5.94452000   8.75587000
H   5.73573000   -3.75447000   8.82153000
H   4.53948000   -2.96853000   6.07538000
H   3.19660000   -3.73444000   8.75769000
C   4.50881000   -1.52940000   7.71155000
C   7.04505000   -1.54416000   7.78035000
C   5.79616000   -0.79472000   7.26300000
C   3.26205000   -0.77895000   7.19028000
H   4.47705000   -1.54759000   8.82639000
H   7.01536000   -1.56563000   8.89522000
H   3.29606000   -0.76228000   6.07518000
C   1.96653000   -1.50623000   7.63632000
C   1.96772000   -2.96893000   7.12636000
C   1.94111000   -5.91796000   7.58071000
C   0.73857000   -0.73497000   7.11445000
C   0.69858000   -3.71526000   7.57891000
C   0.70365000   -5.15859000   7.06624000
H   0.72507000   -0.73387000   6.00229000
H   1.92486000   -1.51852000   8.74983000
H   1.98778000   -2.95651000   6.01224000
H   0.62276000   -3.71670000   8.68849000
H   0.68258000   -5.15672000   5.95429000
H   1.90634000   -5.93005000   8.69441000
C   0.74627000   0.71018000   7.62501000
C   2.02809000   1.43047000   7.19347000
C   3.26621000   0.68201000   7.70905000
C   4.55020000   1.40669000   7.26996000
C   5.79367000   0.66373000   7.78516000
C   7.07737000   1.39251000   7.34796000
H   0.66481000   0.71770000   8.73321000
H   3.23213000   0.67774000   8.82200000
H   5.76024000   0.65686000   8.89803000
H   2.05168000   1.50122000   6.08356000
H   4.58439000   1.47548000   6.15914000
H   7.11058000   1.46518000   6.23742000
C   7.02820000   5.86211000   7.17047000
C   5.74919000   5.12614000   7.63011000
C   4.49235000   5.87374000   7.12037000
H   7.04878000   5.88298000   6.05534000
C   5.75600000   3.66718000   7.10931000
H   5.72811000   5.10750000   8.74535000
C   4.48176000   2.93781000   7.56491000
C   3.22830000   3.67532000   7.06326000
C   3.21404000   5.13671000   7.58061000
H   5.77497000   3.67310000   5.99606000
H   4.51435000   5.89146000   6.00526000
H   3.19343000   5.12063000   8.69605000
H   3.24875000   3.67892000   5.94994000
H   4.46165000   2.87010000   8.67612000
C   7.01044000   2.92587000   7.60641000
H   6.99276000   2.85504000   8.71737000
C   1.94963000   5.87714000   7.07135000
C   1.95862000   2.94026000   7.51751000
C   0.68947000   5.11906000   7.53218000
C   0.70726000   3.67352000   7.02297000
H   1.96285000   5.88914000   5.95710000
H   0.62114000   5.11892000   8.64229000
H   0.68051000   3.66596000   5.91209000
H   1.92679000   2.87025000   8.62727000
C   12.08367000   -5.92690000   7.64090000
C   14.62218000   -5.93982000   7.69504000
C   13.36678000   -5.19173000   7.18474000
H   14.59917000   -5.96086000   8.81007000
H   14.67454000   -2.97832000   6.13998000
C   14.64738000   -2.99993000   7.25495000
C   13.36222000   -3.73497000   7.70660000
H   13.39153000   -5.17227000   6.06970000
C   12.10988000   -2.98651000   7.19029000
C   10.82275000   -3.71856000   7.64266000
C   10.82766000   -5.18169000   7.12664000
H   10.85501000   -5.16590000   6.01159000
H   12.05860000   -5.94452000   8.75587000
H   13.33473000   -3.75447000   8.82153000
H   12.13848000   -2.96853000   6.07538000
H   10.79560000   -3.73444000   8.75769000
C   12.10781000   -1.52940000   7.71155000
C   14.64405000   -1.54416000   7.78035000
C   13.39516000   -0.79472000   7.26300000
C   10.86105000   -0.77895000   7.19028000
H   12.07605000   -1.54759000   8.82639000
H   14.61436000   -1.56563000   8.89522000
H   10.89506000   -0.76228000   6.07518000
H   13.42649000   -0.77515000   6.14794000
C   9.56553000   -1.50623000   7.63632000
C   9.56672000   -2.96893000   7.12636000
C   9.54011000   -5.91796000   7.58071000
C   8.33757000   -0.73497000   7.11445000
C   8.29758000   -3.71526000   7.57891000
C   8.30265000   -5.15859000   7.06624000
H   8.32407000   -0.73387000   6.00229000
H   9.52386000   -1.51852000   8.74983000
H   9.58678000   -2.95651000   6.01224000
H   8.22176000   -3.71670000   8.68849000
H   8.28158000   -5.15672000   5.95429000
H   9.50534000   -5.93005000   8.69441000
C   8.34527000   0.71018000   7.62501000
C   9.62709000   1.43047000   7.19347000
C   10.86521000   0.68201000   7.70905000
C   12.14920000   1.40669000   7.26996000
C   13.39267000   0.66373000   7.78516000
C   14.67637000   1.39251000   7.34796000
H   8.26381000   0.71770000   8.73321000
H   10.83113000   0.67774000   8.82200000
H   13.35924000   0.65686000   8.89803000
H   9.65068000   1.50122000   6.08356000
H   12.18339000   1.47548000   6.15914000
H   14.70958000   1.46518000   6.23742000
C   14.62720000   5.86211000   7.17047000
C   13.34819000   5.12614000   7.63011000
C   12.09135000   5.87374000   7.12037000
H   14.64778000   5.88298000   6.05534000
C   13.35500000   3.66718000   7.10931000
H   13.32711000   5.10750000   8.74535000
C   12.08076000   2.93781000   7.56491000
C   10.82730000   3.67532000   7.06326000
C   10.81304000   5.13671000   7.58061000
H   13.37397000   3.67310000   5.99606000
H   12.11335000   5.89146000   6.00526000
H   10.79243000   5.12063000   8.69605000
H   10.84775000   3.67892000   5.94994000
H   12.06065000   2.87010000   8.67612000
C   14.60944000   2.92587000   7.60641000
H   14.59176000   2.85504000   8.71737000
C   9.54863000   5.87714000   7.07135000
C   9.55762000   2.94026000   7.51751000
C   8.28847000   5.11906000   7.53218000
C   8.30626000   3.67352000   7.02297000
H   9.56185000   5.88914000   5.95710000
H   8.22014000   5.11892000   8.64229000
H   8.27951000   3.66596000   5.91209000
H   9.52579000   2.87025000   8.62727000
N   -4.67270973   -0.69001746   2.97849156
C   -5.19358398   -0.69708547   4.64096395
H   -5.70455912   0.26024765   4.59068254
H   -5.83141350   -1.63250635   4.66774315
C   -4.02872804   -0.79799442   5.58495972
H   -3.48098303   -1.68340085   5.26167281
H   -3.28465397   -0.03547127   5.43939139
C   -4.13131652   -2.00912248   2.70464064
H   -3.90984888   -2.16015594   1.68691098
H   -3.23321725   -2.33474063   3.28478798
H   -4.88471064   -2.80583135   2.96240156
C   -3.86845444   0.45631347   2.60498885
H   -3.03062237   0.55311461   3.34940447
H   -3.58060439   0.41243266   1.55264279
H   -4.46107110   1.34517758   2.70412707
C   -6.02354169   -0.53052954   2.27117756
H   -5.70323588   -0.43687591   1.22725943
H   -6.68875707   -1.38225754   2.40490652
H   -6.44369959   0.46409266   2.54758176
N   5.87301949   -0.91464487   3.02485128
C   6.19715885   -1.51795154   4.52693131
H   5.64515781   -2.49315606   4.55369160
H   7.32688141   -1.71729423   4.57160915
C   5.84569836   -0.58993753   5.64209995
H   6.41598038   0.28823877   5.40863450
H   4.82935623   -0.19184577   5.48066645
C   4.35461780   -0.59297694   2.97194100
H   4.25928823   0.31461869   3.57714390
H   4.04327054   -0.34560641   1.92169227
H   3.75005134   -1.38255420   3.35036226
C   6.34869823   -1.96456211   1.97415530
H   7.49046613   -2.02843491   1.83875681
H   5.95394569   -2.96603074   2.27876166
H   5.89169187   -1.79180514   1.04962164
C   6.70080732   0.27805414   2.83757178
H   6.38006650   1.13679039   3.47835354
H   7.75217680   0.04399473   2.90917181
H   6.64902381   0.65484262   1.78997052
O   -8.92352351   -20.99140018   0.99881442
H   -8.51545512   -21.27028198   1.79433740
H   -8.28238578   -20.51000513   0.51182336
O   -13.63293894   -7.25497956   -3.32098018
H   -12.83306393   -7.58428154   -3.63934486
H   -42.16158407   -24.59600958   -0.43257711
O   -38.12582783   -0.50996583   -3.55700238
H   -37.22175466   -0.58794126   -3.15196889
H   -38.06726333   -1.43609574   -3.84939589
O   -17.28525603   -6.09327922   3.04717611
H   -17.48227770   -5.99050346   2.11516829
H   -16.38770963   -6.32131132   3.19785507
O   -38.33554449   3.30150450   -3.33839739
H   -38.58480611   3.25849923   -4.27197313
H   -38.17624582   2.42636109   -3.05094663
O   -15.06205562   -7.58765993   2.89274475
H   -14.66967426   -7.12900093   2.10225362
H   -15.39212263   -8.43509936   2.52703730
O   -29.09923539   17.12076153   -2.76895213
H   25.91032071   -5.31541554   -2.22656066
H   -28.93796432   16.53461632   -2.05720735
O   -8.60053281   -11.26129072   3.31100287
H   -9.46838550   -11.47916070   2.93079943
H   -7.94135263   -11.05374155   2.66598604
O   -39.16681100   -19.12108076   -1.55815271
H   -38.63611614   -19.29822085   -2.32309171
H   -40.02536416   -19.60710365   -1.61879099
O   -9.60095465   -14.05610969   -1.34674988
H   -10.49107778   -13.70817915   -1.51009920
H   -9.12496209   -14.12157449   -2.19932057
O   -41.79378511   -22.55933308   -3.26430138
H   -41.82016512   -22.14313916   -2.36773587
H   -42.46922412   -23.16806535   -3.12394006
O   -41.41185529   -24.47565271   -0.96313143
H   -41.60014030   -24.82521303   -1.83717314
H   -29.95206731   17.55729886   -2.67810498
O   -1.46067193   -26.61501814   -0.61721866
H   -0.88883096   -27.10399086   -1.23944948
H   -1.63579516   -25.79342667   -1.08447733
O   -38.30099214   -36.47835877   -0.59645523
H   -14.39480559   -7.83064076   -3.45402397
H   -38.80389888   -36.49617694   -1.42301153
O   -18.43180410   -2.68114152   -1.18248914
H   -17.67198557   -2.85978270   -0.59327827
H   -19.08428382   -2.72802384   -0.54196647
O   11.65291858   18.94366247   -3.95065187
H   10.69858329   19.05170453   -4.22488110
H   11.90492983   19.84844246   -3.63682376
O   3.83369871   8.79697407   0.28722428
H   4.83586393   8.95364358   0.26079426
H   3.86065931   7.99021027   0.84644668
O   -23.97973442   -17.89888304   0.66233500
H   -23.82988834   -18.66308894   0.05882249
H   -22.98218274   -17.61385903   0.93695782
O   -13.37380408   7.09916534   0.85816526
H   -12.59829471   7.69264518   0.69535759
H   -14.11427391   7.67479877   0.86020965
O   -13.06001124   -4.58284984   -2.15866742
H   -13.30456948   7.91532387   -1.96451233
H   -12.51003839   -4.29894937   -1.41718085
O   -7.09952648   -3.77522776   3.69555126
H   -7.03207042   -3.99482811   2.72842928
H   -7.96850587   -4.13636524   3.88742905
O   -31.31426898   -6.97992024   2.02935519
H   -23.35984277   -20.07526557   -2.96453474
H   -31.95546979   -6.89160215   2.72467148
O   -6.71733037   -42.72967087   0.55422911
H   -7.43829086   -43.16858010   0.09781437
H   -6.01362041   -43.44169788   0.67095073
O   14.84139582   -4.64656964   -0.43971340
H   15.11854615   -3.78529258   -0.65747897
H   15.06894691   -5.25603163   -1.16693677
O   -5.20741786   12.09325053   -2.27123945
H   -5.53229997   12.25468962   -1.37850230
H   -5.49404577   11.18449754   -2.46713836
O   29.99067054   2.47407432   3.51834438
H   30.35842597   1.83749083   2.96495569
H   30.22845195   3.43296843   3.28342542
O   -13.41469916   -22.71372951   -0.75452487
H   -12.45494662   -22.71955632   -0.46358854
H   -13.70915885   -21.89076468   -0.49694711
O   -11.40558879   -4.12401836   0.12543972
H   -10.48938795   -4.01738900   0.47820681
H   13.08132375   -0.29874563   -3.01415526
O   3.91091420   -17.39426268   3.40765708
H   3.46050379   -18.09660271   3.85873273
H   3.56747069   -17.29340424   2.47843550
O   12.88933991   1.71220584   0.63539950
H   12.28155545   1.62423829   1.40550831
H   12.21791340   15.35198582   -0.01382084
O   -22.12234374   -19.71389258   3.00974935
H   8.29675589   -19.71183622   3.99654801
H   -21.60447749   -19.00055865   2.68942815
O   -22.44365911   -29.08982986   -1.06711367
H   -21.83228645   -29.85148255   -1.20201272
H   -23.09619447   -29.33426422   -0.42701044
O   -1.14519296   31.50332035   -1.30894713
H   -1.78736446   32.05437931   -0.93942658
H   -0.96193859   30.74709873   -0.74650694
O   -28.88646363   7.57589016   3.08952363
H   -29.52015206   6.87365740   2.97619937
H   -28.72179716   7.91332407   2.17494175
O   -4.61866087   9.01795452   0.72271491
H   -0.39447485   -2.28782571   -3.06927423
H   -4.04740428   9.13321803   1.54908696
O   4.51528332   -13.70798893   -0.56264637
H   5.10358890   -14.21239484   -1.06230494
H   4.26304126   -12.97006714   -1.07346461
O   25.18313942   18.54911621   1.84233968
H   -5.95569670   19.08868588   1.95924598
H   -4.63967546   18.99227509   1.14560666
O   2.19984591   19.88180864   -3.43942219
H   1.93007693   19.07220033   -2.98393565
H   2.67763547   20.39966949   -2.81661908
O   -7.22339339   14.21968130   -0.57769670
H   -7.38510200   15.15705988   -0.72983395
H   -8.02592538   13.78260505   -0.80140684
O   -12.64572845   -16.49641926   2.53972408
H   -12.92196973   -15.61299785   2.83945918
H   -13.05270534   -17.08688529   3.20466147
O   7.70580984   5.70502275   0.36049634
H   7.67283760   5.01223319   0.98257176
H   7.76093941   6.46899125   0.94653978
O   -22.29792188   -35.21400823   -4.14350728
H   -22.73516781   -35.78017586   -4.81820347
H   -22.94064416   -35.17499131   -3.45178514
O   -18.50838489   16.41277060   -2.10634226
H   -19.34477359   15.93468122   -2.28720762
H   -18.44802339   17.09670510   -2.81225119
O   -43.84287186   -1.43126534   -3.89559263
H   -44.17086919   -2.06002583   -3.21019390
H   -44.71059002   -1.09143139   -4.28084356
O   -15.03520814   1.25974896   -2.35149784
H   -14.69264031   1.44085937   -1.48619097
H   -15.80404282   1.77138587   -2.41218060
O   -14.81895733   -15.20909802   -1.07489482
H   -14.03489237   -14.82767041   -1.44749435
H   -15.57556022   -14.78750804   -1.52534391
O   -27.62099203   -10.17036780   1.65239459
H   -27.15614262   -9.34562076   1.41738115
H   -28.46410370   -10.10682167   1.19964293
O   9.70352028   -1.25116831   1.11388591
H   9.46951614   -2.21122412   0.84988232
H   10.63140535   12.07619090   1.43588212
O   -33.57981597   -6.41005596   0.21722445
H   -33.54606050   -6.46162582   -0.72691608
H   -34.07578282   -5.50911963   0.37419913
O   1.72654292   0.13287905   0.17761981
H   0.96659793   -0.38586856   -0.10626586
H   2.48585739   -0.29263012   -0.16878208
O   -22.18015519   -3.71302556   3.91245453
H   -21.88494840   -3.47869087   2.98340812
H   -22.81809090   -4.32778033   3.68923997
O   -3.49442479   -1.47599687   -0.17916783
H   -2.85945644   -0.83206406   -0.47393184
H   -3.16951134   -2.31840853   -0.47870911
O   -25.58986980   5.98301236   -0.38091948
H   -24.90283809   5.30644752   -0.25055454
H   -25.16336029   -6.70576902   -0.90306186
O   -0.30400208   -2.15458727   -2.05429542
H   -0.85884317   -2.91071594   -1.77733996
H   -11.92545596   -3.61195294   0.72319764
O   13.80019015   4.88480785   0.12791895
H   12.93342456   4.96931239   -0.27547569
H   14.00137866   3.90086917   0.01788931
O   -12.31298719   -12.28573987   -3.31516425
H   -12.20302977   -12.28381643   -4.27775874
H   -12.81458278   -13.15907692   -3.17096989
O   7.96838838   16.51468635   3.10610916
H   8.91093802   16.37345143   2.95062146
H   7.92766620   17.03291252   3.89587508
O   -30.28427130   2.33972134   0.23955146
H   -29.64151927   1.82151844   -0.15227211
H   -30.61981077   1.96345936   1.07486417
O   -37.30377080   -18.86353265   1.23029547
H   -37.79251049   -18.20490760   0.63244115
H   -36.37362775   -18.56774583   0.93769563
O   -39.70877166   -3.65793434   1.74410943
H   -40.30099157   -3.19360100   2.31068361
H   -38.87120664   -3.18652651   1.71515787
O   -19.04425868   -17.13905157   2.28128500
H   -18.82092480   -17.87332237   2.93871684
H   -19.95978122   -17.27503880   1.89869589
O   -21.61434336   -30.79390062   1.27980169
H   -31.73376525   -33.38796341   1.21335538
H   -21.15280730   -31.39373041   0.64269819
O   13.33866359   -1.14862765   -2.71884760
H   -5.56832597   3.32618089   1.88349822
H   12.49041232   -1.48129596   -2.40073308
O   -15.12871470   12.42958186   1.87740761
H   -14.52696672   11.75561186   1.53132029
H   -15.52537507   12.81504722   1.12867790
O   -1.99587476   -4.05096031   -3.39834185
H   -2.04811828   -4.90633208   -3.88204949
H   -2.86307200   -3.91633364   -2.93627751
O   -50.13601749   -11.69197124   2.87767585
H   -49.50894418   -11.11455796   3.33999552
H   -49.92418808   -12.52713243   3.31778904
O   -25.54727571   18.01018171   -3.24756578
H   -25.63046808   18.67437025   -2.52352864
H   -26.38147209   17.82941643   -3.71371501
O   -3.44430409   -19.98397884   3.33856754
H   -3.36062588   -19.57339392   2.50858232
H   -4.24247309   -20.60712368   3.29166967
O   -18.48144757   -14.25805914   3.90994215
H   -19.11461062   -14.94685303   4.01978966
H   -17.68506089   -14.48517775   3.42710677
O   -16.25601189   -3.43936890   3.26856259
H   -17.03697839   -3.91249906   3.60665529
H   -16.37629771   -3.44318692   2.30363500
O   3.36541371   2.38889943   -0.89827918
H   3.95596689   2.93211901   -1.43261584
H   3.52283730   2.43483239   0.06919122
O   -37.09567336   -20.37833255   3.75607225
H   -37.64175841   -19.82859255   3.21570703
H   -36.98924235   -19.91702943   4.61820965
O   -18.09247629   -18.58961325   -3.24821993
H   -18.75012373   -17.96823023   -2.84686944
H   -17.55380938   -18.00358404   -3.70999625
O   -4.51468475   5.33213228   -3.18276145
H   -5.22296579   4.96927972   -2.68582510
H   -3.71943888   5.01694424   -2.79393673
O   -6.63901997   10.06435932   -3.43413923
H   -6.41701053   9.59626297   -2.59985615
H   -5.95669550   9.89594082   -4.03226298
O   -24.25285302   -19.73811807   -2.67743655
H   -38.74772979   -22.71995895   0.12249357
H   -24.90733824   -19.84453677   -3.34700688
O   25.68847725   -4.40854952   -2.00568763
H   25.73520076   -4.30546623   -1.04537206
O   -36.57189177   2.63430049   1.55188883
H   -36.76931341   3.05093447   0.73824777
