844

C   -10.71333000   -5.92690000   -7.35910000
C   -8.17482000   -5.93982000   -7.30496000
C   -9.43022000   -5.19173000   -7.81526000
H   -8.19783000   -5.96086000   -6.18993000
H   -8.12246000   -2.97832000   -8.86002000
C   -8.14962000   -2.99993000   -7.74505000
C   -9.43478000   -3.73497000   -7.29340000
H   -9.40547000   -5.17227000   -8.93030000
C   -10.68712000   -2.98651000   -7.80971000
C   -11.97425000   -3.71856000   -7.35734000
C   -11.96934000   -5.18169000   -7.87336000
H   -11.94199000   -5.16590000   -8.98841000
H   -10.73840000   -5.94452000   -6.24413000
H   -9.46227000   -3.75447000   -6.17847000
H   -10.65852000   -2.96853000   -8.92462000
H   -12.00140000   -3.73444000   -6.24231000
C   -10.68919000   -1.52940000   -7.28845000
C   -8.15295000   -1.54416000   -7.21965000
C   -9.40184000   -0.79472000   -7.73700000
C   -11.93595000   -0.77895000   -7.80972000
H   -10.72095000   -1.54759000   -6.17361000
H   -8.18264000   -1.56563000   -6.10478000
H   -11.90194000   -0.76228000   -8.92482000
H   -9.37051000   -0.77515000   -8.85206000
C   -13.23147000   -1.50623000   -7.36368000
C   -13.23028000   -2.96893000   -7.87364000
C   -13.25689000   -5.91796000   -7.41929000
C   -14.45943000   -0.73497000   -7.88555000
C   -14.49942000   -3.71526000   -7.42109000
C   -14.49435000   -5.15859000   -7.93376000
H   -14.47293000   -0.73387000   -8.99771000
H   -13.27314000   -1.51852000   -6.25017000
H   -13.21022000   -2.95651000   -8.98776000
H   -14.57524000   -3.71670000   -6.31151000
H   -14.51542000   -5.15672000   -9.04571000
H   -13.29166000   -5.93005000   -6.30559000
C   -14.45173000   0.71018000   -7.37499000
C   -13.16991000   1.43047000   -7.80653000
C   -11.93179000   0.68201000   -7.29095000
C   -10.64780000   1.40669000   -7.73004000
C   -9.40433000   0.66373000   -7.21484000
C   -8.12063000   1.39251000   -7.65204000
H   -14.53319000   0.71770000   -6.26679000
H   -11.96587000   0.67774000   -6.17800000
H   -9.43776000   0.65686000   -6.10197000
H   -13.14632000   1.50122000   -8.91644000
H   -10.61361000   1.47548000   -8.84086000
H   -8.08742000   1.46518000   -8.76258000
C   -8.16980000   5.86211000   -7.82953000
C   -9.44881000   5.12614000   -7.36989000
C   -10.70565000   5.87374000   -7.87963000
H   -8.14922000   5.88298000   -8.94466000
C   -9.44200000   3.66718000   -7.89069000
H   -9.46989000   5.10750000   -6.25465000
C   -10.71624000   2.93781000   -7.43509000
C   -11.96970000   3.67532000   -7.93674000
C   -11.98396000   5.13671000   -7.41939000
H   -9.42303000   3.67310000   -9.00394000
H   -10.68365000   5.89146000   -8.99474000
H   -12.00457000   5.12063000   -6.30395000
H   -11.94925000   3.67892000   -9.05006000
H   -10.73635000   2.87010000   -6.32388000
C   -8.18756000   2.92587000   -7.39359000
H   -8.20524000   2.85504000   -6.28263000
C   -13.24837000   5.87714000   -7.92865000
C   -13.23938000   2.94026000   -7.48249000
C   -14.50853000   5.11906000   -7.46782000
C   -14.49074000   3.67352000   -7.97703000
H   -13.23515000   5.88914000   -9.04290000
H   -14.57686000   5.11892000   -6.35771000
H   -14.51749000   3.66596000   -9.08791000
H   -13.27121000   2.87025000   -6.37273000
C   -3.11433000   -5.92690000   -7.35910000
C   -0.57582000   -5.93982000   -7.30496000
C   -1.83122000   -5.19173000   -7.81526000
H   -0.59883000   -5.96086000   -6.18993000
H   -0.52346000   -2.97832000   -8.86002000
C   -0.55062000   -2.99993000   -7.74505000
C   -1.83578000   -3.73497000   -7.29340000
H   -1.80647000   -5.17227000   -8.93030000
C   -3.08812000   -2.98651000   -7.80971000
C   -4.37525000   -3.71856000   -7.35734000
C   -4.37034000   -5.18169000   -7.87336000
H   -4.34299000   -5.16590000   -8.98841000
H   -3.13940000   -5.94452000   -6.24413000
H   -1.86327000   -3.75447000   -6.17847000
H   -3.05952000   -2.96853000   -8.92462000
H   -4.40240000   -3.73444000   -6.24231000
C   -3.09019000   -1.52940000   -7.28845000
C   -0.55395000   -1.54416000   -7.21965000
C   -1.80284000   -0.79472000   -7.73700000
C   -4.33695000   -0.77895000   -7.80972000
H   -3.12195000   -1.54759000   -6.17361000
H   -0.58364000   -1.56563000   -6.10478000
H   -4.30294000   -0.76228000   -8.92482000
H   -1.77151000   -0.77515000   -8.85206000
C   -5.63247000   -1.50623000   -7.36368000
C   -5.63128000   -2.96893000   -7.87364000
C   -5.65789000   -5.91796000   -7.41929000
C   -6.86043000   -0.73497000   -7.88555000
C   -6.90042000   -3.71526000   -7.42109000
C   -6.89535000   -5.15859000   -7.93376000
H   -6.87393000   -0.73387000   -8.99771000
H   -5.67414000   -1.51852000   -6.25017000
H   -5.61122000   -2.95651000   -8.98776000
H   -6.97624000   -3.71670000   -6.31151000
H   -6.91642000   -5.15672000   -9.04571000
H   -5.69266000   -5.93005000   -6.30559000
C   -6.85273000   0.71018000   -7.37499000
C   -5.57091000   1.43047000   -7.80653000
C   -4.33279000   0.68201000   -7.29095000
C   -3.04880000   1.40669000   -7.73004000
C   -1.80533000   0.66373000   -7.21484000
C   -0.52163000   1.39251000   -7.65204000
H   -6.93419000   0.71770000   -6.26679000
H   -4.36687000   0.67774000   -6.17800000
H   -1.83876000   0.65686000   -6.10197000
H   -5.54732000   1.50122000   -8.91644000
H   -3.01461000   1.47548000   -8.84086000
H   -0.48842000   1.46518000   -8.76258000
C   -0.57080000   5.86211000   -7.82953000
C   -1.84981000   5.12614000   -7.36989000
C   -3.10665000   5.87374000   -7.87963000
H   -0.55022000   5.88298000   -8.94466000
C   -1.84300000   3.66718000   -7.89069000
H   -1.87089000   5.10750000   -6.25465000
C   -3.11724000   2.93781000   -7.43509000
C   -4.37070000   3.67532000   -7.93674000
C   -4.38496000   5.13671000   -7.41939000
H   -1.82403000   3.67310000   -9.00394000
H   -3.08465000   5.89146000   -8.99474000
H   -4.40557000   5.12063000   -6.30395000
H   -4.35025000   3.67892000   -9.05006000
H   -3.13735000   2.87010000   -6.32388000
C   -0.58856000   2.92587000   -7.39359000
H   -0.60624000   2.85504000   -6.28263000
C   -5.64937000   5.87714000   -7.92865000
C   -5.64038000   2.94026000   -7.48249000
C   -6.90953000   5.11906000   -7.46782000
C   -6.89174000   3.67352000   -7.97703000
H   -5.63615000   5.88914000   -9.04290000
H   -6.97786000   5.11892000   -6.35771000
H   -6.91849000   3.66596000   -9.08791000
H   -5.67221000   2.87025000   -6.37273000
C   4.48467000   -5.92690000   -7.35910000
C   7.02318000   -5.93982000   -7.30496000
C   5.76778000   -5.19173000   -7.81526000
H   7.00017000   -5.96086000   -6.18993000
H   7.07554000   -2.97832000   -8.86002000
C   7.04838000   -2.99993000   -7.74505000
C   5.76322000   -3.73497000   -7.29340000
H   5.79253000   -5.17227000   -8.93030000
C   4.51088000   -2.98651000   -7.80971000
C   3.22375000   -3.71856000   -7.35734000
C   3.22866000   -5.18169000   -7.87336000
H   3.25601000   -5.16590000   -8.98841000
H   4.45960000   -5.94452000   -6.24413000
H   5.73573000   -3.75447000   -6.17847000
H   4.53948000   -2.96853000   -8.92462000
H   3.19660000   -3.73444000   -6.24231000
C   4.50881000   -1.52940000   -7.28845000
C   7.04505000   -1.54416000   -7.21965000
C   5.79616000   -0.79472000   -7.73700000
C   3.26205000   -0.77895000   -7.80972000
H   4.47705000   -1.54759000   -6.17361000
H   7.01536000   -1.56563000   -6.10478000
H   3.29606000   -0.76228000   -8.92482000
H   5.82749000   -0.77515000   -8.85206000
C   1.96653000   -1.50623000   -7.36368000
C   1.96772000   -2.96893000   -7.87364000
C   1.94111000   -5.91796000   -7.41929000
C   0.73857000   -0.73497000   -7.88555000
C   0.69858000   -3.71526000   -7.42109000
C   0.70365000   -5.15859000   -7.93376000
H   0.72507000   -0.73387000   -8.99771000
H   1.92486000   -1.51852000   -6.25017000
H   1.98778000   -2.95651000   -8.98776000
H   0.62276000   -3.71670000   -6.31151000
H   0.68258000   -5.15672000   -9.04571000
H   1.90634000   -5.93005000   -6.30559000
C   0.74627000   0.71018000   -7.37499000
C   2.02809000   1.43047000   -7.80653000
C   3.26621000   0.68201000   -7.29095000
C   4.55020000   1.40669000   -7.73004000
C   5.79367000   0.66373000   -7.21484000
C   7.07737000   1.39251000   -7.65204000
H   0.66481000   0.71770000   -6.26679000
H   3.23213000   0.67774000   -6.17800000
H   5.76024000   0.65686000   -6.10197000
H   2.05168000   1.50122000   -8.91644000
H   4.58439000   1.47548000   -8.84086000
H   7.11058000   1.46518000   -8.76258000
C   7.02820000   5.86211000   -7.82953000
C   5.74919000   5.12614000   -7.36989000
C   4.49235000   5.87374000   -7.87963000
H   7.04878000   5.88298000   -8.94466000
C   5.75600000   3.66718000   -7.89069000
H   5.72811000   5.10750000   -6.25465000
C   4.48176000   2.93781000   -7.43509000
C   3.22830000   3.67532000   -7.93674000
C   3.21404000   5.13671000   -7.41939000
H   5.77497000   3.67310000   -9.00394000
H   4.51435000   5.89146000   -8.99474000
H   3.19343000   5.12063000   -6.30395000
H   3.24875000   3.67892000   -9.05006000
H   4.46165000   2.87010000   -6.32388000
C   7.01044000   2.92587000   -7.39359000
H   6.99276000   2.85504000   -6.28263000
C   1.94963000   5.87714000   -7.92865000
C   1.95862000   2.94026000   -7.48249000
C   0.68947000   5.11906000   -7.46782000
C   0.70726000   3.67352000   -7.97703000
H   1.96285000   5.88914000   -9.04290000
H   0.62114000   5.11892000   -6.35771000
H   0.68051000   3.66596000   -9.08791000
H   1.92679000   2.87025000   -6.37273000
C   12.08367000   -5.92690000   -7.35910000
C   14.62218000   -5.93982000   -7.30496000
C   13.36678000   -5.19173000   -7.81526000
H   14.59917000   -5.96086000   -6.18993000
H   14.67454000   -2.97832000   -8.86002000
C   14.64738000   -2.99993000   -7.74505000
C   13.36222000   -3.73497000   -7.29340000
H   13.39153000   -5.17227000   -8.93030000
C   12.10988000   -2.98651000   -7.80971000
C   10.82275000   -3.71856000   -7.35734000
C   10.82766000   -5.18169000   -7.87336000
H   10.85501000   -5.16590000   -8.98841000
H   12.05860000   -5.94452000   -6.24413000
H   13.33473000   -3.75447000   -6.17847000
H   12.13848000   -2.96853000   -8.92462000
H   10.79560000   -3.73444000   -6.24231000
C   12.10781000   -1.52940000   -7.28845000
C   14.64405000   -1.54416000   -7.21965000
C   13.39516000   -0.79472000   -7.73700000
C   10.86105000   -0.77895000   -7.80972000
H   12.07605000   -1.54759000   -6.17361000
H   14.61436000   -1.56563000   -6.10478000
H   10.89506000   -0.76228000   -8.92482000
H   13.42649000   -0.77515000   -8.85206000
C   9.56553000   -1.50623000   -7.36368000
C   9.56672000   -2.96893000   -7.87364000
C   9.54011000   -5.91796000   -7.41929000
C   8.33757000   -0.73497000   -7.88555000
C   8.29758000   -3.71526000   -7.42109000
C   8.30265000   -5.15859000   -7.93376000
H   8.32407000   -0.73387000   -8.99771000
H   9.52386000   -1.51852000   -6.25017000
H   9.58678000   -2.95651000   -8.98776000
H   8.22176000   -3.71670000   -6.31151000
H   8.28158000   -5.15672000   -9.04571000
H   9.50534000   -5.93005000   -6.30559000
C   8.34527000   0.71018000   -7.37499000
C   9.62709000   1.43047000   -7.80653000
C   10.86521000   0.68201000   -7.29095000
C   12.14920000   1.40669000   -7.73004000
C   13.39267000   0.66373000   -7.21484000
C   14.67637000   1.39251000   -7.65204000
H   8.26381000   0.71770000   -6.26679000
H   10.83113000   0.67774000   -6.17800000
H   13.35924000   0.65686000   -6.10197000
H   9.65068000   1.50122000   -8.91644000
H   12.18339000   1.47548000   -8.84086000
H   14.70958000   1.46518000   -8.76258000
C   14.62720000   5.86211000   -7.82953000
C   13.34819000   5.12614000   -7.36989000
C   12.09135000   5.87374000   -7.87963000
H   14.64778000   5.88298000   -8.94466000
C   13.35500000   3.66718000   -7.89069000
H   13.32711000   5.10750000   -6.25465000
C   12.08076000   2.93781000   -7.43509000
C   10.82730000   3.67532000   -7.93674000
C   10.81304000   5.13671000   -7.41939000
H   13.37397000   3.67310000   -9.00394000
H   12.11335000   5.89146000   -8.99474000
H   10.79243000   5.12063000   -6.30395000
H   10.84775000   3.67892000   -9.05006000
H   12.06065000   2.87010000   -6.32388000
C   14.60944000   2.92587000   -7.39359000
H   14.59176000   2.85504000   -6.28263000
C   9.54863000   5.87714000   -7.92865000
C   9.55762000   2.94026000   -7.48249000
C   8.28847000   5.11906000   -7.46782000
C   8.30626000   3.67352000   -7.97703000
H   9.56185000   5.88914000   -9.04290000
H   8.22014000   5.11892000   -6.35771000
H   8.27951000   3.66596000   -9.08791000
H   9.52579000   2.87025000   -6.37273000
C   -10.71333000   -5.92690000   7.64090000
C   -8.17482000   -5.93982000   7.69504000
C   -9.43022000   -5.19173000   7.18474000
H   -8.19783000   -5.96086000   8.81007000
H   -8.12246000   -2.97832000   6.13998000
C   -8.14962000   -2.99993000   7.25495000
C   -9.43478000   -3.73497000   7.70660000
H   -9.40547000   -5.17227000   6.06970000
C   -10.68712000   -2.98651000   7.19029000
C   -11.97425000   -3.71856000   7.64266000
C   -11.96934000   -5.18169000   7.12664000
H   -11.94199000   -5.16590000   6.01159000
H   -10.73840000   -5.94452000   8.75587000
H   -9.46227000   -3.75447000   8.82153000
H   -10.65852000   -2.96853000   6.07538000
H   -12.00140000   -3.73444000   8.75769000
C   -10.68919000   -1.52940000   7.71155000
C   -8.15295000   -1.54416000   7.78035000
C   -9.40184000   -0.79472000   7.26300000
C   -11.93595000   -0.77895000   7.19028000
H   -10.72095000   -1.54759000   8.82639000
H   -8.18264000   -1.56563000   8.89522000
H   -11.90194000   -0.76228000   6.07518000
H   -9.37051000   -0.77515000   6.14794000
C   -13.23147000   -1.50623000   7.63632000
C   -13.23028000   -2.96893000   7.12636000
C   -13.25689000   -5.91796000   7.58071000
C   -14.45943000   -0.73497000   7.11445000
C   -14.49942000   -3.71526000   7.57891000
C   -14.49435000   -5.15859000   7.06624000
H   -14.47293000   -0.73387000   6.00229000
H   -13.27314000   -1.51852000   8.74983000
H   -13.21022000   -2.95651000   6.01224000
H   -14.57524000   -3.71670000   8.68849000
H   -14.51542000   -5.15672000   5.95429000
H   -13.29166000   -5.93005000   8.69441000
C   -14.45173000   0.71018000   7.62501000
C   -13.16991000   1.43047000   7.19347000
C   -11.93179000   0.68201000   7.70905000
C   -10.64780000   1.40669000   7.26996000
C   -9.40433000   0.66373000   7.78516000
C   -8.12063000   1.39251000   7.34796000
H   -14.53319000   0.71770000   8.73321000
H   -11.96587000   0.67774000   8.82200000
H   -9.43776000   0.65686000   8.89803000
H   -13.14632000   1.50122000   6.08356000
H   -10.61361000   1.47548000   6.15914000
H   -8.08742000   1.46518000   6.23742000
C   -8.16980000   5.86211000   7.17047000
C   -9.44881000   5.12614000   7.63011000
C   -10.70565000   5.87374000   7.12037000
H   -8.14922000   5.88298000   6.05534000
C   -9.44200000   3.66718000   7.10931000
H   -9.46989000   5.10750000   8.74535000
C   -10.71624000   2.93781000   7.56491000
C   -11.96970000   3.67532000   7.06326000
C   -11.98396000   5.13671000   7.58061000
H   -9.42303000   3.67310000   5.99606000
H   -10.68365000   5.89146000   6.00526000
H   -12.00457000   5.12063000   8.69605000
H   -11.94925000   3.67892000   5.94994000
H   -10.73635000   2.87010000   8.67612000
C   -8.18756000   2.92587000   7.60641000
H   -8.20524000   2.85504000   8.71737000
C   -13.24837000   5.87714000   7.07135000
C   -13.23938000   2.94026000   7.51751000
C   -14.50853000   5.11906000   7.53218000
C   -14.49074000   3.67352000   7.02297000
H   -13.23515000   5.88914000   5.95710000
H   -14.57686000   5.11892000   8.64229000
H   -14.51749000   3.66596000   5.91209000
H   -13.27121000   2.87025000   8.62727000
C   -3.11433000   -5.92690000   7.64090000
C   -0.57582000   -5.93982000   7.69504000
C   -1.83122000   -5.19173000   7.18474000
H   -0.59883000   -5.96086000   8.81007000
H   -0.52346000   -2.97832000   6.13998000
C   -0.55062000   -2.99993000   7.25495000
C   -1.83578000   -3.73497000   7.70660000
H   -1.80647000   -5.17227000   6.06970000
C   -3.08812000   -2.98651000   7.19029000
C   -4.37525000   -3.71856000   7.64266000
C   -4.37034000   -5.18169000   7.12664000
H   -4.34299000   -5.16590000   6.01159000
H   -3.13940000   -5.94452000   8.75587000
H   -1.86327000   -3.75447000   8.82153000
H   -3.05952000   -2.96853000   6.07538000
H   -4.40240000   -3.73444000   8.75769000
C   -3.09019000   -1.52940000   7.71155000
C   -0.55395000   -1.54416000   7.78035000
C   -1.80284000   -0.79472000   7.26300000
C   -4.33695000   -0.77895000   7.19028000
H   -3.12195000   -1.54759000   8.82639000
H   -0.58364000   -1.56563000   8.89522000
H   -1.77151000   -0.77515000   6.14794000
C   -5.63247000   -1.50623000   7.63632000
C   -5.63128000   -2.96893000   7.12636000
C   -5.65789000   -5.91796000   7.58071000
C   -6.86043000   -0.73497000   7.11445000
C   -6.90042000   -3.71526000   7.57891000
C   -6.89535000   -5.15859000   7.06624000
H   -6.87393000   -0.73387000   6.00229000
H   -5.67414000   -1.51852000   8.74983000
H   -5.61122000   -2.95651000   6.01224000
H   -6.97624000   -3.71670000   8.68849000
H   -6.91642000   -5.15672000   5.95429000
H   -5.69266000   -5.93005000   8.69441000
C   -6.85273000   0.71018000   7.62501000
C   -5.57091000   1.43047000   7.19347000
C   -4.33279000   0.68201000   7.70905000
C   -3.04880000   1.40669000   7.26996000
C   -1.80533000   0.66373000   7.78516000
C   -0.52163000   1.39251000   7.34796000
H   -6.93419000   0.71770000   8.73321000
H   -4.36687000   0.67774000   8.82200000
H   -1.83876000   0.65686000   8.89803000
H   -5.54732000   1.50122000   6.08356000
H   -3.01461000   1.47548000   6.15914000
H   -0.48842000   1.46518000   6.23742000
C   -0.57080000   5.86211000   7.17047000
C   -1.84981000   5.12614000   7.63011000
C   -3.10665000   5.87374000   7.12037000
H   -0.55022000   5.88298000   6.05534000
C   -1.84300000   3.66718000   7.10931000
H   -1.87089000   5.10750000   8.74535000
C   -3.11724000   2.93781000   7.56491000
C   -4.37070000   3.67532000   7.06326000
C   -4.38496000   5.13671000   7.58061000
H   -1.82403000   3.67310000   5.99606000
H   -3.08465000   5.89146000   6.00526000
H   -4.40557000   5.12063000   8.69605000
H   -4.35025000   3.67892000   5.94994000
H   -3.13735000   2.87010000   8.67612000
C   -0.58856000   2.92587000   7.60641000
H   -0.60624000   2.85504000   8.71737000
C   -5.64937000   5.87714000   7.07135000
C   -5.64038000   2.94026000   7.51751000
C   -6.90953000   5.11906000   7.53218000
C   -6.89174000   3.67352000   7.02297000
H   -5.63615000   5.88914000   5.95710000
H   -6.97786000   5.11892000   8.64229000
H   -6.91849000   3.66596000   5.91209000
H   -5.67221000   2.87025000   8.62727000
C   4.48467000   -5.92690000   7.64090000
C   7.02318000   -5.93982000   7.69504000
C   5.76778000   -5.19173000   7.18474000
H   7.00017000   -5.96086000   8.81007000
H   7.07554000   -2.97832000   6.13998000
C   7.04838000   -2.99993000   7.25495000
C   5.76322000   -3.73497000   7.70660000
H   5.79253000   -5.17227000   6.06970000
C   4.51088000   -2.98651000   7.19029000
C   3.22375000   -3.71856000   7.64266000
C   3.22866000   -5.18169000   7.12664000
H   3.25601000   -5.16590000   6.01159000
H   4.45960000   -5.94452000   8.75587000
H   5.73573000   -3.75447000   8.82153000
H   4.53948000   -2.96853000   6.07538000
H   3.19660000   -3.73444000   8.75769000
C   4.50881000   -1.52940000   7.71155000
C   7.04505000   -1.54416000   7.78035000
C   5.79616000   -0.79472000   7.26300000
C   3.26205000   -0.77895000   7.19028000
H   4.47705000   -1.54759000   8.82639000
H   7.01536000   -1.56563000   8.89522000
H   3.29606000   -0.76228000   6.07518000
C   1.96653000   -1.50623000   7.63632000
C   1.96772000   -2.96893000   7.12636000
C   1.94111000   -5.91796000   7.58071000
C   0.73857000   -0.73497000   7.11445000
C   0.69858000   -3.71526000   7.57891000
C   0.70365000   -5.15859000   7.06624000
H   0.72507000   -0.73387000   6.00229000
H   1.92486000   -1.51852000   8.74983000
H   1.98778000   -2.95651000   6.01224000
H   0.62276000   -3.71670000   8.68849000
H   0.68258000   -5.15672000   5.95429000
H   1.90634000   -5.93005000   8.69441000
C   0.74627000   0.71018000   7.62501000
C   2.02809000   1.43047000   7.19347000
C   3.26621000   0.68201000   7.70905000
C   4.55020000   1.40669000   7.26996000
C   5.79367000   0.66373000   7.78516000
C   7.07737000   1.39251000   7.34796000
H   0.66481000   0.71770000   8.73321000
H   3.23213000   0.67774000   8.82200000
H   5.76024000   0.65686000   8.89803000
H   2.05168000   1.50122000   6.08356000
H   4.58439000   1.47548000   6.15914000
H   7.11058000   1.46518000   6.23742000
C   7.02820000   5.86211000   7.17047000
C   5.74919000   5.12614000   7.63011000
C   4.49235000   5.87374000   7.12037000
H   7.04878000   5.88298000   6.05534000
C   5.75600000   3.66718000   7.10931000
H   5.72811000   5.10750000   8.74535000
C   4.48176000   2.93781000   7.56491000
C   3.22830000   3.67532000   7.06326000
C   3.21404000   5.13671000   7.58061000
H   5.77497000   3.67310000   5.99606000
H   4.51435000   5.89146000   6.00526000
H   3.19343000   5.12063000   8.69605000
H   3.24875000   3.67892000   5.94994000
H   4.46165000   2.87010000   8.67612000
C   7.01044000   2.92587000   7.60641000
H   6.99276000   2.85504000   8.71737000
C   1.94963000   5.87714000   7.07135000
C   1.95862000   2.94026000   7.51751000
C   0.68947000   5.11906000   7.53218000
C   0.70726000   3.67352000   7.02297000
H   1.96285000   5.88914000   5.95710000
H   0.62114000   5.11892000   8.64229000
H   0.68051000   3.66596000   5.91209000
H   1.92679000   2.87025000   8.62727000
C   12.08367000   -5.92690000   7.64090000
C   14.62218000   -5.93982000   7.69504000
C   13.36678000   -5.19173000   7.18474000
H   14.59917000   -5.96086000   8.81007000
H   14.67454000   -2.97832000   6.13998000
C   14.64738000   -2.99993000   7.25495000
C   13.36222000   -3.73497000   7.70660000
H   13.39153000   -5.17227000   6.06970000
C   12.10988000   -2.98651000   7.19029000
C   10.82275000   -3.71856000   7.64266000
C   10.82766000   -5.18169000   7.12664000
H   10.85501000   -5.16590000   6.01159000
H   12.05860000   -5.94452000   8.75587000
H   13.33473000   -3.75447000   8.82153000
H   12.13848000   -2.96853000   6.07538000
H   10.79560000   -3.73444000   8.75769000
C   12.10781000   -1.52940000   7.71155000
C   14.64405000   -1.54416000   7.78035000
C   13.39516000   -0.79472000   7.26300000
C   10.86105000   -0.77895000   7.19028000
H   12.07605000   -1.54759000   8.82639000
H   14.61436000   -1.56563000   8.89522000
H   10.89506000   -0.76228000   6.07518000
H   13.42649000   -0.77515000   6.14794000
C   9.56553000   -1.50623000   7.63632000
C   9.56672000   -2.96893000   7.12636000
C   9.54011000   -5.91796000   7.58071000
C   8.33757000   -0.73497000   7.11445000
C   8.29758000   -3.71526000   7.57891000
C   8.30265000   -5.15859000   7.06624000
H   8.32407000   -0.73387000   6.00229000
H   9.52386000   -1.51852000   8.74983000
H   9.58678000   -2.95651000   6.01224000
H   8.22176000   -3.71670000   8.68849000
H   8.28158000   -5.15672000   5.95429000
H   9.50534000   -5.93005000   8.69441000
C   8.34527000   0.71018000   7.62501000
C   9.62709000   1.43047000   7.19347000
C   10.86521000   0.68201000   7.70905000
C   12.14920000   1.40669000   7.26996000
C   13.39267000   0.66373000   7.78516000
C   14.67637000   1.39251000   7.34796000
H   8.26381000   0.71770000   8.73321000
H   10.83113000   0.67774000   8.82200000
H   13.35924000   0.65686000   8.89803000
H   9.65068000   1.50122000   6.08356000
H   12.18339000   1.47548000   6.15914000
H   14.70958000   1.46518000   6.23742000
C   14.62720000   5.86211000   7.17047000
C   13.34819000   5.12614000   7.63011000
C   12.09135000   5.87374000   7.12037000
H   14.64778000   5.88298000   6.05534000
C   13.35500000   3.66718000   7.10931000
H   13.32711000   5.10750000   8.74535000
C   12.08076000   2.93781000   7.56491000
C   10.82730000   3.67532000   7.06326000
C   10.81304000   5.13671000   7.58061000
H   13.37397000   3.67310000   5.99606000
H   12.11335000   5.89146000   6.00526000
H   10.79243000   5.12063000   8.69605000
H   10.84775000   3.67892000   5.94994000
H   12.06065000   2.87010000   8.67612000
C   14.60944000   2.92587000   7.60641000
H   14.59176000   2.85504000   8.71737000
C   9.54863000   5.87714000   7.07135000
C   9.55762000   2.94026000   7.51751000
C   8.28847000   5.11906000   7.53218000
C   8.30626000   3.67352000   7.02297000
H   9.56185000   5.88914000   5.95710000
H   8.22014000   5.11892000   8.64229000
H   8.27951000   3.66596000   5.91209000
H   9.52579000   2.87025000   8.62727000
N   -4.99917754   -0.63603923   3.17951724
C   -4.99257326   -1.45615336   4.52809666
H   -6.06346003   -1.61274961   4.66187260
H   -4.54212953   -2.44847426   4.29049415
C   -4.17553138   -0.63249086   5.55416873
H   -3.17771085   -0.85432135   5.21298290
H   -4.41161402   0.37565689   5.36193113
C   -3.73391423   0.03894176   2.84866048
H   -3.00535267   -0.71195261   2.69809573
H   -3.81995645   0.64872908   1.93336172
H   -3.40792414   0.80584975   3.64768768
C   -6.05714767   0.43070855   3.15728177
H   -5.98686951   1.04549218   2.23138846
H   -7.00338835   0.04644042   3.23139244
H   -5.87995496   1.13669070   3.94674847
C   -5.27742047   -1.59719051   2.00798540
H   -4.39201795   -2.16906070   1.80523266
H   -6.08893088   -2.23367900   2.28758863
H   -5.56392146   -1.08906707   1.11799971
N   5.52068119   0.02107809   2.99460262
C   6.15169958   0.23587361   4.63136869
H   7.27341909   0.25537617   4.43035677
H   5.70439008   1.19087333   4.99749400
C   5.81514857   -0.82731824   5.63220737
H   4.81881530   -1.04883702   5.17760629
H   6.42735159   -1.73517718   5.37064716
C   6.26801232   0.86593012   2.08584907
H   6.02120302   1.91888991   2.36225704
H   7.35451398   0.79253241   2.23552007
H   6.04655035   0.61679897   1.08403946
C   4.13431815   0.46419494   3.00382988
H   3.65991506   0.20264160   2.05998391
H   3.56360471   0.04553739   3.88423846
H   4.20949843   1.50033889   3.14911808
C   5.46795051   -1.42429113   2.64996968
H   4.61942141   -1.87544151   3.17208136
H   5.27475796   -1.42499361   1.59386846
H   6.38729240   -1.97187382   2.90802070
O   -2.88752061   -21.63405743   2.91872352
H   -2.90536577   -22.46682864   2.42189903
H   -1.99799413   -21.23399540   2.78464397
O   9.51462227   -6.21493004   3.81684384
H   9.95212857   -5.51036981   4.30845491
H   9.01232301   -7.90638541   0.57625330
O   3.88442205   -0.85445011   -1.59247279
H   3.66312984   -1.67173474   -1.13688925
H   4.77504767   -0.79512528   -1.29715513
O   0.40878065   -10.52474499   -1.34312641
H   -12.56661109   -0.74058975   1.31071471
H   -0.42788208   -10.90699359   -0.97120346
O   -6.71034661   11.11077862   -0.51328617
H   -7.45275821   10.88870089   -1.05695593
H   -5.92854107   10.61199417   -0.83315518
O   -29.28991710   -5.28405278   0.98639509
H   -29.71688883   -4.40383404   1.02501017
H   -29.23844374   -5.56588877   1.89651839
O   -6.68929764   -5.11718853   -2.77298284
H   -16.21405745   11.13632232   -3.15580110
H   -7.19100885   -4.87273624   -2.05299577
O   -4.09831987   15.42950038   0.35317745
H   -3.15594446   15.22935010   0.05756245
H   -4.27579913   16.38958794   0.41961827
O   -1.41907602   -16.46816645   2.68265855
H   -0.82274409   -16.11240206   1.89002133
H   -0.91174100   -16.46705334   3.46521318
O   3.73877752   15.56792849   -0.66823627
H   3.45303384   14.77340477   -1.15061914
H   3.11422833   16.25239820   -0.96233667
O   9.01952441   -3.12711352   3.18469423
H   8.97098114   -2.95563068   2.21038085
H   9.85909863   -3.55082745   3.25007270
O   8.51087743   -7.14373419   0.41168873
H   9.21829860   -6.45428057   0.53387123
H   -5.83991288   -4.56162861   -2.79291585
O   3.47912007   4.26167964   -2.29474920
H   3.13042121   4.66982766   -3.10095338
H   3.92671059   5.01133733   -1.89398094
O   -18.25632336   -28.41131592   -1.05254855
H   -18.24610786   -28.99903377   -1.81750163
H   -18.82043038   -28.92758723   -0.44630759
O   -38.54718138   -11.11418803   -3.03257519
H   -37.65802785   -11.50273060   -3.21416604
H   -38.79400826   -10.60134521   -3.81524969
O   -9.09015324   2.41885526   2.00780328
H   -9.96629153   2.86998195   1.93633647
H   -8.56066531   2.33635649   1.18480832
O   -11.80978523   -18.23541054   3.02143620
H   -11.67585025   -19.19511840   3.21104540
H   -11.44225790   -17.70390046   3.77843021
O   10.45856872   24.05938355   0.67139437
H   18.65404548   12.91515118   -2.28747123
H   10.43779395   22.54295178   1.01746025
O   -4.37259103   -30.06336168   -2.27388365
H   -3.84003417   -30.28885124   -1.44051227
H   -3.88283503   -16.06481588   -2.87969127
O   4.46325145   6.93283315   -2.42234716
H   4.58953502   7.68187710   -1.84077836
H   4.13400186   7.23718910   -3.26678433
O   12.74475831   2.99934529   -0.94437662
H   12.48485208   3.90790368   -1.03292483
H   12.68886351   2.59284993   -1.83934823
O   1.47093436   -3.28471832   3.49985143
H   0.76689488   -3.94238684   3.73615986
H   1.24988916   -3.01303401   2.57308377
O   35.55990447   -9.89307918   1.37463718
H   35.04100703   -10.19404191   0.54242877
H   36.23405607   -9.26459116   1.07287992
O   1.58489401   -13.28528584   0.36009057
H   1.58243857   -14.21499307   0.65255204
H   2.04275794   -13.37097221   -0.48473867
O   -7.32755950   -21.35028856   -3.81867084
H   -7.36189411   -20.51634391   -4.27407473
H   -7.10532833   -7.69256885   -2.96215454
O   -2.45050247   23.47981528   0.10830578
H   -2.42985212   23.27534793   1.05247868
H   -1.93950750   24.24041419   -0.09551138
O   33.57387892   10.93948206   0.65883071
H   2.19727783   10.88166236   0.74867616
H   33.90931831   10.22023096   1.18611508
O   6.11706616   2.12701296   -2.31579611
H   5.68593226   2.78868695   -1.69690984
H   15.29932560   -7.01982004   -2.35638001
O   19.41337020   -6.63955066   -2.90069707
H   18.93773878   -6.42970778   -2.07519390
H   18.99642809   -6.15237237   -3.63234533
O   19.16444043   7.02967180   0.04349875
H   18.81797987   7.58337275   0.75796724
H   19.37258601   6.15337973   0.41933104
O   12.96603017   22.49872745   0.26241351
H   12.08425874   22.95531983   0.22531820
H   13.35376458   22.21473103   -0.53856444
O   30.32140660   13.75568949   -3.54977891
H   30.70944494   14.57391865   -3.16324218
H   30.93456462   13.25276809   -4.18446581
O   14.70255233   -2.20704069   0.00116722
H   13.94623427   -1.66282242   -0.21304783
H   14.26097370   -2.82277151   0.64754116
O   -7.75468884   -25.29863993   -0.12721824
H   -8.34907579   -25.41642354   -0.91569054
H   -6.90319522   -25.70394753   -0.25270487
O   -25.91304838   -4.37924242   2.89591911
H   -25.24968287   -5.08682876   2.85637191
H   -26.74672186   -4.78688906   3.22067062
O   -20.59938251   47.37772351   -3.41169578
H   -20.88445276   48.30347001   -3.44140465
H   -21.14634847   47.07555884   -2.66778283
O   -14.50828696   -14.04502976   2.51137718
H   -14.96829094   -13.91277334   1.66875924
H   -14.94873292   -13.48584535   3.15055766
O   10.61703129   8.20447067   1.28117092
H   11.47918634   8.06315520   0.86585533
H   9.81990886   11.39902007   0.78386995
O   -7.79169096   -18.57979136   3.07244237
H   -7.24835819   -19.13848485   3.60353240
H   -7.92257003   -18.90824538   2.17943875
O   -0.43176928   6.98039024   -1.07156068
H   -0.78242839   7.86261906   -0.71998544
H   0.43879466   6.87693136   -0.59234185
O   -8.27287516   -19.50699166   0.30524807
H   -8.35691875   -20.40400780   0.09623360
H   -8.94580143   -19.02930208   -0.24240022
O   -22.98209363   23.13024053   0.80958890
H   -23.17232378   22.19207075   1.02489727
H   -22.15325226   23.22461243   0.34278792
O   0.51190272   -2.44503999   0.98164014
H   0.61455907   3.71998919   -0.92719967
H   0.16196706   -2.72175785   0.07313433
O   -19.03077877   15.54365075   2.64610364
H   -19.78981174   15.50644196   2.06170239
H   -18.41149002   15.14305624   2.11292158
O   -9.01644706   18.55994591   -1.38361091
H   -9.91343758   18.93736438   -1.47512632
H   -8.82963777   18.26414304   -2.25945007
O   -2.53265552   -28.15185038   -3.28094973
H   -2.75620213   -27.35308271   -2.81429144
H   -1.82042392   -27.82698876   -3.81732843
O   13.79991710   -0.38966136   -3.13923580
H   14.50509034   0.24516656   -3.35053724
H   13.36832965   -0.17254022   -2.30161841
O   -18.06818820   -15.91686501   2.76276614
H   -18.72807838   -16.14969235   2.07222996
H   -17.22866860   -16.25368492   2.50252272
O   25.64297301   4.26871862   -1.80767714
H   26.00998109   4.91741681   -2.45525172
H   24.72488324   4.07200582   -2.01183795
O   -1.81733887   -9.17693630   0.17147219
H   -0.91299342   -8.78828125   0.15097323
H   -2.40449889   -8.49778147   0.07471245
O   24.89216275   -12.27258158   -2.39327494
H   25.60728881   -12.17895455   -3.05606970
H   25.40899430   -11.92802080   -1.65030716
O   1.32346513   -19.28362229   -3.79799613
H   1.26650734   -19.62728749   -2.89648243
H   0.83134183   -18.45836593   -3.90358134
O   3.56918411   -7.13959916   1.88663767
H   3.70279919   -6.33556901   1.37558804
H   4.29308375   -7.11621137   2.50949347
O   -1.50126685   0.88633453   -0.00864231
H   -0.97755712   0.08039058   -0.13393340
H   -1.21697594   1.14049254   0.83158886
O   -23.81834002   33.47440665   2.32892538
H   -22.95510600   33.48592144   2.76831495
H   -23.76128900   32.76933179   1.63679462
O   10.00816027   9.32118419   -1.63341008
H   10.85970712   8.91913439   -1.47841457
H   9.99521470   9.94457215   -0.88165226
O   -5.66822753   -33.89554586   2.95319304
H   -4.74409880   -34.11164213   2.82593456
H   -6.11410755   -34.72511666   2.69527173
O   22.47932985   37.71655600   3.31318043
H   22.50024264   36.72989076   3.20744911
H   21.97575789   38.02944681   2.53637368
O   9.39038950   26.55448793   3.81342784
H   9.48360487   25.61341034   3.57832940
H   10.23393947   27.06094481   3.85256805
O   10.81455871   -25.89865478   0.26489998
H   10.95624612   -25.51420806   -0.64614886
H   11.10970408   -26.83538210   0.18286176
O   20.00779881   0.10995333   2.78548014
H   20.37522135   0.99983300   2.56153010
H   19.70834671   -0.03521832   3.69739260
O   -6.49101805   -22.76943666   0.87817703
H   -6.50928589   -21.95362491   0.43043024
H   -7.18326035   -23.23411449   0.49398555
O   15.45616462   5.74921157   -3.05953242
H   13.18549572   -4.64445176   -3.22968698
H   14.70963873   5.14969895   -2.99339774
O   5.92096767   -17.44981422   -2.35193595
H   6.78477447   -17.72439212   -2.26283562
H   5.90157476   -16.60428455   -2.03181326
O   6.47175226   5.01393296   -1.35075803
H   7.10928935   -7.74558559   -0.98361014
H   5.87446729   -7.70073909   -1.74601493
O   18.75028302   0.38152769   -1.88174050
H   6.61219701   2.66765389   -2.86492478
H   18.58364337   0.27037186   -0.91365702
O   -9.52770049   -3.50271455   -1.22380242
H   -10.31396130   -3.51109655   -1.76566722
H   -9.90650100   -3.36160353   -0.29825247
O   19.13347388   17.49410092   0.82977124
H   18.29979046   17.08496655   0.80246373
H   19.56097775   17.21611596   0.02888936
O   7.05170865   12.76210806   -1.14706933
H   6.83159626   13.41053030   -1.83829764
H   7.18008560   13.24090063   -0.31763563
O   -18.98496331   -8.45552373   -2.70555866
H   -19.57316739   -21.23304318   -3.25659470
H   -18.06271283   -8.10463452   -2.72972853
O   27.62556678   -11.59591942   -2.48762572
H   28.50360314   -11.88554114   -2.26577907
H   27.29523094   -24.31666265   -1.87113230
O   14.57541126   -25.79426333   0.08564715
H   -16.60629422   -25.48089018   -0.42453918
H   14.74736153   -25.10766980   0.75372786
O   -11.92484173   -0.61673340   0.61641033
H   -11.07120357   -0.51284670   1.01220657
H   9.82012736   -6.03056855   2.94217647
O   0.90640003   4.75479243   1.27077234
H   1.15882195   4.28357900   2.05480983
H   1.66896797   5.37101822   1.11188659
O   0.30675177   -13.57720624   2.93962142
H   0.43251548   -13.68244676   2.00258459
H   0.38068611   -14.42583880   3.37265619
O   -1.29337065   2.03569244   3.35366099
H   -1.11459928   2.25682249   2.43679864
H   -0.75059708   1.25707198   3.56112351
O   -15.94331895   10.29312995   -2.80436476
H   -15.80470557   10.48082609   -1.88247348
O   13.29856158   -5.61067759   -3.16564647
H   14.02489770   -5.73699386   -3.77457893
