844

C   -10.71333000   -5.92690000   -7.35910000
C   -8.17482000   -5.93982000   -7.30496000
C   -9.43022000   -5.19173000   -7.81526000
H   -8.19783000   -5.96086000   -6.18993000
H   -8.12246000   -2.97832000   -8.86002000
C   -8.14962000   -2.99993000   -7.74505000
C   -9.43478000   -3.73497000   -7.29340000
H   -9.40547000   -5.17227000   -8.93030000
C   -10.68712000   -2.98651000   -7.80971000
C   -11.97425000   -3.71856000   -7.35734000
C   -11.96934000   -5.18169000   -7.87336000
H   -11.94199000   -5.16590000   -8.98841000
H   -10.73840000   -5.94452000   -6.24413000
H   -9.46227000   -3.75447000   -6.17847000
H   -10.65852000   -2.96853000   -8.92462000
H   -12.00140000   -3.73444000   -6.24231000
C   -10.68919000   -1.52940000   -7.28845000
C   -8.15295000   -1.54416000   -7.21965000
C   -9.40184000   -0.79472000   -7.73700000
C   -11.93595000   -0.77895000   -7.80972000
H   -10.72095000   -1.54759000   -6.17361000
H   -8.18264000   -1.56563000   -6.10478000
H   -11.90194000   -0.76228000   -8.92482000
H   -9.37051000   -0.77515000   -8.85206000
C   -13.23147000   -1.50623000   -7.36368000
C   -13.23028000   -2.96893000   -7.87364000
C   -13.25689000   -5.91796000   -7.41929000
C   -14.45943000   -0.73497000   -7.88555000
C   -14.49942000   -3.71526000   -7.42109000
C   -14.49435000   -5.15859000   -7.93376000
H   -14.47293000   -0.73387000   -8.99771000
H   -13.27314000   -1.51852000   -6.25017000
H   -13.21022000   -2.95651000   -8.98776000
H   -14.57524000   -3.71670000   -6.31151000
H   -14.51542000   -5.15672000   -9.04571000
H   -13.29166000   -5.93005000   -6.30559000
C   -14.45173000   0.71018000   -7.37499000
C   -13.16991000   1.43047000   -7.80653000
C   -11.93179000   0.68201000   -7.29095000
C   -10.64780000   1.40669000   -7.73004000
C   -9.40433000   0.66373000   -7.21484000
C   -8.12063000   1.39251000   -7.65204000
H   -14.53319000   0.71770000   -6.26679000
H   -11.96587000   0.67774000   -6.17800000
H   -9.43776000   0.65686000   -6.10197000
H   -13.14632000   1.50122000   -8.91644000
H   -10.61361000   1.47548000   -8.84086000
H   -8.08742000   1.46518000   -8.76258000
C   -8.16980000   5.86211000   -7.82953000
C   -9.44881000   5.12614000   -7.36989000
C   -10.70565000   5.87374000   -7.87963000
H   -8.14922000   5.88298000   -8.94466000
C   -9.44200000   3.66718000   -7.89069000
H   -9.46989000   5.10750000   -6.25465000
C   -10.71624000   2.93781000   -7.43509000
C   -11.96970000   3.67532000   -7.93674000
C   -11.98396000   5.13671000   -7.41939000
H   -9.42303000   3.67310000   -9.00394000
H   -10.68365000   5.89146000   -8.99474000
H   -12.00457000   5.12063000   -6.30395000
H   -11.94925000   3.67892000   -9.05006000
H   -10.73635000   2.87010000   -6.32388000
C   -8.18756000   2.92587000   -7.39359000
H   -8.20524000   2.85504000   -6.28263000
C   -13.24837000   5.87714000   -7.92865000
C   -13.23938000   2.94026000   -7.48249000
C   -14.50853000   5.11906000   -7.46782000
C   -14.49074000   3.67352000   -7.97703000
H   -13.23515000   5.88914000   -9.04290000
H   -14.57686000   5.11892000   -6.35771000
H   -14.51749000   3.66596000   -9.08791000
H   -13.27121000   2.87025000   -6.37273000
C   -3.11433000   -5.92690000   -7.35910000
C   -0.57582000   -5.93982000   -7.30496000
C   -1.83122000   -5.19173000   -7.81526000
H   -0.59883000   -5.96086000   -6.18993000
H   -0.52346000   -2.97832000   -8.86002000
C   -0.55062000   -2.99993000   -7.74505000
C   -1.83578000   -3.73497000   -7.29340000
H   -1.80647000   -5.17227000   -8.93030000
C   -3.08812000   -2.98651000   -7.80971000
C   -4.37525000   -3.71856000   -7.35734000
C   -4.37034000   -5.18169000   -7.87336000
H   -4.34299000   -5.16590000   -8.98841000
H   -3.13940000   -5.94452000   -6.24413000
H   -1.86327000   -3.75447000   -6.17847000
H   -3.05952000   -2.96853000   -8.92462000
H   -4.40240000   -3.73444000   -6.24231000
C   -3.09019000   -1.52940000   -7.28845000
C   -0.55395000   -1.54416000   -7.21965000
C   -1.80284000   -0.79472000   -7.73700000
C   -4.33695000   -0.77895000   -7.80972000
H   -3.12195000   -1.54759000   -6.17361000
H   -0.58364000   -1.56563000   -6.10478000
H   -4.30294000   -0.76228000   -8.92482000
H   -1.77151000   -0.77515000   -8.85206000
C   -5.63247000   -1.50623000   -7.36368000
C   -5.63128000   -2.96893000   -7.87364000
C   -5.65789000   -5.91796000   -7.41929000
C   -6.86043000   -0.73497000   -7.88555000
C   -6.90042000   -3.71526000   -7.42109000
C   -6.89535000   -5.15859000   -7.93376000
H   -6.87393000   -0.73387000   -8.99771000
H   -5.67414000   -1.51852000   -6.25017000
H   -5.61122000   -2.95651000   -8.98776000
H   -6.97624000   -3.71670000   -6.31151000
H   -6.91642000   -5.15672000   -9.04571000
H   -5.69266000   -5.93005000   -6.30559000
C   -6.85273000   0.71018000   -7.37499000
C   -5.57091000   1.43047000   -7.80653000
C   -4.33279000   0.68201000   -7.29095000
C   -3.04880000   1.40669000   -7.73004000
C   -1.80533000   0.66373000   -7.21484000
C   -0.52163000   1.39251000   -7.65204000
H   -6.93419000   0.71770000   -6.26679000
H   -4.36687000   0.67774000   -6.17800000
H   -1.83876000   0.65686000   -6.10197000
H   -5.54732000   1.50122000   -8.91644000
H   -3.01461000   1.47548000   -8.84086000
H   -0.48842000   1.46518000   -8.76258000
C   -0.57080000   5.86211000   -7.82953000
C   -1.84981000   5.12614000   -7.36989000
C   -3.10665000   5.87374000   -7.87963000
H   -0.55022000   5.88298000   -8.94466000
C   -1.84300000   3.66718000   -7.89069000
H   -1.87089000   5.10750000   -6.25465000
C   -3.11724000   2.93781000   -7.43509000
C   -4.37070000   3.67532000   -7.93674000
C   -4.38496000   5.13671000   -7.41939000
H   -1.82403000   3.67310000   -9.00394000
H   -3.08465000   5.89146000   -8.99474000
H   -4.40557000   5.12063000   -6.30395000
H   -4.35025000   3.67892000   -9.05006000
H   -3.13735000   2.87010000   -6.32388000
C   -0.58856000   2.92587000   -7.39359000
H   -0.60624000   2.85504000   -6.28263000
C   -5.64937000   5.87714000   -7.92865000
C   -5.64038000   2.94026000   -7.48249000
C   -6.90953000   5.11906000   -7.46782000
C   -6.89174000   3.67352000   -7.97703000
H   -5.63615000   5.88914000   -9.04290000
H   -6.97786000   5.11892000   -6.35771000
H   -6.91849000   3.66596000   -9.08791000
H   -5.67221000   2.87025000   -6.37273000
C   4.48467000   -5.92690000   -7.35910000
C   7.02318000   -5.93982000   -7.30496000
C   5.76778000   -5.19173000   -7.81526000
H   7.00017000   -5.96086000   -6.18993000
H   7.07554000   -2.97832000   -8.86002000
C   7.04838000   -2.99993000   -7.74505000
C   5.76322000   -3.73497000   -7.29340000
H   5.79253000   -5.17227000   -8.93030000
C   4.51088000   -2.98651000   -7.80971000
C   3.22375000   -3.71856000   -7.35734000
C   3.22866000   -5.18169000   -7.87336000
H   3.25601000   -5.16590000   -8.98841000
H   4.45960000   -5.94452000   -6.24413000
H   5.73573000   -3.75447000   -6.17847000
H   4.53948000   -2.96853000   -8.92462000
H   3.19660000   -3.73444000   -6.24231000
C   4.50881000   -1.52940000   -7.28845000
C   7.04505000   -1.54416000   -7.21965000
C   5.79616000   -0.79472000   -7.73700000
C   3.26205000   -0.77895000   -7.80972000
H   4.47705000   -1.54759000   -6.17361000
H   7.01536000   -1.56563000   -6.10478000
H   3.29606000   -0.76228000   -8.92482000
H   5.82749000   -0.77515000   -8.85206000
C   1.96653000   -1.50623000   -7.36368000
C   1.96772000   -2.96893000   -7.87364000
C   1.94111000   -5.91796000   -7.41929000
C   0.73857000   -0.73497000   -7.88555000
C   0.69858000   -3.71526000   -7.42109000
C   0.70365000   -5.15859000   -7.93376000
H   0.72507000   -0.73387000   -8.99771000
H   1.92486000   -1.51852000   -6.25017000
H   1.98778000   -2.95651000   -8.98776000
H   0.62276000   -3.71670000   -6.31151000
H   0.68258000   -5.15672000   -9.04571000
H   1.90634000   -5.93005000   -6.30559000
C   0.74627000   0.71018000   -7.37499000
C   2.02809000   1.43047000   -7.80653000
C   3.26621000   0.68201000   -7.29095000
C   4.55020000   1.40669000   -7.73004000
C   5.79367000   0.66373000   -7.21484000
C   7.07737000   1.39251000   -7.65204000
H   0.66481000   0.71770000   -6.26679000
H   3.23213000   0.67774000   -6.17800000
H   5.76024000   0.65686000   -6.10197000
H   2.05168000   1.50122000   -8.91644000
H   4.58439000   1.47548000   -8.84086000
H   7.11058000   1.46518000   -8.76258000
C   7.02820000   5.86211000   -7.82953000
C   5.74919000   5.12614000   -7.36989000
C   4.49235000   5.87374000   -7.87963000
H   7.04878000   5.88298000   -8.94466000
C   5.75600000   3.66718000   -7.89069000
H   5.72811000   5.10750000   -6.25465000
C   4.48176000   2.93781000   -7.43509000
C   3.22830000   3.67532000   -7.93674000
C   3.21404000   5.13671000   -7.41939000
H   5.77497000   3.67310000   -9.00394000
H   4.51435000   5.89146000   -8.99474000
H   3.19343000   5.12063000   -6.30395000
H   3.24875000   3.67892000   -9.05006000
H   4.46165000   2.87010000   -6.32388000
C   7.01044000   2.92587000   -7.39359000
H   6.99276000   2.85504000   -6.28263000
C   1.94963000   5.87714000   -7.92865000
C   1.95862000   2.94026000   -7.48249000
C   0.68947000   5.11906000   -7.46782000
C   0.70726000   3.67352000   -7.97703000
H   1.96285000   5.88914000   -9.04290000
H   0.62114000   5.11892000   -6.35771000
H   0.68051000   3.66596000   -9.08791000
H   1.92679000   2.87025000   -6.37273000
C   12.08367000   -5.92690000   -7.35910000
C   14.62218000   -5.93982000   -7.30496000
C   13.36678000   -5.19173000   -7.81526000
H   14.59917000   -5.96086000   -6.18993000
H   14.67454000   -2.97832000   -8.86002000
C   14.64738000   -2.99993000   -7.74505000
C   13.36222000   -3.73497000   -7.29340000
H   13.39153000   -5.17227000   -8.93030000
C   12.10988000   -2.98651000   -7.80971000
C   10.82275000   -3.71856000   -7.35734000
C   10.82766000   -5.18169000   -7.87336000
H   10.85501000   -5.16590000   -8.98841000
H   12.05860000   -5.94452000   -6.24413000
H   13.33473000   -3.75447000   -6.17847000
H   12.13848000   -2.96853000   -8.92462000
H   10.79560000   -3.73444000   -6.24231000
C   12.10781000   -1.52940000   -7.28845000
C   14.64405000   -1.54416000   -7.21965000
C   13.39516000   -0.79472000   -7.73700000
C   10.86105000   -0.77895000   -7.80972000
H   12.07605000   -1.54759000   -6.17361000
H   14.61436000   -1.56563000   -6.10478000
H   10.89506000   -0.76228000   -8.92482000
H   13.42649000   -0.77515000   -8.85206000
C   9.56553000   -1.50623000   -7.36368000
C   9.56672000   -2.96893000   -7.87364000
C   9.54011000   -5.91796000   -7.41929000
C   8.33757000   -0.73497000   -7.88555000
C   8.29758000   -3.71526000   -7.42109000
C   8.30265000   -5.15859000   -7.93376000
H   8.32407000   -0.73387000   -8.99771000
H   9.52386000   -1.51852000   -6.25017000
H   9.58678000   -2.95651000   -8.98776000
H   8.22176000   -3.71670000   -6.31151000
H   8.28158000   -5.15672000   -9.04571000
H   9.50534000   -5.93005000   -6.30559000
C   8.34527000   0.71018000   -7.37499000
C   9.62709000   1.43047000   -7.80653000
C   10.86521000   0.68201000   -7.29095000
C   12.14920000   1.40669000   -7.73004000
C   13.39267000   0.66373000   -7.21484000
C   14.67637000   1.39251000   -7.65204000
H   8.26381000   0.71770000   -6.26679000
H   10.83113000   0.67774000   -6.17800000
H   13.35924000   0.65686000   -6.10197000
H   9.65068000   1.50122000   -8.91644000
H   12.18339000   1.47548000   -8.84086000
H   14.70958000   1.46518000   -8.76258000
C   14.62720000   5.86211000   -7.82953000
C   13.34819000   5.12614000   -7.36989000
C   12.09135000   5.87374000   -7.87963000
H   14.64778000   5.88298000   -8.94466000
C   13.35500000   3.66718000   -7.89069000
H   13.32711000   5.10750000   -6.25465000
C   12.08076000   2.93781000   -7.43509000
C   10.82730000   3.67532000   -7.93674000
C   10.81304000   5.13671000   -7.41939000
H   13.37397000   3.67310000   -9.00394000
H   12.11335000   5.89146000   -8.99474000
H   10.79243000   5.12063000   -6.30395000
H   10.84775000   3.67892000   -9.05006000
H   12.06065000   2.87010000   -6.32388000
C   14.60944000   2.92587000   -7.39359000
H   14.59176000   2.85504000   -6.28263000
C   9.54863000   5.87714000   -7.92865000
C   9.55762000   2.94026000   -7.48249000
C   8.28847000   5.11906000   -7.46782000
C   8.30626000   3.67352000   -7.97703000
H   9.56185000   5.88914000   -9.04290000
H   8.22014000   5.11892000   -6.35771000
H   8.27951000   3.66596000   -9.08791000
H   9.52579000   2.87025000   -6.37273000
C   -10.71333000   -5.92690000   7.64090000
C   -8.17482000   -5.93982000   7.69504000
C   -9.43022000   -5.19173000   7.18474000
H   -8.19783000   -5.96086000   8.81007000
H   -8.12246000   -2.97832000   6.13998000
C   -8.14962000   -2.99993000   7.25495000
C   -9.43478000   -3.73497000   7.70660000
H   -9.40547000   -5.17227000   6.06970000
C   -10.68712000   -2.98651000   7.19029000
C   -11.97425000   -3.71856000   7.64266000
C   -11.96934000   -5.18169000   7.12664000
H   -11.94199000   -5.16590000   6.01159000
H   -10.73840000   -5.94452000   8.75587000
H   -9.46227000   -3.75447000   8.82153000
H   -10.65852000   -2.96853000   6.07538000
H   -12.00140000   -3.73444000   8.75769000
C   -10.68919000   -1.52940000   7.71155000
C   -8.15295000   -1.54416000   7.78035000
C   -9.40184000   -0.79472000   7.26300000
C   -11.93595000   -0.77895000   7.19028000
H   -10.72095000   -1.54759000   8.82639000
H   -8.18264000   -1.56563000   8.89522000
H   -11.90194000   -0.76228000   6.07518000
H   -9.37051000   -0.77515000   6.14794000
C   -13.23147000   -1.50623000   7.63632000
C   -13.23028000   -2.96893000   7.12636000
C   -13.25689000   -5.91796000   7.58071000
C   -14.45943000   -0.73497000   7.11445000
C   -14.49942000   -3.71526000   7.57891000
C   -14.49435000   -5.15859000   7.06624000
H   -14.47293000   -0.73387000   6.00229000
H   -13.27314000   -1.51852000   8.74983000
H   -13.21022000   -2.95651000   6.01224000
H   -14.57524000   -3.71670000   8.68849000
H   -14.51542000   -5.15672000   5.95429000
H   -13.29166000   -5.93005000   8.69441000
C   -14.45173000   0.71018000   7.62501000
C   -13.16991000   1.43047000   7.19347000
C   -11.93179000   0.68201000   7.70905000
C   -10.64780000   1.40669000   7.26996000
C   -9.40433000   0.66373000   7.78516000
C   -8.12063000   1.39251000   7.34796000
H   -14.53319000   0.71770000   8.73321000
H   -11.96587000   0.67774000   8.82200000
H   -9.43776000   0.65686000   8.89803000
H   -13.14632000   1.50122000   6.08356000
H   -10.61361000   1.47548000   6.15914000
H   -8.08742000   1.46518000   6.23742000
C   -8.16980000   5.86211000   7.17047000
C   -9.44881000   5.12614000   7.63011000
C   -10.70565000   5.87374000   7.12037000
H   -8.14922000   5.88298000   6.05534000
C   -9.44200000   3.66718000   7.10931000
H   -9.46989000   5.10750000   8.74535000
C   -10.71624000   2.93781000   7.56491000
C   -11.96970000   3.67532000   7.06326000
C   -11.98396000   5.13671000   7.58061000
H   -9.42303000   3.67310000   5.99606000
H   -10.68365000   5.89146000   6.00526000
H   -12.00457000   5.12063000   8.69605000
H   -11.94925000   3.67892000   5.94994000
H   -10.73635000   2.87010000   8.67612000
C   -8.18756000   2.92587000   7.60641000
H   -8.20524000   2.85504000   8.71737000
C   -13.24837000   5.87714000   7.07135000
C   -13.23938000   2.94026000   7.51751000
C   -14.50853000   5.11906000   7.53218000
C   -14.49074000   3.67352000   7.02297000
H   -13.23515000   5.88914000   5.95710000
H   -14.57686000   5.11892000   8.64229000
H   -14.51749000   3.66596000   5.91209000
H   -13.27121000   2.87025000   8.62727000
C   -3.11433000   -5.92690000   7.64090000
C   -0.57582000   -5.93982000   7.69504000
C   -1.83122000   -5.19173000   7.18474000
H   -0.59883000   -5.96086000   8.81007000
H   -0.52346000   -2.97832000   6.13998000
C   -0.55062000   -2.99993000   7.25495000
C   -1.83578000   -3.73497000   7.70660000
H   -1.80647000   -5.17227000   6.06970000
C   -3.08812000   -2.98651000   7.19029000
C   -4.37525000   -3.71856000   7.64266000
C   -4.37034000   -5.18169000   7.12664000
H   -4.34299000   -5.16590000   6.01159000
H   -3.13940000   -5.94452000   8.75587000
H   -1.86327000   -3.75447000   8.82153000
H   -3.05952000   -2.96853000   6.07538000
H   -4.40240000   -3.73444000   8.75769000
C   -3.09019000   -1.52940000   7.71155000
C   -0.55395000   -1.54416000   7.78035000
C   -1.80284000   -0.79472000   7.26300000
C   -4.33695000   -0.77895000   7.19028000
H   -3.12195000   -1.54759000   8.82639000
H   -0.58364000   -1.56563000   8.89522000
H   -1.77151000   -0.77515000   6.14794000
C   -5.63247000   -1.50623000   7.63632000
C   -5.63128000   -2.96893000   7.12636000
C   -5.65789000   -5.91796000   7.58071000
C   -6.86043000   -0.73497000   7.11445000
C   -6.90042000   -3.71526000   7.57891000
C   -6.89535000   -5.15859000   7.06624000
H   -6.87393000   -0.73387000   6.00229000
H   -5.67414000   -1.51852000   8.74983000
H   -5.61122000   -2.95651000   6.01224000
H   -6.97624000   -3.71670000   8.68849000
H   -6.91642000   -5.15672000   5.95429000
H   -5.69266000   -5.93005000   8.69441000
C   -6.85273000   0.71018000   7.62501000
C   -5.57091000   1.43047000   7.19347000
C   -4.33279000   0.68201000   7.70905000
C   -3.04880000   1.40669000   7.26996000
C   -1.80533000   0.66373000   7.78516000
C   -0.52163000   1.39251000   7.34796000
H   -6.93419000   0.71770000   8.73321000
H   -4.36687000   0.67774000   8.82200000
H   -1.83876000   0.65686000   8.89803000
H   -5.54732000   1.50122000   6.08356000
H   -3.01461000   1.47548000   6.15914000
H   -0.48842000   1.46518000   6.23742000
C   -0.57080000   5.86211000   7.17047000
C   -1.84981000   5.12614000   7.63011000
C   -3.10665000   5.87374000   7.12037000
H   -0.55022000   5.88298000   6.05534000
C   -1.84300000   3.66718000   7.10931000
H   -1.87089000   5.10750000   8.74535000
C   -3.11724000   2.93781000   7.56491000
C   -4.37070000   3.67532000   7.06326000
C   -4.38496000   5.13671000   7.58061000
H   -1.82403000   3.67310000   5.99606000
H   -3.08465000   5.89146000   6.00526000
H   -4.40557000   5.12063000   8.69605000
H   -4.35025000   3.67892000   5.94994000
H   -3.13735000   2.87010000   8.67612000
C   -0.58856000   2.92587000   7.60641000
H   -0.60624000   2.85504000   8.71737000
C   -5.64937000   5.87714000   7.07135000
C   -5.64038000   2.94026000   7.51751000
C   -6.90953000   5.11906000   7.53218000
C   -6.89174000   3.67352000   7.02297000
H   -5.63615000   5.88914000   5.95710000
H   -6.97786000   5.11892000   8.64229000
H   -6.91849000   3.66596000   5.91209000
H   -5.67221000   2.87025000   8.62727000
C   4.48467000   -5.92690000   7.64090000
C   7.02318000   -5.93982000   7.69504000
C   5.76778000   -5.19173000   7.18474000
H   7.00017000   -5.96086000   8.81007000
H   7.07554000   -2.97832000   6.13998000
C   7.04838000   -2.99993000   7.25495000
C   5.76322000   -3.73497000   7.70660000
H   5.79253000   -5.17227000   6.06970000
C   4.51088000   -2.98651000   7.19029000
C   3.22375000   -3.71856000   7.64266000
C   3.22866000   -5.18169000   7.12664000
H   3.25601000   -5.16590000   6.01159000
H   4.45960000   -5.94452000   8.75587000
H   5.73573000   -3.75447000   8.82153000
H   4.53948000   -2.96853000   6.07538000
H   3.19660000   -3.73444000   8.75769000
C   4.50881000   -1.52940000   7.71155000
C   7.04505000   -1.54416000   7.78035000
C   5.79616000   -0.79472000   7.26300000
C   3.26205000   -0.77895000   7.19028000
H   4.47705000   -1.54759000   8.82639000
H   7.01536000   -1.56563000   8.89522000
H   3.29606000   -0.76228000   6.07518000
C   1.96653000   -1.50623000   7.63632000
C   1.96772000   -2.96893000   7.12636000
C   1.94111000   -5.91796000   7.58071000
C   0.73857000   -0.73497000   7.11445000
C   0.69858000   -3.71526000   7.57891000
C   0.70365000   -5.15859000   7.06624000
H   0.72507000   -0.73387000   6.00229000
H   1.92486000   -1.51852000   8.74983000
H   1.98778000   -2.95651000   6.01224000
H   0.62276000   -3.71670000   8.68849000
H   0.68258000   -5.15672000   5.95429000
H   1.90634000   -5.93005000   8.69441000
C   0.74627000   0.71018000   7.62501000
C   2.02809000   1.43047000   7.19347000
C   3.26621000   0.68201000   7.70905000
C   4.55020000   1.40669000   7.26996000
C   5.79367000   0.66373000   7.78516000
C   7.07737000   1.39251000   7.34796000
H   0.66481000   0.71770000   8.73321000
H   3.23213000   0.67774000   8.82200000
H   5.76024000   0.65686000   8.89803000
H   2.05168000   1.50122000   6.08356000
H   4.58439000   1.47548000   6.15914000
H   7.11058000   1.46518000   6.23742000
C   7.02820000   5.86211000   7.17047000
C   5.74919000   5.12614000   7.63011000
C   4.49235000   5.87374000   7.12037000
H   7.04878000   5.88298000   6.05534000
C   5.75600000   3.66718000   7.10931000
H   5.72811000   5.10750000   8.74535000
C   4.48176000   2.93781000   7.56491000
C   3.22830000   3.67532000   7.06326000
C   3.21404000   5.13671000   7.58061000
H   5.77497000   3.67310000   5.99606000
H   4.51435000   5.89146000   6.00526000
H   3.19343000   5.12063000   8.69605000
H   3.24875000   3.67892000   5.94994000
H   4.46165000   2.87010000   8.67612000
C   7.01044000   2.92587000   7.60641000
H   6.99276000   2.85504000   8.71737000
C   1.94963000   5.87714000   7.07135000
C   1.95862000   2.94026000   7.51751000
C   0.68947000   5.11906000   7.53218000
C   0.70726000   3.67352000   7.02297000
H   1.96285000   5.88914000   5.95710000
H   0.62114000   5.11892000   8.64229000
H   0.68051000   3.66596000   5.91209000
H   1.92679000   2.87025000   8.62727000
C   12.08367000   -5.92690000   7.64090000
C   14.62218000   -5.93982000   7.69504000
C   13.36678000   -5.19173000   7.18474000
H   14.59917000   -5.96086000   8.81007000
H   14.67454000   -2.97832000   6.13998000
C   14.64738000   -2.99993000   7.25495000
C   13.36222000   -3.73497000   7.70660000
H   13.39153000   -5.17227000   6.06970000
C   12.10988000   -2.98651000   7.19029000
C   10.82275000   -3.71856000   7.64266000
C   10.82766000   -5.18169000   7.12664000
H   10.85501000   -5.16590000   6.01159000
H   12.05860000   -5.94452000   8.75587000
H   13.33473000   -3.75447000   8.82153000
H   12.13848000   -2.96853000   6.07538000
H   10.79560000   -3.73444000   8.75769000
C   12.10781000   -1.52940000   7.71155000
C   14.64405000   -1.54416000   7.78035000
C   13.39516000   -0.79472000   7.26300000
C   10.86105000   -0.77895000   7.19028000
H   12.07605000   -1.54759000   8.82639000
H   14.61436000   -1.56563000   8.89522000
H   10.89506000   -0.76228000   6.07518000
H   13.42649000   -0.77515000   6.14794000
C   9.56553000   -1.50623000   7.63632000
C   9.56672000   -2.96893000   7.12636000
C   9.54011000   -5.91796000   7.58071000
C   8.33757000   -0.73497000   7.11445000
C   8.29758000   -3.71526000   7.57891000
C   8.30265000   -5.15859000   7.06624000
H   8.32407000   -0.73387000   6.00229000
H   9.52386000   -1.51852000   8.74983000
H   9.58678000   -2.95651000   6.01224000
H   8.22176000   -3.71670000   8.68849000
H   8.28158000   -5.15672000   5.95429000
H   9.50534000   -5.93005000   8.69441000
C   8.34527000   0.71018000   7.62501000
C   9.62709000   1.43047000   7.19347000
C   10.86521000   0.68201000   7.70905000
C   12.14920000   1.40669000   7.26996000
C   13.39267000   0.66373000   7.78516000
C   14.67637000   1.39251000   7.34796000
H   8.26381000   0.71770000   8.73321000
H   10.83113000   0.67774000   8.82200000
H   13.35924000   0.65686000   8.89803000
H   9.65068000   1.50122000   6.08356000
H   12.18339000   1.47548000   6.15914000
H   14.70958000   1.46518000   6.23742000
C   14.62720000   5.86211000   7.17047000
C   13.34819000   5.12614000   7.63011000
C   12.09135000   5.87374000   7.12037000
H   14.64778000   5.88298000   6.05534000
C   13.35500000   3.66718000   7.10931000
H   13.32711000   5.10750000   8.74535000
C   12.08076000   2.93781000   7.56491000
C   10.82730000   3.67532000   7.06326000
C   10.81304000   5.13671000   7.58061000
H   13.37397000   3.67310000   5.99606000
H   12.11335000   5.89146000   6.00526000
H   10.79243000   5.12063000   8.69605000
H   10.84775000   3.67892000   5.94994000
H   12.06065000   2.87010000   8.67612000
C   14.60944000   2.92587000   7.60641000
H   14.59176000   2.85504000   8.71737000
C   9.54863000   5.87714000   7.07135000
C   9.55762000   2.94026000   7.51751000
C   8.28847000   5.11906000   7.53218000
C   8.30626000   3.67352000   7.02297000
H   9.56185000   5.88914000   5.95710000
H   8.22014000   5.11892000   8.64229000
H   8.27951000   3.66596000   5.91209000
H   9.52579000   2.87025000   8.62727000
N   -4.42964835   -0.74586812   2.91790976
C   -5.14120304   -0.71384532   4.42935662
H   -5.74246376   0.21050230   4.35450622
H   -5.80314655   -1.56352093   4.39303775
C   -4.10657084   -0.82972366   5.51923348
H   -3.70578521   -1.82762627   5.31629373
H   -3.34070068   -0.06777878   5.31117106
C   -3.64845490   0.54542290   2.78787411
H   -4.21188952   1.35208334   3.44419141
H   -2.59537746   0.40119800   2.99895869
H   -3.72126128   0.96673430   1.79066461
C   -5.60253642   -0.81823102   1.88737546
H   -6.21407003   0.04159542   2.18766960
H   -5.11814201   -0.67017544   0.86945765
H   -5.96789104   -1.82369916   2.01563671
C   -3.57953134   -1.91141415   2.82546035
H   -2.64622526   -1.68711343   3.40721649
H   -3.94061948   -2.82579476   3.19592212
H   -3.30499090   -2.00960427   1.77710052
N   5.49779172   -0.13683857   3.15113683
C   4.87554870   -0.44912278   4.53252729
H   4.33257377   0.49744227   4.69322627
H   4.10898838   -1.18565274   4.40236739
C   5.94938740   -0.80960997   5.60622292
H   6.27512358   -1.83289256   5.35455852
H   6.78522105   -0.11524845   5.40730378
C   4.31537928   -0.09595028   2.25956154
H   3.93377181   -1.07371753   2.27738089
H   3.56331416   0.59575125   2.64670340
H   4.59531226   0.29783226   1.26790221
C   6.39012351   -1.28089732   2.69396883
H   5.87371583   -2.16009887   2.89284949
H   6.64812362   -1.23075169   1.62565114
H   7.27944482   -1.21438922   3.26671418
C   6.19400985   1.19412850   3.13722328
H   6.31469174   1.47263372   2.09117179
H   5.56507187   1.85552077   3.71543521
H   7.11034569   1.19573940   3.65769246
O   -0.74171745   -0.44929753   3.60644530
H   0.13906021   -0.05796284   3.83350834
H   -0.40442036   -1.02169090   2.97565882
O   22.85789487   3.75067594   1.35992249
H   23.17648363   3.08846509   0.70008737
H   7.46550054   5.49785781   0.59985283
O   10.35987524   32.55757623   -2.65181838
H   10.14752332   31.65627033   -2.87868046
H   9.89029979   32.78431014   -1.86600619
O   20.98088075   18.31735047   3.53572472
H   20.36074604   18.93568225   3.26263600
H   20.81534429   17.47154434   3.12459706
O   -11.05676442   -5.63915968   -0.90552764
H   -10.51004200   -6.07807862   -0.29657125
H   -11.02730318   -4.67354511   -0.92634308
O   12.16251556   25.33107646   3.25561548
H   12.80523615   24.58526793   3.16579026
H   11.73505908   25.23062978   2.38520433
O   12.53769304   -7.92814538   3.92236168
H   12.22923103   4.94624659   -1.53029233
H   12.96418408   -8.41326900   3.18952720
O   -2.30435474   -0.23138474   -0.28724033
H   -2.20620515   -1.03081513   -0.82977898
H   -3.20347735   0.14296673   -0.37163555
O   -20.06430524   16.32811210   0.07858046
H   -19.08849681   16.28117351   0.15462813
H   -20.34194508   15.48620923   -0.36856418
O   5.44190066   -21.40563813   1.88291863
H   6.12482822   -20.74974109   2.03983994
H   5.96989571   -22.16523451   1.65253773
O   3.00763087   9.28767724   -2.18311856
H   3.96034167   9.13370910   -2.46724000
H   3.04400330   23.48874518   -1.64780977
O   7.84461531   6.04197390   -0.10180070
H   8.34077089   6.69766581   0.39895555
H   11.80547118   -7.58249271   3.39559799
O   40.46457264   -12.95525360   -1.06275117
H   40.54261725   -13.83669533   -0.82658106
H   41.15087544   -12.76130086   -1.72938699
O   4.11163064   7.86751795   0.35381228
H   4.96817583   8.09226528   0.72920109
H   4.05381932   6.91391006   0.53166510
O   13.53305942   3.44691058   1.74705913
H   13.35582863   2.57790386   2.16598799
H   14.23579421   3.29432767   1.08843545
O   -9.06408258   20.38662574   0.97122593
H   -8.84919129   32.93635377   1.39589126
H   -8.34417882   20.95324227   1.19987401
O   3.78571231   -24.14690473   0.80589935
H   4.02849533   -24.26103602   -0.14554912
H   3.23088818   -23.34049448   0.75429793
O   14.99233039   18.06508627   -0.57352837
H   15.34546076   17.95498780   -1.46816391
H   15.13564031   18.94767163   -0.32126120
O   6.60741723   -4.87746937   1.37914814
H   6.80435086   -4.08490663   1.92876114
H   7.42388684   -4.98295668   0.78822730
O   -16.34730766   9.47767033   2.99316017
H   -15.46984394   9.81973836   3.27636794
H   -16.42294693   8.57754640   2.58859522
O   5.19989680   4.89606258   -2.18688848
H   5.24303727   5.53832040   -2.96478726
H   6.08783642   4.74285071   -1.84999136
O   2.32003913   -7.08073415   -1.65296389
H   3.22764175   -7.12623557   -1.31325236
H   2.27179691   -6.34093808   -2.31673818
O   23.08933563   23.30628315   0.18730155
H   23.52601164   23.95188311   -0.42047971
H   22.15710724   23.56475946   0.30096883
O   44.51088884   11.62160792   -3.37185683
H   44.91186394   10.83456078   -2.95162931
H   45.05823744   12.27680310   -2.83749055
O   14.45617522   20.81273954   -0.62095482
H   14.05158182   21.18802370   -1.39419856
H   14.75530482   21.54033998   -0.11394882
O   1.97783233   -14.92173265   -3.26595992
H   1.83794959   -15.68479677   -3.81054468
H   1.10103253   -14.66726868   -2.96000071
O   -35.50016256   8.20994508   0.30125455
H   -36.39600463   8.00471633   0.13970908
H   -35.35498576   8.90594855   -0.39415880
O   12.38800580   14.22678128   0.44944623
H   13.04264732   13.85054630   1.03786850
H   23.80411120   2.27457503   3.93155699
O   -3.75388709   3.73458783   1.53344247
H   -3.01830902   4.14777968   2.02815993
H   -4.42914045   4.44441583   1.54003325
O   -10.36059902   17.39680756   0.80272446
H   -10.55140977   17.41416459   -0.19840440
H   -11.13515076   16.96811441   1.10837424
O   -43.30948542   30.25264638   -2.58025290
H   -42.47514618   29.75455689   -2.27239148
H   -12.55625797   31.01150245   -2.96555183
O   -6.34195161   7.74789986   -4.10002335
H   -6.50354810   8.68333494   -4.30325126
H   -7.13040549   7.64240217   -3.51360086
O   23.36573631   12.11551873   -1.85378309
H   24.15748010   12.76692977   -1.66907667
H   22.89573413   12.37560062   -2.61697430
O   13.44748448   10.52154533   0.34647250
H   12.58578368   10.03374165   0.26255805
H   13.74732631   10.14848994   1.14944206
O   16.87296054   5.58293807   1.66378122
H   16.08104351   4.99219485   1.50489000
H   16.60075585   6.51438881   1.53893632
O   9.58417933   22.72030859   2.98801773
H   9.50440357   22.39597075   2.11471085
H   10.53401370   23.01981534   2.88496944
O   23.93348378   -8.37762422   3.87686115
H   24.37958576   -8.53929343   3.02381465
H   22.98974117   -8.56790819   3.70713908
O   9.02967613   21.81057126   0.25046966
H   9.26350566   21.74551609   -0.73221295
H   13.69137641   26.92175667   3.23379965
O   -17.72020824   27.35920697   -2.80770820
H   -17.98215243   26.43047423   -2.67986426
H   -17.32150331   14.29679324   -1.94839065
O   0.74365831   44.64454760   2.16865259
H   0.91082985   32.14057466   2.53694943
H   0.03086500   44.18267951   2.57320431
O   9.39497413   26.20072476   3.99874258
H   9.77517630   26.84919819   3.40084308
H   9.90011633   25.41153209   4.07691100
O   34.48865896   -19.02904106   3.38877876
H   34.45264919   -20.00885741   3.21594976
H   35.05536926   -18.63441020   2.70580683
O   -15.81711801   -0.40540223   -0.95373360
H   -15.29090707   0.12975109   -0.35059438
H   -16.32468508   -1.13118979   -0.51258127
O   -13.45160333   0.07301236   3.65282226
H   -14.15605611   0.40823409   4.24177612
H   -12.62780012   0.16555612   4.23064029
O   1.57559215   15.36884260   3.20990930
H   1.90016976   16.03418998   3.84240388
H   1.79474885   15.74811109   2.32856319
O   -16.11362110   6.85239477   2.08450422
H   -15.89466648   -6.92454432   2.93774606
H   -16.88765101   6.49329639   1.67671490
O   -10.63179548   11.97225573   0.83415490
H   -11.27351279   12.69542077   0.70965821
H   -9.77842044   12.24400923   0.40059517
O   -2.33557881   15.38692554   -2.06939802
H   -3.27665299   15.18552978   -2.10137602
H   -1.97342710   14.84847605   -1.37024782
O   2.80538380   10.58647939   3.55541346
H   2.14934977   10.59671825   2.82427352
H   3.26999852   9.77298268   3.49652086
O   -4.18010127   10.82498794   -1.03694533
H   -3.73613619   10.78205900   -1.92839324
H   -4.44752968   11.78202208   -0.98432281
O   -11.04741061   19.88791520   -4.29341291
H   -11.90310030   19.95646008   -4.74598206
H   -11.10840967   20.29637603   -3.37566893
O   -17.57960082   -19.47954917   -2.92019267
H   -17.55795193   -33.13240612   -3.82228463
H   -18.44683583   -19.82932982   -2.58220719
O   -16.21849870   14.29645663   3.44196019
H   -5.46281145   9.24410067   2.15210813
H   -16.62517300   14.86272119   4.13416049
O   1.25405675   1.14891951   -0.16162408
H   1.71442610   1.40186929   0.70349184
H   0.53968567   1.77056815   -0.11301198
O   -13.46409346   -2.81560786   3.50950929
H   -13.15889379   -2.98907241   2.59010105
H   -13.46605537   -1.84409299   3.68695382
O   6.63719367   0.00242254   -0.53595604
H   7.11229937   0.48751606   -1.23391546
H   6.67193130   -14.34952927   -0.68013209
O   7.91488505   -2.57933768   -0.31926896
H   8.55320036   -2.16663519   0.25389031
H   8.19442188   -3.55630178   -0.35921695
O   1.25643151   -17.84768039   0.35525946
H   2.23574455   -18.15212159   0.42517852
H   0.96464728   -18.50391422   -0.30408204
O   19.94587075   2.19666902   2.96915119
H   19.47669275   2.57799052   3.75064256
H   20.43046554   1.40286383   3.08663623
O   9.15450661   -7.30192407   3.02068183
H   9.87029885   -7.03627807   2.41450088
H   8.82734302   -6.49158099   3.45646448
O   24.37162706   23.07356898   2.77638618
H   23.48705658   23.30121008   2.39788473
H   11.54350955   14.02650301   0.89967825
O   28.98585389   -11.21857057   1.20502943
H   28.63789318   -12.04963995   0.81493791
H   28.43108776   -10.61266182   0.61624096
O   23.05179065   1.90032061   3.40470094
H   -0.66661963   23.09507759   -0.99502450
H   22.56843789   2.59257003   2.99862368
O   -8.27501017   -10.75860330   -3.19595267
H   -7.70972412   -10.95299818   -3.95228525
H   -8.39820180   -9.82422491   -3.08339908
O   16.80397082   14.46704104   0.89579406
H   16.98387922   14.11183981   1.74350873
H   16.09456705   15.11689442   1.07585397
O   -19.71759890   10.51735296   0.38184497
H   -19.72819689   10.87185513   -0.49963635
H   -20.25046014   9.64501478   0.27168345
O   10.98476233   20.30812826   1.14239731
H   10.21384246   20.80701202   0.79976883
H   11.23858692   19.52102077   0.59949521
O   3.75192312   -14.60011221   -0.76828332
H   3.36613312   -14.30341604   -1.61012250
H   4.59917828   -14.10609612   -0.69035073
O   -7.05619780   1.69169075   -0.53789325
H   -7.19275103   2.19438833   -1.36345921
H   -6.15352221   1.20946445   -0.70662897
O   -8.26925091   26.38278866   0.35645427
H   -8.17568915   27.33485525   0.33039814
H   -7.82810835   25.99338913   -0.47674753
O   -20.21843013   1.74132863   3.03555551
H   -20.17338738   2.26964454   2.19462226
H   -20.54046875   2.24833744   3.79659075
O   8.04254101   -23.29366779   1.67102320
H   8.76085444   -23.52936567   1.04365865
H   8.43310851   -22.54371786   2.11964595
O   -4.92452708   13.54481723   -1.28570692
H   -4.50436639   13.81562146   -2.19587361
H   21.90594820   3.81374077   1.45927144
O   1.25434598   -14.95260638   1.11021892
H   1.82767872   -14.55148039   0.47175791
H   1.17515397   -15.87999211   0.87106160
O   -18.97949426   -2.35261615   -2.35582812
H   -19.55513047   -2.57350517   -3.09272924
H   -18.03414505   -2.56693880   -2.69318713
O   -9.28207364   13.08167682   3.10420289
H   -8.47522967   13.56978786   2.95303100
H   -9.47168700   12.90054337   2.14901573
O   12.22898985   4.83928199   -0.55034471
H   12.95629678   4.35452754   -0.29418549
O   -1.23421598   23.62787084   -1.62171549
H   -2.08143128   37.09753450   -1.21043743
