844

C   -10.71333000   -5.92690000   -7.35910000
C   -8.17482000   -5.93982000   -7.30496000
C   -9.43022000   -5.19173000   -7.81526000
H   -8.19783000   -5.96086000   -6.18993000
H   -8.12246000   -2.97832000   -8.86002000
C   -8.14962000   -2.99993000   -7.74505000
C   -9.43478000   -3.73497000   -7.29340000
H   -9.40547000   -5.17227000   -8.93030000
C   -10.68712000   -2.98651000   -7.80971000
C   -11.97425000   -3.71856000   -7.35734000
C   -11.96934000   -5.18169000   -7.87336000
H   -11.94199000   -5.16590000   -8.98841000
H   -10.73840000   -5.94452000   -6.24413000
H   -9.46227000   -3.75447000   -6.17847000
H   -10.65852000   -2.96853000   -8.92462000
H   -12.00140000   -3.73444000   -6.24231000
C   -10.68919000   -1.52940000   -7.28845000
C   -8.15295000   -1.54416000   -7.21965000
C   -9.40184000   -0.79472000   -7.73700000
C   -11.93595000   -0.77895000   -7.80972000
H   -10.72095000   -1.54759000   -6.17361000
H   -8.18264000   -1.56563000   -6.10478000
H   -11.90194000   -0.76228000   -8.92482000
H   -9.37051000   -0.77515000   -8.85206000
C   -13.23147000   -1.50623000   -7.36368000
C   -13.23028000   -2.96893000   -7.87364000
C   -13.25689000   -5.91796000   -7.41929000
C   -14.45943000   -0.73497000   -7.88555000
C   -14.49942000   -3.71526000   -7.42109000
C   -14.49435000   -5.15859000   -7.93376000
H   -14.47293000   -0.73387000   -8.99771000
H   -13.27314000   -1.51852000   -6.25017000
H   -13.21022000   -2.95651000   -8.98776000
H   -14.57524000   -3.71670000   -6.31151000
H   -14.51542000   -5.15672000   -9.04571000
H   -13.29166000   -5.93005000   -6.30559000
C   -14.45173000   0.71018000   -7.37499000
C   -13.16991000   1.43047000   -7.80653000
C   -11.93179000   0.68201000   -7.29095000
C   -10.64780000   1.40669000   -7.73004000
C   -9.40433000   0.66373000   -7.21484000
C   -8.12063000   1.39251000   -7.65204000
H   -14.53319000   0.71770000   -6.26679000
H   -11.96587000   0.67774000   -6.17800000
H   -9.43776000   0.65686000   -6.10197000
H   -13.14632000   1.50122000   -8.91644000
H   -10.61361000   1.47548000   -8.84086000
H   -8.08742000   1.46518000   -8.76258000
C   -8.16980000   5.86211000   -7.82953000
C   -9.44881000   5.12614000   -7.36989000
C   -10.70565000   5.87374000   -7.87963000
H   -8.14922000   5.88298000   -8.94466000
C   -9.44200000   3.66718000   -7.89069000
H   -9.46989000   5.10750000   -6.25465000
C   -10.71624000   2.93781000   -7.43509000
C   -11.96970000   3.67532000   -7.93674000
C   -11.98396000   5.13671000   -7.41939000
H   -9.42303000   3.67310000   -9.00394000
H   -10.68365000   5.89146000   -8.99474000
H   -12.00457000   5.12063000   -6.30395000
H   -11.94925000   3.67892000   -9.05006000
H   -10.73635000   2.87010000   -6.32388000
C   -8.18756000   2.92587000   -7.39359000
H   -8.20524000   2.85504000   -6.28263000
C   -13.24837000   5.87714000   -7.92865000
C   -13.23938000   2.94026000   -7.48249000
C   -14.50853000   5.11906000   -7.46782000
C   -14.49074000   3.67352000   -7.97703000
H   -13.23515000   5.88914000   -9.04290000
H   -14.57686000   5.11892000   -6.35771000
H   -14.51749000   3.66596000   -9.08791000
H   -13.27121000   2.87025000   -6.37273000
C   -3.11433000   -5.92690000   -7.35910000
C   -0.57582000   -5.93982000   -7.30496000
C   -1.83122000   -5.19173000   -7.81526000
H   -0.59883000   -5.96086000   -6.18993000
H   -0.52346000   -2.97832000   -8.86002000
C   -0.55062000   -2.99993000   -7.74505000
C   -1.83578000   -3.73497000   -7.29340000
H   -1.80647000   -5.17227000   -8.93030000
C   -3.08812000   -2.98651000   -7.80971000
C   -4.37525000   -3.71856000   -7.35734000
C   -4.37034000   -5.18169000   -7.87336000
H   -4.34299000   -5.16590000   -8.98841000
H   -3.13940000   -5.94452000   -6.24413000
H   -1.86327000   -3.75447000   -6.17847000
H   -3.05952000   -2.96853000   -8.92462000
H   -4.40240000   -3.73444000   -6.24231000
C   -3.09019000   -1.52940000   -7.28845000
C   -0.55395000   -1.54416000   -7.21965000
C   -1.80284000   -0.79472000   -7.73700000
C   -4.33695000   -0.77895000   -7.80972000
H   -3.12195000   -1.54759000   -6.17361000
H   -0.58364000   -1.56563000   -6.10478000
H   -4.30294000   -0.76228000   -8.92482000
H   -1.77151000   -0.77515000   -8.85206000
C   -5.63247000   -1.50623000   -7.36368000
C   -5.63128000   -2.96893000   -7.87364000
C   -5.65789000   -5.91796000   -7.41929000
C   -6.86043000   -0.73497000   -7.88555000
C   -6.90042000   -3.71526000   -7.42109000
C   -6.89535000   -5.15859000   -7.93376000
H   -6.87393000   -0.73387000   -8.99771000
H   -5.67414000   -1.51852000   -6.25017000
H   -5.61122000   -2.95651000   -8.98776000
H   -6.97624000   -3.71670000   -6.31151000
H   -6.91642000   -5.15672000   -9.04571000
H   -5.69266000   -5.93005000   -6.30559000
C   -6.85273000   0.71018000   -7.37499000
C   -5.57091000   1.43047000   -7.80653000
C   -4.33279000   0.68201000   -7.29095000
C   -3.04880000   1.40669000   -7.73004000
C   -1.80533000   0.66373000   -7.21484000
C   -0.52163000   1.39251000   -7.65204000
H   -6.93419000   0.71770000   -6.26679000
H   -4.36687000   0.67774000   -6.17800000
H   -1.83876000   0.65686000   -6.10197000
H   -5.54732000   1.50122000   -8.91644000
H   -3.01461000   1.47548000   -8.84086000
H   -0.48842000   1.46518000   -8.76258000
C   -0.57080000   5.86211000   -7.82953000
C   -1.84981000   5.12614000   -7.36989000
C   -3.10665000   5.87374000   -7.87963000
H   -0.55022000   5.88298000   -8.94466000
C   -1.84300000   3.66718000   -7.89069000
H   -1.87089000   5.10750000   -6.25465000
C   -3.11724000   2.93781000   -7.43509000
C   -4.37070000   3.67532000   -7.93674000
C   -4.38496000   5.13671000   -7.41939000
H   -1.82403000   3.67310000   -9.00394000
H   -3.08465000   5.89146000   -8.99474000
H   -4.40557000   5.12063000   -6.30395000
H   -4.35025000   3.67892000   -9.05006000
H   -3.13735000   2.87010000   -6.32388000
C   -0.58856000   2.92587000   -7.39359000
H   -0.60624000   2.85504000   -6.28263000
C   -5.64937000   5.87714000   -7.92865000
C   -5.64038000   2.94026000   -7.48249000
C   -6.90953000   5.11906000   -7.46782000
C   -6.89174000   3.67352000   -7.97703000
H   -5.63615000   5.88914000   -9.04290000
H   -6.97786000   5.11892000   -6.35771000
H   -6.91849000   3.66596000   -9.08791000
H   -5.67221000   2.87025000   -6.37273000
C   4.48467000   -5.92690000   -7.35910000
C   7.02318000   -5.93982000   -7.30496000
C   5.76778000   -5.19173000   -7.81526000
H   7.00017000   -5.96086000   -6.18993000
H   7.07554000   -2.97832000   -8.86002000
C   7.04838000   -2.99993000   -7.74505000
C   5.76322000   -3.73497000   -7.29340000
H   5.79253000   -5.17227000   -8.93030000
C   4.51088000   -2.98651000   -7.80971000
C   3.22375000   -3.71856000   -7.35734000
C   3.22866000   -5.18169000   -7.87336000
H   3.25601000   -5.16590000   -8.98841000
H   4.45960000   -5.94452000   -6.24413000
H   5.73573000   -3.75447000   -6.17847000
H   4.53948000   -2.96853000   -8.92462000
H   3.19660000   -3.73444000   -6.24231000
C   4.50881000   -1.52940000   -7.28845000
C   7.04505000   -1.54416000   -7.21965000
C   5.79616000   -0.79472000   -7.73700000
C   3.26205000   -0.77895000   -7.80972000
H   4.47705000   -1.54759000   -6.17361000
H   7.01536000   -1.56563000   -6.10478000
H   3.29606000   -0.76228000   -8.92482000
H   5.82749000   -0.77515000   -8.85206000
C   1.96653000   -1.50623000   -7.36368000
C   1.96772000   -2.96893000   -7.87364000
C   1.94111000   -5.91796000   -7.41929000
C   0.73857000   -0.73497000   -7.88555000
C   0.69858000   -3.71526000   -7.42109000
C   0.70365000   -5.15859000   -7.93376000
H   0.72507000   -0.73387000   -8.99771000
H   1.92486000   -1.51852000   -6.25017000
H   1.98778000   -2.95651000   -8.98776000
H   0.62276000   -3.71670000   -6.31151000
H   0.68258000   -5.15672000   -9.04571000
H   1.90634000   -5.93005000   -6.30559000
C   0.74627000   0.71018000   -7.37499000
C   2.02809000   1.43047000   -7.80653000
C   3.26621000   0.68201000   -7.29095000
C   4.55020000   1.40669000   -7.73004000
C   5.79367000   0.66373000   -7.21484000
C   7.07737000   1.39251000   -7.65204000
H   0.66481000   0.71770000   -6.26679000
H   3.23213000   0.67774000   -6.17800000
H   5.76024000   0.65686000   -6.10197000
H   2.05168000   1.50122000   -8.91644000
H   4.58439000   1.47548000   -8.84086000
H   7.11058000   1.46518000   -8.76258000
C   7.02820000   5.86211000   -7.82953000
C   5.74919000   5.12614000   -7.36989000
C   4.49235000   5.87374000   -7.87963000
H   7.04878000   5.88298000   -8.94466000
C   5.75600000   3.66718000   -7.89069000
H   5.72811000   5.10750000   -6.25465000
C   4.48176000   2.93781000   -7.43509000
C   3.22830000   3.67532000   -7.93674000
C   3.21404000   5.13671000   -7.41939000
H   5.77497000   3.67310000   -9.00394000
H   4.51435000   5.89146000   -8.99474000
H   3.19343000   5.12063000   -6.30395000
H   3.24875000   3.67892000   -9.05006000
H   4.46165000   2.87010000   -6.32388000
C   7.01044000   2.92587000   -7.39359000
H   6.99276000   2.85504000   -6.28263000
C   1.94963000   5.87714000   -7.92865000
C   1.95862000   2.94026000   -7.48249000
C   0.68947000   5.11906000   -7.46782000
C   0.70726000   3.67352000   -7.97703000
H   1.96285000   5.88914000   -9.04290000
H   0.62114000   5.11892000   -6.35771000
H   0.68051000   3.66596000   -9.08791000
H   1.92679000   2.87025000   -6.37273000
C   12.08367000   -5.92690000   -7.35910000
C   14.62218000   -5.93982000   -7.30496000
C   13.36678000   -5.19173000   -7.81526000
H   14.59917000   -5.96086000   -6.18993000
H   14.67454000   -2.97832000   -8.86002000
C   14.64738000   -2.99993000   -7.74505000
C   13.36222000   -3.73497000   -7.29340000
H   13.39153000   -5.17227000   -8.93030000
C   12.10988000   -2.98651000   -7.80971000
C   10.82275000   -3.71856000   -7.35734000
C   10.82766000   -5.18169000   -7.87336000
H   10.85501000   -5.16590000   -8.98841000
H   12.05860000   -5.94452000   -6.24413000
H   13.33473000   -3.75447000   -6.17847000
H   12.13848000   -2.96853000   -8.92462000
H   10.79560000   -3.73444000   -6.24231000
C   12.10781000   -1.52940000   -7.28845000
C   14.64405000   -1.54416000   -7.21965000
C   13.39516000   -0.79472000   -7.73700000
C   10.86105000   -0.77895000   -7.80972000
H   12.07605000   -1.54759000   -6.17361000
H   14.61436000   -1.56563000   -6.10478000
H   10.89506000   -0.76228000   -8.92482000
H   13.42649000   -0.77515000   -8.85206000
C   9.56553000   -1.50623000   -7.36368000
C   9.56672000   -2.96893000   -7.87364000
C   9.54011000   -5.91796000   -7.41929000
C   8.33757000   -0.73497000   -7.88555000
C   8.29758000   -3.71526000   -7.42109000
C   8.30265000   -5.15859000   -7.93376000
H   8.32407000   -0.73387000   -8.99771000
H   9.52386000   -1.51852000   -6.25017000
H   9.58678000   -2.95651000   -8.98776000
H   8.22176000   -3.71670000   -6.31151000
H   8.28158000   -5.15672000   -9.04571000
H   9.50534000   -5.93005000   -6.30559000
C   8.34527000   0.71018000   -7.37499000
C   9.62709000   1.43047000   -7.80653000
C   10.86521000   0.68201000   -7.29095000
C   12.14920000   1.40669000   -7.73004000
C   13.39267000   0.66373000   -7.21484000
C   14.67637000   1.39251000   -7.65204000
H   8.26381000   0.71770000   -6.26679000
H   10.83113000   0.67774000   -6.17800000
H   13.35924000   0.65686000   -6.10197000
H   9.65068000   1.50122000   -8.91644000
H   12.18339000   1.47548000   -8.84086000
H   14.70958000   1.46518000   -8.76258000
C   14.62720000   5.86211000   -7.82953000
C   13.34819000   5.12614000   -7.36989000
C   12.09135000   5.87374000   -7.87963000
H   14.64778000   5.88298000   -8.94466000
C   13.35500000   3.66718000   -7.89069000
H   13.32711000   5.10750000   -6.25465000
C   12.08076000   2.93781000   -7.43509000
C   10.82730000   3.67532000   -7.93674000
C   10.81304000   5.13671000   -7.41939000
H   13.37397000   3.67310000   -9.00394000
H   12.11335000   5.89146000   -8.99474000
H   10.79243000   5.12063000   -6.30395000
H   10.84775000   3.67892000   -9.05006000
H   12.06065000   2.87010000   -6.32388000
C   14.60944000   2.92587000   -7.39359000
H   14.59176000   2.85504000   -6.28263000
C   9.54863000   5.87714000   -7.92865000
C   9.55762000   2.94026000   -7.48249000
C   8.28847000   5.11906000   -7.46782000
C   8.30626000   3.67352000   -7.97703000
H   9.56185000   5.88914000   -9.04290000
H   8.22014000   5.11892000   -6.35771000
H   8.27951000   3.66596000   -9.08791000
H   9.52579000   2.87025000   -6.37273000
C   -10.71333000   -5.92690000   7.64090000
C   -8.17482000   -5.93982000   7.69504000
C   -9.43022000   -5.19173000   7.18474000
H   -8.19783000   -5.96086000   8.81007000
H   -8.12246000   -2.97832000   6.13998000
C   -8.14962000   -2.99993000   7.25495000
C   -9.43478000   -3.73497000   7.70660000
H   -9.40547000   -5.17227000   6.06970000
C   -10.68712000   -2.98651000   7.19029000
C   -11.97425000   -3.71856000   7.64266000
C   -11.96934000   -5.18169000   7.12664000
H   -11.94199000   -5.16590000   6.01159000
H   -10.73840000   -5.94452000   8.75587000
H   -9.46227000   -3.75447000   8.82153000
H   -10.65852000   -2.96853000   6.07538000
H   -12.00140000   -3.73444000   8.75769000
C   -10.68919000   -1.52940000   7.71155000
C   -8.15295000   -1.54416000   7.78035000
C   -9.40184000   -0.79472000   7.26300000
C   -11.93595000   -0.77895000   7.19028000
H   -10.72095000   -1.54759000   8.82639000
H   -8.18264000   -1.56563000   8.89522000
H   -11.90194000   -0.76228000   6.07518000
H   -9.37051000   -0.77515000   6.14794000
C   -13.23147000   -1.50623000   7.63632000
C   -13.23028000   -2.96893000   7.12636000
C   -13.25689000   -5.91796000   7.58071000
C   -14.45943000   -0.73497000   7.11445000
C   -14.49942000   -3.71526000   7.57891000
C   -14.49435000   -5.15859000   7.06624000
H   -14.47293000   -0.73387000   6.00229000
H   -13.27314000   -1.51852000   8.74983000
H   -13.21022000   -2.95651000   6.01224000
H   -14.57524000   -3.71670000   8.68849000
H   -14.51542000   -5.15672000   5.95429000
H   -13.29166000   -5.93005000   8.69441000
C   -14.45173000   0.71018000   7.62501000
C   -13.16991000   1.43047000   7.19347000
C   -11.93179000   0.68201000   7.70905000
C   -10.64780000   1.40669000   7.26996000
C   -9.40433000   0.66373000   7.78516000
C   -8.12063000   1.39251000   7.34796000
H   -14.53319000   0.71770000   8.73321000
H   -11.96587000   0.67774000   8.82200000
H   -9.43776000   0.65686000   8.89803000
H   -13.14632000   1.50122000   6.08356000
H   -10.61361000   1.47548000   6.15914000
H   -8.08742000   1.46518000   6.23742000
C   -8.16980000   5.86211000   7.17047000
C   -9.44881000   5.12614000   7.63011000
C   -10.70565000   5.87374000   7.12037000
H   -8.14922000   5.88298000   6.05534000
C   -9.44200000   3.66718000   7.10931000
H   -9.46989000   5.10750000   8.74535000
C   -10.71624000   2.93781000   7.56491000
C   -11.96970000   3.67532000   7.06326000
C   -11.98396000   5.13671000   7.58061000
H   -9.42303000   3.67310000   5.99606000
H   -10.68365000   5.89146000   6.00526000
H   -12.00457000   5.12063000   8.69605000
H   -11.94925000   3.67892000   5.94994000
H   -10.73635000   2.87010000   8.67612000
C   -8.18756000   2.92587000   7.60641000
H   -8.20524000   2.85504000   8.71737000
C   -13.24837000   5.87714000   7.07135000
C   -13.23938000   2.94026000   7.51751000
C   -14.50853000   5.11906000   7.53218000
C   -14.49074000   3.67352000   7.02297000
H   -13.23515000   5.88914000   5.95710000
H   -14.57686000   5.11892000   8.64229000
H   -14.51749000   3.66596000   5.91209000
H   -13.27121000   2.87025000   8.62727000
C   -3.11433000   -5.92690000   7.64090000
C   -0.57582000   -5.93982000   7.69504000
C   -1.83122000   -5.19173000   7.18474000
H   -0.59883000   -5.96086000   8.81007000
H   -0.52346000   -2.97832000   6.13998000
C   -0.55062000   -2.99993000   7.25495000
C   -1.83578000   -3.73497000   7.70660000
H   -1.80647000   -5.17227000   6.06970000
C   -3.08812000   -2.98651000   7.19029000
C   -4.37525000   -3.71856000   7.64266000
C   -4.37034000   -5.18169000   7.12664000
H   -4.34299000   -5.16590000   6.01159000
H   -3.13940000   -5.94452000   8.75587000
H   -1.86327000   -3.75447000   8.82153000
H   -3.05952000   -2.96853000   6.07538000
H   -4.40240000   -3.73444000   8.75769000
C   -3.09019000   -1.52940000   7.71155000
C   -0.55395000   -1.54416000   7.78035000
C   -1.80284000   -0.79472000   7.26300000
C   -4.33695000   -0.77895000   7.19028000
H   -3.12195000   -1.54759000   8.82639000
H   -0.58364000   -1.56563000   8.89522000
H   -1.77151000   -0.77515000   6.14794000
C   -5.63247000   -1.50623000   7.63632000
C   -5.63128000   -2.96893000   7.12636000
C   -5.65789000   -5.91796000   7.58071000
C   -6.86043000   -0.73497000   7.11445000
C   -6.90042000   -3.71526000   7.57891000
C   -6.89535000   -5.15859000   7.06624000
H   -6.87393000   -0.73387000   6.00229000
H   -5.67414000   -1.51852000   8.74983000
H   -5.61122000   -2.95651000   6.01224000
H   -6.97624000   -3.71670000   8.68849000
H   -6.91642000   -5.15672000   5.95429000
H   -5.69266000   -5.93005000   8.69441000
C   -6.85273000   0.71018000   7.62501000
C   -5.57091000   1.43047000   7.19347000
C   -4.33279000   0.68201000   7.70905000
C   -3.04880000   1.40669000   7.26996000
C   -1.80533000   0.66373000   7.78516000
C   -0.52163000   1.39251000   7.34796000
H   -6.93419000   0.71770000   8.73321000
H   -4.36687000   0.67774000   8.82200000
H   -1.83876000   0.65686000   8.89803000
H   -5.54732000   1.50122000   6.08356000
H   -3.01461000   1.47548000   6.15914000
H   -0.48842000   1.46518000   6.23742000
C   -0.57080000   5.86211000   7.17047000
C   -1.84981000   5.12614000   7.63011000
C   -3.10665000   5.87374000   7.12037000
H   -0.55022000   5.88298000   6.05534000
C   -1.84300000   3.66718000   7.10931000
H   -1.87089000   5.10750000   8.74535000
C   -3.11724000   2.93781000   7.56491000
C   -4.37070000   3.67532000   7.06326000
C   -4.38496000   5.13671000   7.58061000
H   -1.82403000   3.67310000   5.99606000
H   -3.08465000   5.89146000   6.00526000
H   -4.40557000   5.12063000   8.69605000
H   -4.35025000   3.67892000   5.94994000
H   -3.13735000   2.87010000   8.67612000
C   -0.58856000   2.92587000   7.60641000
H   -0.60624000   2.85504000   8.71737000
C   -5.64937000   5.87714000   7.07135000
C   -5.64038000   2.94026000   7.51751000
C   -6.90953000   5.11906000   7.53218000
C   -6.89174000   3.67352000   7.02297000
H   -5.63615000   5.88914000   5.95710000
H   -6.97786000   5.11892000   8.64229000
H   -6.91849000   3.66596000   5.91209000
H   -5.67221000   2.87025000   8.62727000
C   4.48467000   -5.92690000   7.64090000
C   7.02318000   -5.93982000   7.69504000
C   5.76778000   -5.19173000   7.18474000
H   7.00017000   -5.96086000   8.81007000
H   7.07554000   -2.97832000   6.13998000
C   7.04838000   -2.99993000   7.25495000
C   5.76322000   -3.73497000   7.70660000
H   5.79253000   -5.17227000   6.06970000
C   4.51088000   -2.98651000   7.19029000
C   3.22375000   -3.71856000   7.64266000
C   3.22866000   -5.18169000   7.12664000
H   3.25601000   -5.16590000   6.01159000
H   4.45960000   -5.94452000   8.75587000
H   5.73573000   -3.75447000   8.82153000
H   4.53948000   -2.96853000   6.07538000
H   3.19660000   -3.73444000   8.75769000
C   4.50881000   -1.52940000   7.71155000
C   7.04505000   -1.54416000   7.78035000
C   5.79616000   -0.79472000   7.26300000
C   3.26205000   -0.77895000   7.19028000
H   4.47705000   -1.54759000   8.82639000
H   7.01536000   -1.56563000   8.89522000
H   3.29606000   -0.76228000   6.07518000
C   1.96653000   -1.50623000   7.63632000
C   1.96772000   -2.96893000   7.12636000
C   1.94111000   -5.91796000   7.58071000
C   0.73857000   -0.73497000   7.11445000
C   0.69858000   -3.71526000   7.57891000
C   0.70365000   -5.15859000   7.06624000
H   0.72507000   -0.73387000   6.00229000
H   1.92486000   -1.51852000   8.74983000
H   1.98778000   -2.95651000   6.01224000
H   0.62276000   -3.71670000   8.68849000
H   0.68258000   -5.15672000   5.95429000
H   1.90634000   -5.93005000   8.69441000
C   0.74627000   0.71018000   7.62501000
C   2.02809000   1.43047000   7.19347000
C   3.26621000   0.68201000   7.70905000
C   4.55020000   1.40669000   7.26996000
C   5.79367000   0.66373000   7.78516000
C   7.07737000   1.39251000   7.34796000
H   0.66481000   0.71770000   8.73321000
H   3.23213000   0.67774000   8.82200000
H   5.76024000   0.65686000   8.89803000
H   2.05168000   1.50122000   6.08356000
H   4.58439000   1.47548000   6.15914000
H   7.11058000   1.46518000   6.23742000
C   7.02820000   5.86211000   7.17047000
C   5.74919000   5.12614000   7.63011000
C   4.49235000   5.87374000   7.12037000
H   7.04878000   5.88298000   6.05534000
C   5.75600000   3.66718000   7.10931000
H   5.72811000   5.10750000   8.74535000
C   4.48176000   2.93781000   7.56491000
C   3.22830000   3.67532000   7.06326000
C   3.21404000   5.13671000   7.58061000
H   5.77497000   3.67310000   5.99606000
H   4.51435000   5.89146000   6.00526000
H   3.19343000   5.12063000   8.69605000
H   3.24875000   3.67892000   5.94994000
H   4.46165000   2.87010000   8.67612000
C   7.01044000   2.92587000   7.60641000
H   6.99276000   2.85504000   8.71737000
C   1.94963000   5.87714000   7.07135000
C   1.95862000   2.94026000   7.51751000
C   0.68947000   5.11906000   7.53218000
C   0.70726000   3.67352000   7.02297000
H   1.96285000   5.88914000   5.95710000
H   0.62114000   5.11892000   8.64229000
H   0.68051000   3.66596000   5.91209000
H   1.92679000   2.87025000   8.62727000
C   12.08367000   -5.92690000   7.64090000
C   14.62218000   -5.93982000   7.69504000
C   13.36678000   -5.19173000   7.18474000
H   14.59917000   -5.96086000   8.81007000
H   14.67454000   -2.97832000   6.13998000
C   14.64738000   -2.99993000   7.25495000
C   13.36222000   -3.73497000   7.70660000
H   13.39153000   -5.17227000   6.06970000
C   12.10988000   -2.98651000   7.19029000
C   10.82275000   -3.71856000   7.64266000
C   10.82766000   -5.18169000   7.12664000
H   10.85501000   -5.16590000   6.01159000
H   12.05860000   -5.94452000   8.75587000
H   13.33473000   -3.75447000   8.82153000
H   12.13848000   -2.96853000   6.07538000
H   10.79560000   -3.73444000   8.75769000
C   12.10781000   -1.52940000   7.71155000
C   14.64405000   -1.54416000   7.78035000
C   13.39516000   -0.79472000   7.26300000
C   10.86105000   -0.77895000   7.19028000
H   12.07605000   -1.54759000   8.82639000
H   14.61436000   -1.56563000   8.89522000
H   10.89506000   -0.76228000   6.07518000
H   13.42649000   -0.77515000   6.14794000
C   9.56553000   -1.50623000   7.63632000
C   9.56672000   -2.96893000   7.12636000
C   9.54011000   -5.91796000   7.58071000
C   8.33757000   -0.73497000   7.11445000
C   8.29758000   -3.71526000   7.57891000
C   8.30265000   -5.15859000   7.06624000
H   8.32407000   -0.73387000   6.00229000
H   9.52386000   -1.51852000   8.74983000
H   9.58678000   -2.95651000   6.01224000
H   8.22176000   -3.71670000   8.68849000
H   8.28158000   -5.15672000   5.95429000
H   9.50534000   -5.93005000   8.69441000
C   8.34527000   0.71018000   7.62501000
C   9.62709000   1.43047000   7.19347000
C   10.86521000   0.68201000   7.70905000
C   12.14920000   1.40669000   7.26996000
C   13.39267000   0.66373000   7.78516000
C   14.67637000   1.39251000   7.34796000
H   8.26381000   0.71770000   8.73321000
H   10.83113000   0.67774000   8.82200000
H   13.35924000   0.65686000   8.89803000
H   9.65068000   1.50122000   6.08356000
H   12.18339000   1.47548000   6.15914000
H   14.70958000   1.46518000   6.23742000
C   14.62720000   5.86211000   7.17047000
C   13.34819000   5.12614000   7.63011000
C   12.09135000   5.87374000   7.12037000
H   14.64778000   5.88298000   6.05534000
C   13.35500000   3.66718000   7.10931000
H   13.32711000   5.10750000   8.74535000
C   12.08076000   2.93781000   7.56491000
C   10.82730000   3.67532000   7.06326000
C   10.81304000   5.13671000   7.58061000
H   13.37397000   3.67310000   5.99606000
H   12.11335000   5.89146000   6.00526000
H   10.79243000   5.12063000   8.69605000
H   10.84775000   3.67892000   5.94994000
H   12.06065000   2.87010000   8.67612000
C   14.60944000   2.92587000   7.60641000
H   14.59176000   2.85504000   8.71737000
C   9.54863000   5.87714000   7.07135000
C   9.55762000   2.94026000   7.51751000
C   8.28847000   5.11906000   7.53218000
C   8.30626000   3.67352000   7.02297000
H   9.56185000   5.88914000   5.95710000
H   8.22014000   5.11892000   8.64229000
H   8.27951000   3.66596000   5.91209000
H   9.52579000   2.87025000   8.62727000
N   -4.11686422   -0.15576482   3.02125027
C   -3.93405629   0.22398476   4.46128478
H   -2.93706232   0.69098772   4.54759472
H   -4.62493015   1.07425264   4.63345088
C   -4.31474819   -0.86818946   5.47789746
H   -5.27287375   -1.21750996   5.11492999
H   -3.51170280   -1.61999977   5.26806413
C   -3.83753332   1.03315141   2.20287851
H   -2.83805038   1.42329886   2.53846791
H   -3.83869467   0.64489530   1.14919382
H   -4.51560256   1.80111758   2.51332570
C   -5.58735896   -0.58948135   2.83894104
H   -6.14477599   0.06028912   3.51179478
H   -5.91750969   -0.64356221   1.77615307
H   -5.64278872   -1.53287263   3.31368820
C   -3.25211518   -1.32063546   2.51838569
H   -3.47929223   -2.20845674   3.06601940
H   -3.36195097   -1.37633649   1.45436662
H   -2.21932948   -1.12889778   2.80373090
N   6.23898754   -1.21595418   3.16583892
C   6.31747842   -1.73507789   4.69268657
H   5.80659692   -2.68096184   4.73221052
H   7.43688198   -1.95062030   4.81146059
C   5.77000252   -0.66619424   5.66415293
H   6.33306099   0.21064586   5.34636268
H   4.75193111   -0.44277813   5.31089037
C   6.97044215   0.04480031   3.00344743
H   7.99829671   0.03763253   3.41898691
H   7.06208041   0.25475126   1.97809108
H   6.34077762   0.89595198   3.44218291
C   4.74991144   -0.96726803   2.73022456
H   4.43210751   -2.07488175   2.68757815
H   4.23034496   -0.42130335   3.45044317
H   4.72739197   -0.57153288   1.70103516
C   6.92741006   -2.18923049   2.23197407
H   7.95573889   -2.13299028   2.44880117
H   6.58065510   -3.21527624   2.42020269
H   6.74055804   -1.96295381   1.13436890
O   -14.25052183   6.70824540   1.54021446
H   -14.70937988   7.18199710   0.79089545
H   -14.43425140   5.75541090   1.48453362
O   -21.41599094   21.07831896   -0.54482161
H   -22.25812080   20.56506072   -0.70786612
H   -27.33905684   -37.77715817   -1.14541823
O   -10.27147539   6.29437966   3.11725761
H   -10.73433008   6.98522739   2.66007637
H   -9.62384335   6.72279923   3.72056857
O   2.45806034   4.40751612   0.31918036
H   2.28761968   4.50130156   -0.66257614
H   3.48314468   4.62558741   0.37154009
O   -15.77268626   -26.31724931   1.95216115
H   -15.98785763   -26.66005253   1.07912495
H   -15.91644500   -25.33508975   1.83534847
O   6.11414669   -23.79719054   3.44875007
H   5.28563228   -23.56362765   3.90209081
H   6.49117175   -23.05390847   3.01441427
O   -26.19761594   21.89212655   3.09323496
H   -27.83765000   3.09745390   4.37450232
H   -25.58291221   21.85522381   2.30166041
O   -21.25041318   -37.77211622   0.18323376
H   -21.11173724   -38.58700089   0.66963045
H   -21.89217728   -37.30423012   0.68555946
O   -10.91713892   0.98351733   2.65594840
H   -10.85735100   0.81236265   3.60183163
H   -20.71306643   20.45145648   -0.38229544
O   25.92173556   -17.68599326   -4.16737520
H   -9.27353767   8.77308836   0.80861329
H   25.52026562   -18.15428442   -4.92301503
O   -33.25993895   -5.89680175   -0.44238064
H   -32.29445069   -5.98312407   -0.47917587
H   -33.42623806   -6.51407373   0.34716151
O   -27.41838344   -38.09085153   -2.05814198
H   -27.46978341   -37.37828368   -2.66436445
H   -27.08301351   21.57808489   2.92767170
O   2.43000336   -3.49829114   -2.38084956
H   -9.37878882   -5.87476427   -2.07487150
H   2.97849972   -4.30285157   -2.36403024
O   7.06197335   5.87831807   -1.40342299
H   6.61294973   5.39628451   -2.14939753
H   6.28576032   5.85470397   -0.69953571
O   -10.17748587   -1.34235429   -0.61095625
H   -11.10970573   -1.33285271   -0.41845429
H   -10.21918587   -1.73243048   -1.52019889
O   -9.82104654   3.36456676   -0.64678583
H   -9.55363419   4.24870531   -0.18249641
H   -9.28307849   3.39390081   -1.43900951
O   -8.43525436   22.59503111   0.93912666
H   -7.87866668   21.83370523   0.83518501
H   -22.12465944   -13.39729759   0.17460161
O   -10.99720163   -9.76577588   1.91538634
H   -10.88069283   -8.96207347   2.42488389
H   -10.53775248   -9.70125218   1.03324068
O   -27.10942640   -21.99202083   3.16935429
H   -26.31108685   -21.48747369   3.02874416
H   -27.69898657   -21.49807251   2.56761399
O   -26.25257831   -14.44567483   -0.46922029
H   -25.56550034   -14.68499136   -1.02389168
H   -26.73856257   -13.82777037   -0.96057168
O   6.36206812   7.82748901   0.60954406
H   6.77392414   8.14579512   -0.17487598
H   5.73414196   7.17527821   0.33556221
O   3.90502347   -24.83887454   1.51621535
H   4.84705508   -24.66103948   1.70942059
H   3.53900835   -23.93092380   1.22433648
O   -3.17226310   24.66908956   -2.60101001
H   -3.51765573   24.57056298   -3.50289352
H   -3.24609135   23.80481431   -2.14997525
O   -1.56878057   -33.11399376   2.79387351
H   -1.53722877   -34.07861726   2.74557647
H   -2.43581410   -32.87214007   2.33597885
O   -33.06483175   -17.36642529   4.11187859
H   -33.10165245   -17.31636118   3.14963233
H   -32.52688613   -18.21494186   4.23674804
O   -7.06555690   -19.94879291   0.17882558
H   -7.84802553   -20.55861754   0.23245490
H   -6.38202950   -20.25946241   0.74308005
O   11.11821027   5.78773010   -0.01857990
H   -19.00767631   6.47324002   -0.62673803
H   11.71194150   5.98385407   0.74527167
O   -23.05297208   -13.29861020   0.09991581
H   -23.28895517   -12.44147742   -0.20717509
H   -1.40138423   28.68559629   -0.15208662
O   4.49644711   26.50895774   -2.95766461
H   3.99251474   26.03861881   -3.62019936
H   4.56004515   27.43548300   -3.11718729
O   23.88895205   4.21392611   1.21967050
H   24.28571677   3.47288814   0.69141418
H   22.89728967   4.22330236   1.11578676
O   0.25755333   8.51939007   -1.01213504
H   0.79490873   9.07726849   -1.59971502
H   -0.55271401   8.97674142   -0.60488546
O   -20.42652588   -3.31853734   -2.26888122
H   -19.58511183   -2.84681332   -2.28757126
H   -20.31428974   -4.21693614   -1.84181652
O   -23.01824638   -8.88203038   1.27933391
H   -12.36912788   -8.50387267   -0.65230762
H   -23.87065438   -8.86879422   0.87832230
O   -12.36051317   -6.39168858   -2.27331382
H   18.50007008   -6.07403438   -1.47907248
H   -13.22073799   -6.70966690   -1.90694013
O   0.50712519   -9.78903417   2.27901141
H   0.31183672   -8.96492708   2.76213890
H   1.32408146   -9.62180550   1.73458461
O   16.39177862   3.21801220   -3.16658337
H   16.87431482   3.27759783   -2.30484758
H   16.92612431   3.69383531   -3.78608621
O   -9.98795617   21.72786848   -4.26553566
H   -10.40162210   22.29200514   -3.59278328
H   -10.63818803   21.12679626   -4.54425531
O   -4.46594773   26.86059382   -0.53024970
H   -4.33183530   26.37352243   -1.30639584
H   -4.39383695   27.80253129   -0.75864259
O   -41.77866462   -3.81800584   -0.20300918
H   -42.07991109   -4.76796380   -0.13996025
H   -40.89772132   -3.93830381   -0.61104924
O   4.01011332   4.76896507   -2.40383279
H   4.23912257   4.86072861   -1.48151485
H   3.93711336   5.59133480   -2.92075863
O   -8.41785518   3.54725596   3.91206206
H   -7.85566598   3.38749557   3.13485013
H   -9.33633138   16.95652467   3.59708988
O   -28.73894800   -6.36677789   1.29254483
H   -29.00325675   -5.71549353   0.60368808
H   -28.37780326   -7.09454346   0.74593140
O   -9.45581721   7.87205073   -1.21371205
H   -22.40914946   -8.62992587   0.60730660
H   -9.53141433   7.16218082   -0.55242600
O   9.85098944   -17.03624022   1.42490429
H   10.46751075   -16.84707693   0.70623165
H   9.19642375   -17.71520204   1.16751547
O   23.46979969   2.33885222   -1.89440400
H   23.66252636   2.03893512   -1.02017343
H   23.31798932   1.52923287   -2.42572307
O   -3.32330522   16.32617093   -1.66343409
H   -3.40391351   30.70536811   -1.59305386
H   -3.61144225   16.13623090   -2.55805852
O   9.91561160   -15.21302542   3.85303780
H   9.97177712   -16.19282597   3.86057002
H   10.68961757   -14.86355033   3.39556963
O   -16.86944454   4.30252606   -1.85610028
H   -16.08759222   -9.61004107   -1.98715725
H   -17.52871237   3.66460767   -1.56321266
O   9.94771328   -0.79739319   -0.32864195
H   9.72035496   -1.64091647   -0.75952115
H   10.32477352   -0.10329989   -0.89182264
O   -14.26410822   16.99198767   1.76230839
H   -13.71616577   3.73072186   0.96933128
H   -13.68313122   17.01711667   2.53347664
O   -5.13368796   3.64516750   3.33909124
H   -5.19016024   4.30637286   4.03487796
H   -5.68482409   3.87173200   2.52242735
O   -4.82217026   -3.68164395   1.17091715
H   -5.75613016   -3.61169588   1.03786878
H   -4.62415820   -4.59566804   0.97356005
O   -27.31061370   -46.11319392   -3.73832444
H   -28.15559849   -45.85859680   -4.08449024
H   -26.66637056   -46.15993795   -4.40889774
O   -25.57666239   -7.96316941   0.10648873
H   -26.10227386   -7.16333261   0.27725446
H   -4.91842620   -31.36691413   -3.31797200
O   -9.17486879   -21.38077317   0.60901980
H   -9.42115771   -21.04057319   1.48213432
H   2.90814109   -16.10964362   -2.13294290
O   -24.02532059   -16.83813237   -2.42015326
H   -23.06823942   -17.04951157   -2.39847423
H   -24.15804779   -16.00503215   -2.89136755
O   -38.09350652   -0.37835354   -3.47654471
H   -37.30997013   -0.85324010   -3.78546446
H   -38.71180846   -1.12224888   -3.26202762
O   -12.24520203   11.53683034   3.09117901
H   -12.50464477   12.07845160   2.34625683
H   -12.78647893   10.71900688   2.93828195
O   -16.06324786   -11.97560009   -2.87445284
H   -15.41830069   -11.42320847   -3.32465194
H   -16.91826660   -11.61953134   -3.10582025
O   23.31258616   19.73331436   -2.46848689
H   23.13610892   20.15485364   -1.62037254
H   23.42767226   18.75705814   -2.36638208
O   -17.42190585   9.16883453   -1.46168000
H   -17.37820525   8.55761628   -2.26009302
H   -16.51598906   9.14834962   -1.23237632
O   18.65371418   6.66054853   0.31810883
H   19.57817600   6.34789870   0.50567003
H   18.19531264   6.59922208   1.18150637
O   -1.63012850   28.98950136   0.71939427
H   5.53481208   28.92924202   -1.20465007
H   -0.80564480   29.16383126   1.25004140
O   26.36179614   -7.65499334   -2.58998273
H   26.99933888   -7.21962153   -2.05925463
H   25.57310462   -7.14978297   -2.59120600
O   -1.21827267   5.20545256   0.65756062
H   -0.42766234   4.70203225   0.64127513
H   -1.91585156   4.56193410   0.45588372
O   19.08327616   -4.68890707   2.55133057
H   19.57206030   -4.25867221   3.23320658
H   18.75695111   -4.08269517   1.89853218
O   15.88776398   -15.91888838   -1.76082500
H   16.67627514   -15.68725965   -1.27048044
H   15.70016359   -16.83400456   -1.52313692
O   15.14018851   9.17514253   0.37918853
H   15.99715144   9.54421942   0.21328760
H   14.45805533   9.89144088   0.47988200
O   -12.63508438   -9.42155768   -0.68675509
H   -11.77533758   -9.83427027   -0.51495504
H   -10.93709653   -11.45253518   2.40507058
O   20.70787297   10.69105573   4.06017799
H   20.08577547   11.40599314   3.83524565
H   21.45739596   10.79435875   3.39439819
O   -8.25663823   15.16915997   1.52206634
H   -8.39358305   15.68647443   0.74869100
H   21.42099170   14.67477689   1.91201174
O   -19.63907675   -10.31496518   -2.35948566
H   -20.31409322   -10.88444189   -2.04528123
H   -19.77725505   -9.58943127   -1.74061953
O   28.81804190   27.04261221   -2.73276855
H   29.17564850   26.14776505   -2.60666008
H   27.89982599   26.85475619   -2.55546772
O   22.77573023   36.94443780   -2.84655743
H   22.06060421   36.31060913   -3.09557969
H   23.38680981   36.56827907   -2.21057355
O   17.08611030   -0.83081285   0.52260748
H   16.34805410   -0.18642661   0.65032818
H   17.60904690   -0.48854740   -0.21983545
O   13.45536097   6.77650191   -3.11944439
H   13.37764381   6.05140467   -2.45205348
H   14.04983493   6.45865105   -3.76797772
O   -28.02950535   2.18516515   4.12298185
H   -27.27101171   2.03314031   3.62657720
O   6.13387753   29.67609744   -0.87551696
H   5.71902905   30.56310327   -1.02125400
