844

C   -10.71333000   -5.92690000   -7.35910000
C   -8.17482000   -5.93982000   -7.30496000
C   -9.43022000   -5.19173000   -7.81526000
H   -8.19783000   -5.96086000   -6.18993000
H   -8.12246000   -2.97832000   -8.86002000
C   -8.14962000   -2.99993000   -7.74505000
C   -9.43478000   -3.73497000   -7.29340000
H   -9.40547000   -5.17227000   -8.93030000
C   -10.68712000   -2.98651000   -7.80971000
C   -11.97425000   -3.71856000   -7.35734000
C   -11.96934000   -5.18169000   -7.87336000
H   -11.94199000   -5.16590000   -8.98841000
H   -10.73840000   -5.94452000   -6.24413000
H   -9.46227000   -3.75447000   -6.17847000
H   -10.65852000   -2.96853000   -8.92462000
H   -12.00140000   -3.73444000   -6.24231000
C   -10.68919000   -1.52940000   -7.28845000
C   -8.15295000   -1.54416000   -7.21965000
C   -9.40184000   -0.79472000   -7.73700000
C   -11.93595000   -0.77895000   -7.80972000
H   -10.72095000   -1.54759000   -6.17361000
H   -8.18264000   -1.56563000   -6.10478000
H   -11.90194000   -0.76228000   -8.92482000
H   -9.37051000   -0.77515000   -8.85206000
C   -13.23147000   -1.50623000   -7.36368000
C   -13.23028000   -2.96893000   -7.87364000
C   -13.25689000   -5.91796000   -7.41929000
C   -14.45943000   -0.73497000   -7.88555000
C   -14.49942000   -3.71526000   -7.42109000
C   -14.49435000   -5.15859000   -7.93376000
H   -14.47293000   -0.73387000   -8.99771000
H   -13.27314000   -1.51852000   -6.25017000
H   -13.21022000   -2.95651000   -8.98776000
H   -14.57524000   -3.71670000   -6.31151000
H   -14.51542000   -5.15672000   -9.04571000
H   -13.29166000   -5.93005000   -6.30559000
C   -14.45173000   0.71018000   -7.37499000
C   -13.16991000   1.43047000   -7.80653000
C   -11.93179000   0.68201000   -7.29095000
C   -10.64780000   1.40669000   -7.73004000
C   -9.40433000   0.66373000   -7.21484000
C   -8.12063000   1.39251000   -7.65204000
H   -14.53319000   0.71770000   -6.26679000
H   -11.96587000   0.67774000   -6.17800000
H   -9.43776000   0.65686000   -6.10197000
H   -13.14632000   1.50122000   -8.91644000
H   -10.61361000   1.47548000   -8.84086000
H   -8.08742000   1.46518000   -8.76258000
C   -8.16980000   5.86211000   -7.82953000
C   -9.44881000   5.12614000   -7.36989000
C   -10.70565000   5.87374000   -7.87963000
H   -8.14922000   5.88298000   -8.94466000
C   -9.44200000   3.66718000   -7.89069000
H   -9.46989000   5.10750000   -6.25465000
C   -10.71624000   2.93781000   -7.43509000
C   -11.96970000   3.67532000   -7.93674000
C   -11.98396000   5.13671000   -7.41939000
H   -9.42303000   3.67310000   -9.00394000
H   -10.68365000   5.89146000   -8.99474000
H   -12.00457000   5.12063000   -6.30395000
H   -11.94925000   3.67892000   -9.05006000
H   -10.73635000   2.87010000   -6.32388000
C   -8.18756000   2.92587000   -7.39359000
H   -8.20524000   2.85504000   -6.28263000
C   -13.24837000   5.87714000   -7.92865000
C   -13.23938000   2.94026000   -7.48249000
C   -14.50853000   5.11906000   -7.46782000
C   -14.49074000   3.67352000   -7.97703000
H   -13.23515000   5.88914000   -9.04290000
H   -14.57686000   5.11892000   -6.35771000
H   -14.51749000   3.66596000   -9.08791000
H   -13.27121000   2.87025000   -6.37273000
C   -3.11433000   -5.92690000   -7.35910000
C   -0.57582000   -5.93982000   -7.30496000
C   -1.83122000   -5.19173000   -7.81526000
H   -0.59883000   -5.96086000   -6.18993000
H   -0.52346000   -2.97832000   -8.86002000
C   -0.55062000   -2.99993000   -7.74505000
C   -1.83578000   -3.73497000   -7.29340000
H   -1.80647000   -5.17227000   -8.93030000
C   -3.08812000   -2.98651000   -7.80971000
C   -4.37525000   -3.71856000   -7.35734000
C   -4.37034000   -5.18169000   -7.87336000
H   -4.34299000   -5.16590000   -8.98841000
H   -3.13940000   -5.94452000   -6.24413000
H   -1.86327000   -3.75447000   -6.17847000
H   -3.05952000   -2.96853000   -8.92462000
H   -4.40240000   -3.73444000   -6.24231000
C   -3.09019000   -1.52940000   -7.28845000
C   -0.55395000   -1.54416000   -7.21965000
C   -1.80284000   -0.79472000   -7.73700000
C   -4.33695000   -0.77895000   -7.80972000
H   -3.12195000   -1.54759000   -6.17361000
H   -0.58364000   -1.56563000   -6.10478000
H   -4.30294000   -0.76228000   -8.92482000
H   -1.77151000   -0.77515000   -8.85206000
C   -5.63247000   -1.50623000   -7.36368000
C   -5.63128000   -2.96893000   -7.87364000
C   -5.65789000   -5.91796000   -7.41929000
C   -6.86043000   -0.73497000   -7.88555000
C   -6.90042000   -3.71526000   -7.42109000
C   -6.89535000   -5.15859000   -7.93376000
H   -6.87393000   -0.73387000   -8.99771000
H   -5.67414000   -1.51852000   -6.25017000
H   -5.61122000   -2.95651000   -8.98776000
H   -6.97624000   -3.71670000   -6.31151000
H   -6.91642000   -5.15672000   -9.04571000
H   -5.69266000   -5.93005000   -6.30559000
C   -6.85273000   0.71018000   -7.37499000
C   -5.57091000   1.43047000   -7.80653000
C   -4.33279000   0.68201000   -7.29095000
C   -3.04880000   1.40669000   -7.73004000
C   -1.80533000   0.66373000   -7.21484000
C   -0.52163000   1.39251000   -7.65204000
H   -6.93419000   0.71770000   -6.26679000
H   -4.36687000   0.67774000   -6.17800000
H   -1.83876000   0.65686000   -6.10197000
H   -5.54732000   1.50122000   -8.91644000
H   -3.01461000   1.47548000   -8.84086000
H   -0.48842000   1.46518000   -8.76258000
C   -0.57080000   5.86211000   -7.82953000
C   -1.84981000   5.12614000   -7.36989000
C   -3.10665000   5.87374000   -7.87963000
H   -0.55022000   5.88298000   -8.94466000
C   -1.84300000   3.66718000   -7.89069000
H   -1.87089000   5.10750000   -6.25465000
C   -3.11724000   2.93781000   -7.43509000
C   -4.37070000   3.67532000   -7.93674000
C   -4.38496000   5.13671000   -7.41939000
H   -1.82403000   3.67310000   -9.00394000
H   -3.08465000   5.89146000   -8.99474000
H   -4.40557000   5.12063000   -6.30395000
H   -4.35025000   3.67892000   -9.05006000
H   -3.13735000   2.87010000   -6.32388000
C   -0.58856000   2.92587000   -7.39359000
H   -0.60624000   2.85504000   -6.28263000
C   -5.64937000   5.87714000   -7.92865000
C   -5.64038000   2.94026000   -7.48249000
C   -6.90953000   5.11906000   -7.46782000
C   -6.89174000   3.67352000   -7.97703000
H   -5.63615000   5.88914000   -9.04290000
H   -6.97786000   5.11892000   -6.35771000
H   -6.91849000   3.66596000   -9.08791000
H   -5.67221000   2.87025000   -6.37273000
C   4.48467000   -5.92690000   -7.35910000
C   7.02318000   -5.93982000   -7.30496000
C   5.76778000   -5.19173000   -7.81526000
H   7.00017000   -5.96086000   -6.18993000
H   7.07554000   -2.97832000   -8.86002000
C   7.04838000   -2.99993000   -7.74505000
C   5.76322000   -3.73497000   -7.29340000
H   5.79253000   -5.17227000   -8.93030000
C   4.51088000   -2.98651000   -7.80971000
C   3.22375000   -3.71856000   -7.35734000
C   3.22866000   -5.18169000   -7.87336000
H   3.25601000   -5.16590000   -8.98841000
H   4.45960000   -5.94452000   -6.24413000
H   5.73573000   -3.75447000   -6.17847000
H   4.53948000   -2.96853000   -8.92462000
H   3.19660000   -3.73444000   -6.24231000
C   4.50881000   -1.52940000   -7.28845000
C   7.04505000   -1.54416000   -7.21965000
C   5.79616000   -0.79472000   -7.73700000
C   3.26205000   -0.77895000   -7.80972000
H   4.47705000   -1.54759000   -6.17361000
H   7.01536000   -1.56563000   -6.10478000
H   3.29606000   -0.76228000   -8.92482000
H   5.82749000   -0.77515000   -8.85206000
C   1.96653000   -1.50623000   -7.36368000
C   1.96772000   -2.96893000   -7.87364000
C   1.94111000   -5.91796000   -7.41929000
C   0.73857000   -0.73497000   -7.88555000
C   0.69858000   -3.71526000   -7.42109000
C   0.70365000   -5.15859000   -7.93376000
H   0.72507000   -0.73387000   -8.99771000
H   1.92486000   -1.51852000   -6.25017000
H   1.98778000   -2.95651000   -8.98776000
H   0.62276000   -3.71670000   -6.31151000
H   0.68258000   -5.15672000   -9.04571000
H   1.90634000   -5.93005000   -6.30559000
C   0.74627000   0.71018000   -7.37499000
C   2.02809000   1.43047000   -7.80653000
C   3.26621000   0.68201000   -7.29095000
C   4.55020000   1.40669000   -7.73004000
C   5.79367000   0.66373000   -7.21484000
C   7.07737000   1.39251000   -7.65204000
H   0.66481000   0.71770000   -6.26679000
H   3.23213000   0.67774000   -6.17800000
H   5.76024000   0.65686000   -6.10197000
H   2.05168000   1.50122000   -8.91644000
H   4.58439000   1.47548000   -8.84086000
H   7.11058000   1.46518000   -8.76258000
C   7.02820000   5.86211000   -7.82953000
C   5.74919000   5.12614000   -7.36989000
C   4.49235000   5.87374000   -7.87963000
H   7.04878000   5.88298000   -8.94466000
C   5.75600000   3.66718000   -7.89069000
H   5.72811000   5.10750000   -6.25465000
C   4.48176000   2.93781000   -7.43509000
C   3.22830000   3.67532000   -7.93674000
C   3.21404000   5.13671000   -7.41939000
H   5.77497000   3.67310000   -9.00394000
H   4.51435000   5.89146000   -8.99474000
H   3.19343000   5.12063000   -6.30395000
H   3.24875000   3.67892000   -9.05006000
H   4.46165000   2.87010000   -6.32388000
C   7.01044000   2.92587000   -7.39359000
H   6.99276000   2.85504000   -6.28263000
C   1.94963000   5.87714000   -7.92865000
C   1.95862000   2.94026000   -7.48249000
C   0.68947000   5.11906000   -7.46782000
C   0.70726000   3.67352000   -7.97703000
H   1.96285000   5.88914000   -9.04290000
H   0.62114000   5.11892000   -6.35771000
H   0.68051000   3.66596000   -9.08791000
H   1.92679000   2.87025000   -6.37273000
C   12.08367000   -5.92690000   -7.35910000
C   14.62218000   -5.93982000   -7.30496000
C   13.36678000   -5.19173000   -7.81526000
H   14.59917000   -5.96086000   -6.18993000
H   14.67454000   -2.97832000   -8.86002000
C   14.64738000   -2.99993000   -7.74505000
C   13.36222000   -3.73497000   -7.29340000
H   13.39153000   -5.17227000   -8.93030000
C   12.10988000   -2.98651000   -7.80971000
C   10.82275000   -3.71856000   -7.35734000
C   10.82766000   -5.18169000   -7.87336000
H   10.85501000   -5.16590000   -8.98841000
H   12.05860000   -5.94452000   -6.24413000
H   13.33473000   -3.75447000   -6.17847000
H   12.13848000   -2.96853000   -8.92462000
H   10.79560000   -3.73444000   -6.24231000
C   12.10781000   -1.52940000   -7.28845000
C   14.64405000   -1.54416000   -7.21965000
C   13.39516000   -0.79472000   -7.73700000
C   10.86105000   -0.77895000   -7.80972000
H   12.07605000   -1.54759000   -6.17361000
H   14.61436000   -1.56563000   -6.10478000
H   10.89506000   -0.76228000   -8.92482000
H   13.42649000   -0.77515000   -8.85206000
C   9.56553000   -1.50623000   -7.36368000
C   9.56672000   -2.96893000   -7.87364000
C   9.54011000   -5.91796000   -7.41929000
C   8.33757000   -0.73497000   -7.88555000
C   8.29758000   -3.71526000   -7.42109000
C   8.30265000   -5.15859000   -7.93376000
H   8.32407000   -0.73387000   -8.99771000
H   9.52386000   -1.51852000   -6.25017000
H   9.58678000   -2.95651000   -8.98776000
H   8.22176000   -3.71670000   -6.31151000
H   8.28158000   -5.15672000   -9.04571000
H   9.50534000   -5.93005000   -6.30559000
C   8.34527000   0.71018000   -7.37499000
C   9.62709000   1.43047000   -7.80653000
C   10.86521000   0.68201000   -7.29095000
C   12.14920000   1.40669000   -7.73004000
C   13.39267000   0.66373000   -7.21484000
C   14.67637000   1.39251000   -7.65204000
H   8.26381000   0.71770000   -6.26679000
H   10.83113000   0.67774000   -6.17800000
H   13.35924000   0.65686000   -6.10197000
H   9.65068000   1.50122000   -8.91644000
H   12.18339000   1.47548000   -8.84086000
H   14.70958000   1.46518000   -8.76258000
C   14.62720000   5.86211000   -7.82953000
C   13.34819000   5.12614000   -7.36989000
C   12.09135000   5.87374000   -7.87963000
H   14.64778000   5.88298000   -8.94466000
C   13.35500000   3.66718000   -7.89069000
H   13.32711000   5.10750000   -6.25465000
C   12.08076000   2.93781000   -7.43509000
C   10.82730000   3.67532000   -7.93674000
C   10.81304000   5.13671000   -7.41939000
H   13.37397000   3.67310000   -9.00394000
H   12.11335000   5.89146000   -8.99474000
H   10.79243000   5.12063000   -6.30395000
H   10.84775000   3.67892000   -9.05006000
H   12.06065000   2.87010000   -6.32388000
C   14.60944000   2.92587000   -7.39359000
H   14.59176000   2.85504000   -6.28263000
C   9.54863000   5.87714000   -7.92865000
C   9.55762000   2.94026000   -7.48249000
C   8.28847000   5.11906000   -7.46782000
C   8.30626000   3.67352000   -7.97703000
H   9.56185000   5.88914000   -9.04290000
H   8.22014000   5.11892000   -6.35771000
H   8.27951000   3.66596000   -9.08791000
H   9.52579000   2.87025000   -6.37273000
C   -10.71333000   -5.92690000   7.64090000
C   -8.17482000   -5.93982000   7.69504000
C   -9.43022000   -5.19173000   7.18474000
H   -8.19783000   -5.96086000   8.81007000
H   -8.12246000   -2.97832000   6.13998000
C   -8.14962000   -2.99993000   7.25495000
C   -9.43478000   -3.73497000   7.70660000
H   -9.40547000   -5.17227000   6.06970000
C   -10.68712000   -2.98651000   7.19029000
C   -11.97425000   -3.71856000   7.64266000
C   -11.96934000   -5.18169000   7.12664000
H   -11.94199000   -5.16590000   6.01159000
H   -10.73840000   -5.94452000   8.75587000
H   -9.46227000   -3.75447000   8.82153000
H   -10.65852000   -2.96853000   6.07538000
H   -12.00140000   -3.73444000   8.75769000
C   -10.68919000   -1.52940000   7.71155000
C   -8.15295000   -1.54416000   7.78035000
C   -9.40184000   -0.79472000   7.26300000
C   -11.93595000   -0.77895000   7.19028000
H   -10.72095000   -1.54759000   8.82639000
H   -8.18264000   -1.56563000   8.89522000
H   -11.90194000   -0.76228000   6.07518000
H   -9.37051000   -0.77515000   6.14794000
C   -13.23147000   -1.50623000   7.63632000
C   -13.23028000   -2.96893000   7.12636000
C   -13.25689000   -5.91796000   7.58071000
C   -14.45943000   -0.73497000   7.11445000
C   -14.49942000   -3.71526000   7.57891000
C   -14.49435000   -5.15859000   7.06624000
H   -14.47293000   -0.73387000   6.00229000
H   -13.27314000   -1.51852000   8.74983000
H   -13.21022000   -2.95651000   6.01224000
H   -14.57524000   -3.71670000   8.68849000
H   -14.51542000   -5.15672000   5.95429000
H   -13.29166000   -5.93005000   8.69441000
C   -14.45173000   0.71018000   7.62501000
C   -13.16991000   1.43047000   7.19347000
C   -11.93179000   0.68201000   7.70905000
C   -10.64780000   1.40669000   7.26996000
C   -9.40433000   0.66373000   7.78516000
C   -8.12063000   1.39251000   7.34796000
H   -14.53319000   0.71770000   8.73321000
H   -11.96587000   0.67774000   8.82200000
H   -9.43776000   0.65686000   8.89803000
H   -13.14632000   1.50122000   6.08356000
H   -10.61361000   1.47548000   6.15914000
H   -8.08742000   1.46518000   6.23742000
C   -8.16980000   5.86211000   7.17047000
C   -9.44881000   5.12614000   7.63011000
C   -10.70565000   5.87374000   7.12037000
H   -8.14922000   5.88298000   6.05534000
C   -9.44200000   3.66718000   7.10931000
H   -9.46989000   5.10750000   8.74535000
C   -10.71624000   2.93781000   7.56491000
C   -11.96970000   3.67532000   7.06326000
C   -11.98396000   5.13671000   7.58061000
H   -9.42303000   3.67310000   5.99606000
H   -10.68365000   5.89146000   6.00526000
H   -12.00457000   5.12063000   8.69605000
H   -11.94925000   3.67892000   5.94994000
H   -10.73635000   2.87010000   8.67612000
C   -8.18756000   2.92587000   7.60641000
H   -8.20524000   2.85504000   8.71737000
C   -13.24837000   5.87714000   7.07135000
C   -13.23938000   2.94026000   7.51751000
C   -14.50853000   5.11906000   7.53218000
C   -14.49074000   3.67352000   7.02297000
H   -13.23515000   5.88914000   5.95710000
H   -14.57686000   5.11892000   8.64229000
H   -14.51749000   3.66596000   5.91209000
H   -13.27121000   2.87025000   8.62727000
C   -3.11433000   -5.92690000   7.64090000
C   -0.57582000   -5.93982000   7.69504000
C   -1.83122000   -5.19173000   7.18474000
H   -0.59883000   -5.96086000   8.81007000
H   -0.52346000   -2.97832000   6.13998000
C   -0.55062000   -2.99993000   7.25495000
C   -1.83578000   -3.73497000   7.70660000
H   -1.80647000   -5.17227000   6.06970000
C   -3.08812000   -2.98651000   7.19029000
C   -4.37525000   -3.71856000   7.64266000
C   -4.37034000   -5.18169000   7.12664000
H   -4.34299000   -5.16590000   6.01159000
H   -3.13940000   -5.94452000   8.75587000
H   -1.86327000   -3.75447000   8.82153000
H   -3.05952000   -2.96853000   6.07538000
H   -4.40240000   -3.73444000   8.75769000
C   -3.09019000   -1.52940000   7.71155000
C   -0.55395000   -1.54416000   7.78035000
C   -1.80284000   -0.79472000   7.26300000
C   -4.33695000   -0.77895000   7.19028000
H   -3.12195000   -1.54759000   8.82639000
H   -0.58364000   -1.56563000   8.89522000
H   -1.77151000   -0.77515000   6.14794000
C   -5.63247000   -1.50623000   7.63632000
C   -5.63128000   -2.96893000   7.12636000
C   -5.65789000   -5.91796000   7.58071000
C   -6.86043000   -0.73497000   7.11445000
C   -6.90042000   -3.71526000   7.57891000
C   -6.89535000   -5.15859000   7.06624000
H   -6.87393000   -0.73387000   6.00229000
H   -5.67414000   -1.51852000   8.74983000
H   -5.61122000   -2.95651000   6.01224000
H   -6.97624000   -3.71670000   8.68849000
H   -6.91642000   -5.15672000   5.95429000
H   -5.69266000   -5.93005000   8.69441000
C   -6.85273000   0.71018000   7.62501000
C   -5.57091000   1.43047000   7.19347000
C   -4.33279000   0.68201000   7.70905000
C   -3.04880000   1.40669000   7.26996000
C   -1.80533000   0.66373000   7.78516000
C   -0.52163000   1.39251000   7.34796000
H   -6.93419000   0.71770000   8.73321000
H   -4.36687000   0.67774000   8.82200000
H   -1.83876000   0.65686000   8.89803000
H   -5.54732000   1.50122000   6.08356000
H   -3.01461000   1.47548000   6.15914000
H   -0.48842000   1.46518000   6.23742000
C   -0.57080000   5.86211000   7.17047000
C   -1.84981000   5.12614000   7.63011000
C   -3.10665000   5.87374000   7.12037000
H   -0.55022000   5.88298000   6.05534000
C   -1.84300000   3.66718000   7.10931000
H   -1.87089000   5.10750000   8.74535000
C   -3.11724000   2.93781000   7.56491000
C   -4.37070000   3.67532000   7.06326000
C   -4.38496000   5.13671000   7.58061000
H   -1.82403000   3.67310000   5.99606000
H   -3.08465000   5.89146000   6.00526000
H   -4.40557000   5.12063000   8.69605000
H   -4.35025000   3.67892000   5.94994000
H   -3.13735000   2.87010000   8.67612000
C   -0.58856000   2.92587000   7.60641000
H   -0.60624000   2.85504000   8.71737000
C   -5.64937000   5.87714000   7.07135000
C   -5.64038000   2.94026000   7.51751000
C   -6.90953000   5.11906000   7.53218000
C   -6.89174000   3.67352000   7.02297000
H   -5.63615000   5.88914000   5.95710000
H   -6.97786000   5.11892000   8.64229000
H   -6.91849000   3.66596000   5.91209000
H   -5.67221000   2.87025000   8.62727000
C   4.48467000   -5.92690000   7.64090000
C   7.02318000   -5.93982000   7.69504000
C   5.76778000   -5.19173000   7.18474000
H   7.00017000   -5.96086000   8.81007000
H   7.07554000   -2.97832000   6.13998000
C   7.04838000   -2.99993000   7.25495000
C   5.76322000   -3.73497000   7.70660000
H   5.79253000   -5.17227000   6.06970000
C   4.51088000   -2.98651000   7.19029000
C   3.22375000   -3.71856000   7.64266000
C   3.22866000   -5.18169000   7.12664000
H   3.25601000   -5.16590000   6.01159000
H   4.45960000   -5.94452000   8.75587000
H   5.73573000   -3.75447000   8.82153000
H   4.53948000   -2.96853000   6.07538000
H   3.19660000   -3.73444000   8.75769000
C   4.50881000   -1.52940000   7.71155000
C   7.04505000   -1.54416000   7.78035000
C   5.79616000   -0.79472000   7.26300000
C   3.26205000   -0.77895000   7.19028000
H   4.47705000   -1.54759000   8.82639000
H   7.01536000   -1.56563000   8.89522000
H   3.29606000   -0.76228000   6.07518000
C   1.96653000   -1.50623000   7.63632000
C   1.96772000   -2.96893000   7.12636000
C   1.94111000   -5.91796000   7.58071000
C   0.73857000   -0.73497000   7.11445000
C   0.69858000   -3.71526000   7.57891000
C   0.70365000   -5.15859000   7.06624000
H   0.72507000   -0.73387000   6.00229000
H   1.92486000   -1.51852000   8.74983000
H   1.98778000   -2.95651000   6.01224000
H   0.62276000   -3.71670000   8.68849000
H   0.68258000   -5.15672000   5.95429000
H   1.90634000   -5.93005000   8.69441000
C   0.74627000   0.71018000   7.62501000
C   2.02809000   1.43047000   7.19347000
C   3.26621000   0.68201000   7.70905000
C   4.55020000   1.40669000   7.26996000
C   5.79367000   0.66373000   7.78516000
C   7.07737000   1.39251000   7.34796000
H   0.66481000   0.71770000   8.73321000
H   3.23213000   0.67774000   8.82200000
H   5.76024000   0.65686000   8.89803000
H   2.05168000   1.50122000   6.08356000
H   4.58439000   1.47548000   6.15914000
H   7.11058000   1.46518000   6.23742000
C   7.02820000   5.86211000   7.17047000
C   5.74919000   5.12614000   7.63011000
C   4.49235000   5.87374000   7.12037000
H   7.04878000   5.88298000   6.05534000
C   5.75600000   3.66718000   7.10931000
H   5.72811000   5.10750000   8.74535000
C   4.48176000   2.93781000   7.56491000
C   3.22830000   3.67532000   7.06326000
C   3.21404000   5.13671000   7.58061000
H   5.77497000   3.67310000   5.99606000
H   4.51435000   5.89146000   6.00526000
H   3.19343000   5.12063000   8.69605000
H   3.24875000   3.67892000   5.94994000
H   4.46165000   2.87010000   8.67612000
C   7.01044000   2.92587000   7.60641000
H   6.99276000   2.85504000   8.71737000
C   1.94963000   5.87714000   7.07135000
C   1.95862000   2.94026000   7.51751000
C   0.68947000   5.11906000   7.53218000
C   0.70726000   3.67352000   7.02297000
H   1.96285000   5.88914000   5.95710000
H   0.62114000   5.11892000   8.64229000
H   0.68051000   3.66596000   5.91209000
H   1.92679000   2.87025000   8.62727000
C   12.08367000   -5.92690000   7.64090000
C   14.62218000   -5.93982000   7.69504000
C   13.36678000   -5.19173000   7.18474000
H   14.59917000   -5.96086000   8.81007000
H   14.67454000   -2.97832000   6.13998000
C   14.64738000   -2.99993000   7.25495000
C   13.36222000   -3.73497000   7.70660000
H   13.39153000   -5.17227000   6.06970000
C   12.10988000   -2.98651000   7.19029000
C   10.82275000   -3.71856000   7.64266000
C   10.82766000   -5.18169000   7.12664000
H   10.85501000   -5.16590000   6.01159000
H   12.05860000   -5.94452000   8.75587000
H   13.33473000   -3.75447000   8.82153000
H   12.13848000   -2.96853000   6.07538000
H   10.79560000   -3.73444000   8.75769000
C   12.10781000   -1.52940000   7.71155000
C   14.64405000   -1.54416000   7.78035000
C   13.39516000   -0.79472000   7.26300000
C   10.86105000   -0.77895000   7.19028000
H   12.07605000   -1.54759000   8.82639000
H   14.61436000   -1.56563000   8.89522000
H   10.89506000   -0.76228000   6.07518000
H   13.42649000   -0.77515000   6.14794000
C   9.56553000   -1.50623000   7.63632000
C   9.56672000   -2.96893000   7.12636000
C   9.54011000   -5.91796000   7.58071000
C   8.33757000   -0.73497000   7.11445000
C   8.29758000   -3.71526000   7.57891000
C   8.30265000   -5.15859000   7.06624000
H   8.32407000   -0.73387000   6.00229000
H   9.52386000   -1.51852000   8.74983000
H   9.58678000   -2.95651000   6.01224000
H   8.22176000   -3.71670000   8.68849000
H   8.28158000   -5.15672000   5.95429000
H   9.50534000   -5.93005000   8.69441000
C   8.34527000   0.71018000   7.62501000
C   9.62709000   1.43047000   7.19347000
C   10.86521000   0.68201000   7.70905000
C   12.14920000   1.40669000   7.26996000
C   13.39267000   0.66373000   7.78516000
C   14.67637000   1.39251000   7.34796000
H   8.26381000   0.71770000   8.73321000
H   10.83113000   0.67774000   8.82200000
H   13.35924000   0.65686000   8.89803000
H   9.65068000   1.50122000   6.08356000
H   12.18339000   1.47548000   6.15914000
H   14.70958000   1.46518000   6.23742000
C   14.62720000   5.86211000   7.17047000
C   13.34819000   5.12614000   7.63011000
C   12.09135000   5.87374000   7.12037000
H   14.64778000   5.88298000   6.05534000
C   13.35500000   3.66718000   7.10931000
H   13.32711000   5.10750000   8.74535000
C   12.08076000   2.93781000   7.56491000
C   10.82730000   3.67532000   7.06326000
C   10.81304000   5.13671000   7.58061000
H   13.37397000   3.67310000   5.99606000
H   12.11335000   5.89146000   6.00526000
H   10.79243000   5.12063000   8.69605000
H   10.84775000   3.67892000   5.94994000
H   12.06065000   2.87010000   8.67612000
C   14.60944000   2.92587000   7.60641000
H   14.59176000   2.85504000   8.71737000
C   9.54863000   5.87714000   7.07135000
C   9.55762000   2.94026000   7.51751000
C   8.28847000   5.11906000   7.53218000
C   8.30626000   3.67352000   7.02297000
H   9.56185000   5.88914000   5.95710000
H   8.22014000   5.11892000   8.64229000
H   8.27951000   3.66596000   5.91209000
H   9.52579000   2.87025000   8.62727000
N   -4.00739273   -0.04350136   3.32806152
C   -3.31894242   -0.46966674   4.56704300
H   -2.60666511   -1.20218610   4.18677307
H   -2.64755988   0.30860562   4.94158256
C   -4.35008210   -0.91047123   5.55185474
H   -5.23870420   -0.34662733   5.21588153
H   -4.50769586   -1.94775163   5.24382168
C   -5.09862493   1.03115023   3.47487125
H   -4.78110705   1.59546309   4.33056458
H   -5.01084623   1.65825199   2.57625365
H   -6.06426389   0.60131670   3.57914972
C   -4.58734296   -1.26850156   2.68700460
H   -4.92345540   -1.00891042   1.68176237
H   -3.83711770   -2.10777437   2.65039376
H   -5.45990502   -1.58318332   3.23164548
C   -2.88560668   0.52769170   2.47403007
H   -1.99246781   -0.07380140   2.58764083
H   -3.31793005   0.43142138   1.45817545
H   -2.89064567   1.56622492   2.58725417
N   5.61855496   -0.04168030   3.15147300
C   4.93042436   -0.40073171   4.57626315
H   4.29279000   0.44625292   4.72472187
H   4.28105927   -1.31018117   4.32556300
C   5.99059106   -0.75561258   5.64286693
H   6.24644204   -1.83138278   5.40307671
H   6.87388546   -0.15502907   5.53356320
C   4.46709633   -0.16112338   2.09066830
H   3.68412965   0.50717346   2.37556038
H   4.78284353   0.05555036   1.06047651
H   4.08861174   -1.14625047   2.02322276
C   6.77469234   -0.94623433   2.78519238
H   6.53637390   -1.95425726   2.44802328
H   7.35649778   -0.53409152   1.97463592
H   7.43045059   -1.10020771   3.62804190
C   6.11214826   1.37750142   3.14559169
H   6.76539184   1.46323093   2.24756662
H   5.27014200   2.05460326   3.03890745
H   6.64843553   1.62786316   3.98787180
O   3.33301412   -12.01789262   -2.26225174
H   3.40554565   -11.12497148   -2.59261028
H   2.65263369   -11.99757536   -1.49358466
O   8.06775736   34.35747891   -3.51051657
H   8.10162718   33.67119418   -2.84415093
H   7.62731966   34.06175579   -4.28826974
O   4.14863779   -22.68604466   3.88575341
H   3.40437939   -23.27675373   3.62891845
H   3.83982138   -21.78156040   3.88027858
O   35.56447482   -0.22513929   -0.80401080
H   34.99452966   0.05627571   -1.58360953
H   36.43091966   0.02566310   -1.10016854
O   7.62855079   -2.53993868   -2.13242988
H   8.10446126   9.49160669   1.58047436
H   7.04060983   -3.35407999   -2.13098732
O   9.45744255   -12.24058997   1.27687952
H   10.28332490   -12.64679624   1.04528534
H   9.56951834   -11.33386045   1.62011475
O   5.88575071   -17.06897823   1.41643203
H   -6.27155482   3.46791133   -3.50116682
H   5.07899312   -17.14200220   1.96782332
O   -2.20444779   -19.08674528   1.88832919
H   -1.46700458   -18.80800079   2.41490021
H   -2.13117240   -20.03879157   1.83589116
O   -7.71468433   -5.52144845   -2.93940165
H   -8.36972765   -6.13104768   -2.64545754
H   -7.56660642   -5.58281258   -3.87167481
O   37.57501712   -7.26617051   -0.95718528
H   36.92055760   -6.89775302   -0.32462040
H   37.83510430   -6.48435471   -1.44950423
O   -1.21371373   -2.32277129   2.97952592
H   -0.27800702   -2.57220438   3.24714997
H   -1.40526689   10.52642473   2.21052659
O   1.33957655   -9.52805835   0.62384356
H   1.55819520   -8.75027140   0.08122087
H   5.55140471   -16.63620267   0.60366547
O   -20.02774486   -1.84512289   3.82155380
H   -19.46651589   -1.34730185   3.20310304
H   -20.01896316   -2.79339674   3.53701952
O   -9.03891442   26.38066428   1.85211425
H   -9.17675022   25.44641762   2.10603195
H   -8.40259147   26.46707683   1.08992859
O   20.68100288   21.23674898   3.09285602
H   20.62505828   20.57937153   2.40202950
H   21.55609795   21.25401466   3.44260184
O   5.15010657   -17.52201381   -1.79837586
H   4.76733211   -17.95282837   -2.50321023
H   4.43603999   -17.56641588   -1.12773437
O   -29.16643703   -2.98819868   3.76526174
H   -26.68802217   -9.82812709   0.99858514
H   -29.04662152   -2.31238305   4.45692156
O   19.54438508   5.46500511   1.08012890
H   19.02396690   6.27670011   0.80492835
H   18.90658695   4.77360451   0.87368204
O   -5.93052069   -34.32412207   0.98429299
H   -5.92790119   -35.24226067   0.76813809
H   -6.19574251   -34.05274097   0.13848570
O   15.38536395   -5.15908948   -2.35881086
H   15.38779693   -17.84960892   -3.02601348
H   16.07073675   -18.31142554   -1.67329916
O   2.97200784   -28.88709164   -0.48313342
H   2.55482584   -28.59777905   0.38264745
H   3.56926865   -28.14927230   -0.64687206
O   26.75627606   12.32876434   -0.58088695
H   27.38910740   13.05816736   -0.74356570
H   26.58772534   11.96352863   -1.47704116
O   30.47808227   11.34521056   -2.80940763
H   -0.24350307   -7.83005928   2.24859873
H   31.24498128   11.84789544   -2.63034477
O   -7.74806674   -13.06014790   -0.64555759
H   -6.77868907   -13.30941556   -0.61686975
H   -8.21477221   -13.84090077   -0.96233640
O   11.57809715   -10.98073296   -2.30522335
H   12.45401537   -10.68860991   -2.00013830
H   10.96637923   -10.27417954   -2.08616913
O   19.01626014   1.51927335   0.71275263
H   1.46673016   4.66403137   2.18066917
H   19.87454711   1.20644448   1.03253987
O   24.92603882   -5.07395505   -1.10595884
H   24.18414524   8.12423357   -1.66998852
H   25.49439437   -5.84293165   -1.28183599
O   1.60137169   5.42931204   2.85085275
H   1.71579186   6.09750357   2.23548269
H   -16.45116161   4.84046416   1.32685438
O   4.51164783   -9.65629100   -3.28832039
H   4.31075518   -8.96466906   -3.91819684
H   4.59675896   -10.40376352   -3.81196332
O   15.33471047   -37.55696383   3.28441945
H   16.18867171   -37.98513354   3.10193911
H   15.47024689   -37.02505734   4.04481756
O   11.82506672   -0.93815750   1.26967666
H   10.91210046   -1.30257042   1.25511891
H   18.47268399   1.73306090   1.41810280
O   15.29497767   51.71195887   -0.02169893
H   14.37333362   51.57034505   0.22009831
H   15.50046011   52.63908517   -0.05796218
O   16.49269139   7.61323142   0.34121215
H   15.83188518   6.95861602   0.67649921
H   16.72684500   8.17730661   1.05020585
O   30.42485235   -18.91964019   3.49491141
H   0.57261837   -19.62324901   3.90362650
H   30.95931521   -18.03958705   3.64265065
O   -3.81441541   -9.82876524   0.77305042
H   -3.21907707   -10.22568381   0.13179508
H   -3.26154152   -9.13990357   1.17977191
O   1.32680684   -4.49294966   1.08049898
H   1.00528861   -4.90913545   1.90363168
H   2.01926540   -3.90130776   1.28335035
O   24.98702001   4.75898648   3.56822383
H   25.19902808   4.43107661   2.69219239
H   24.88499788   5.69765753   3.47619870
O   11.99605288   -0.57175573   -1.68022473
H   11.74910489   0.22994404   -2.16941882
H   12.30376237   -1.22033970   -2.30560532
O   -4.25543345   -31.11515012   3.37207567
H   -3.42703852   -31.10993833   3.81841890
H   -4.06131839   -31.70372833   2.64346689
O   42.62854513   -21.08564757   1.27071578
H   42.83412591   -20.36740497   0.67138046
H   41.99476794   -21.55727389   0.69214025
O   -0.82479148   -8.32666940   1.72938067
H   -0.13879382   -8.95265918   1.40442105
H   12.01067886   -0.73779375   0.30017574
O   52.71185046   -16.17775733   3.70264731
H   51.82375175   -16.59574908   3.92249093
H   53.07323883   -16.95748244   3.17339640
O   18.70852882   -11.07732944   3.56233914
H   18.97044070   -11.44900857   4.38212528
H   19.52032271   -10.88365171   3.08134315
O   26.90605634   15.80097664   -2.36407756
H   27.67684692   15.81964279   -2.94986215
H   26.13235121   15.75192740   -2.93593189
O   20.73469500   4.66713937   -2.35164169
H   20.43090873   3.91375683   -1.92611106
H   20.01447705   5.27120199   -2.47909482
O   3.48284740   -3.32641184   2.81250051
H   3.72318633   -17.54719931   3.15016047
H   2.54911967   -16.46978457   3.23380945
O   8.82511254   9.05975925   1.99692719
H   29.62730305   -1.64978980   -2.54469857
H   8.49980098   8.80780866   2.86555178
O   1.10548064   14.71546402   -0.49479518
H   1.22765200   13.96481744   0.08350297
H   1.20944035   2.21720086   -0.19847035
O   32.84652910   -4.49030653   -2.31360199
H   31.94840871   -4.53306854   -2.72074488
H   32.80250594   -3.74394229   -1.71259250
O   -14.86158304   -8.02440984   -1.95406555
H   -14.14530332   -7.64216261   -1.37675306
H   -15.30763136   -7.27159534   -2.30808370
O   9.34872282   -36.34860320   0.48279019
H   8.45968184   -36.07595661   0.77026329
H   9.24961915   -36.94179104   -0.24267666
O   -25.92994555   -10.02684512   0.44518235
H   -21.94340510   -2.96550747   -2.36057897
H   4.08252153   -9.76151777   -0.38528459
O   26.83942070   6.50609917   -4.08994679
H   27.28988768   7.33006571   -4.14373048
H   26.26722999   6.45248387   -3.29857300
O   2.04232412   -24.58641481   2.52489042
H   2.05316543   -23.94421076   1.74219419
H   1.13897204   -24.79670967   2.69448820
O   -13.40550566   13.01929739   -2.57866198
H   -12.59705983   12.52343367   -2.71098772
H   -13.78510131   -0.60209268   -1.74554598
O   24.15117895   11.67806339   0.04423968
H   23.99885702   10.84306346   0.47898687
H   25.11525985   11.80187341   0.04262505
O   1.68960526   25.95247130   2.07303691
H   1.39366280   25.10357337   2.43383902
H   1.07707549   13.17961280   2.26924099
O   17.72768189   36.02419142   -3.50323631
H   17.80621235   35.78404538   -4.42220660
H   18.56639139   36.43627913   -3.28103986
O   30.20757460   -20.10456584   -0.78236510
H   30.35064511   -19.15392947   -0.53751409
H   29.93673604   -20.58320027   -0.05046882
O   -9.59067353   -3.58862138   -2.90373169
H   -9.42944605   -4.17684616   -2.09758181
H   -8.77961609   -3.03106457   -3.03323523
O   3.68427130   -20.24585098   -1.15557017
H   3.03144308   -20.93350564   -1.07507091
H   3.30211160   -19.49650394   -1.65357158
O   4.46463232   6.48479376   1.73579200
H   4.18021046   6.43702493   0.84546588
H   4.26272525   5.58656675   2.04227024
O   -15.53470490   4.64985611   1.10800656
H   -6.29009364   -4.90758161   0.51135931
H   -15.34956336   3.80850389   1.56243171
O   28.68911324   1.21953526   -0.33781723
H   28.55845433   1.90266131   -1.01899117
H   29.63970281   1.27141533   -0.11255154
O   19.52322871   22.17915291   -0.46499216
H   18.86079717   21.51947586   -0.29098347
H   19.20216555   23.03661799   -0.78019007
O   18.23797833   -20.38731406   -3.13346249
H   17.86676356   -19.65996878   -3.61478449
H   17.50174364   -21.03359485   -2.92997864
O   10.32145011   -8.10216808   -1.92374356
H   10.48480101   -7.19324877   -2.28647481
H   10.07578402   -7.83451789   -1.01209216
O   -1.52574040   -9.22051598   -3.71033916
H   -1.31576095   -8.83728454   -2.82278009
H   -2.06250842   -8.51739978   -4.15035517
O   -2.39961758   16.70745217   3.47957890
H   -1.87834578   17.33997825   2.94648151
H   -3.10207801   17.25179569   3.87516550
O   10.48815600   8.81359926   -0.18376301
H   10.27232166   9.71949028   0.11510682
H   9.82662078   8.22202651   0.18058554
O   23.95516071   2.67678235   1.06463269
H   24.88565631   2.92857139   0.92152193
H   23.65393085   2.21970518   0.29158578
O   -4.95436662   -15.73861105   -2.84851340
H   -5.68437936   -15.18821861   -2.64403834
H   -5.38977841   -3.23464726   -2.76508142
O   -23.57093250   -22.08913154   1.95543949
H   -23.72845227   -21.16441193   2.08875091
H   -24.29200913   -22.48360924   1.43941943
O   27.81012050   -5.11451505   -1.73445617
H   28.07325258   -5.58345785   -0.97011676
H   28.49483331   -4.62356157   -2.18454976
O   -0.50449074   -9.82828115   -1.24060540
H   -0.18201883   -10.66533977   -1.56989142
H   0.00875950   -9.58701378   -0.47975707
O   -0.28404179   -19.93908758   -4.10025287
H   -0.34363816   -19.90501239   -3.13565753
H   -0.15678680   -20.85204891   -4.20098630
O   -6.27105089   3.82173944   -2.61321134
H   -6.81099980   3.18738033   -2.16307183
O   -6.90548540   -4.69636942   1.21311435
H   -6.99736003   -5.60214304   1.53724520
