844

C   -10.71333000   -5.92690000   -7.35910000
C   -8.17482000   -5.93982000   -7.30496000
C   -9.43022000   -5.19173000   -7.81526000
H   -8.19783000   -5.96086000   -6.18993000
H   -8.12246000   -2.97832000   -8.86002000
C   -8.14962000   -2.99993000   -7.74505000
C   -9.43478000   -3.73497000   -7.29340000
H   -9.40547000   -5.17227000   -8.93030000
C   -10.68712000   -2.98651000   -7.80971000
C   -11.97425000   -3.71856000   -7.35734000
C   -11.96934000   -5.18169000   -7.87336000
H   -11.94199000   -5.16590000   -8.98841000
H   -10.73840000   -5.94452000   -6.24413000
H   -9.46227000   -3.75447000   -6.17847000
H   -10.65852000   -2.96853000   -8.92462000
H   -12.00140000   -3.73444000   -6.24231000
C   -10.68919000   -1.52940000   -7.28845000
C   -8.15295000   -1.54416000   -7.21965000
C   -9.40184000   -0.79472000   -7.73700000
C   -11.93595000   -0.77895000   -7.80972000
H   -10.72095000   -1.54759000   -6.17361000
H   -8.18264000   -1.56563000   -6.10478000
H   -11.90194000   -0.76228000   -8.92482000
H   -9.37051000   -0.77515000   -8.85206000
C   -13.23147000   -1.50623000   -7.36368000
C   -13.23028000   -2.96893000   -7.87364000
C   -13.25689000   -5.91796000   -7.41929000
C   -14.45943000   -0.73497000   -7.88555000
C   -14.49942000   -3.71526000   -7.42109000
C   -14.49435000   -5.15859000   -7.93376000
H   -14.47293000   -0.73387000   -8.99771000
H   -13.27314000   -1.51852000   -6.25017000
H   -13.21022000   -2.95651000   -8.98776000
H   -14.57524000   -3.71670000   -6.31151000
H   -14.51542000   -5.15672000   -9.04571000
H   -13.29166000   -5.93005000   -6.30559000
C   -14.45173000   0.71018000   -7.37499000
C   -13.16991000   1.43047000   -7.80653000
C   -11.93179000   0.68201000   -7.29095000
C   -10.64780000   1.40669000   -7.73004000
C   -9.40433000   0.66373000   -7.21484000
C   -8.12063000   1.39251000   -7.65204000
H   -14.53319000   0.71770000   -6.26679000
H   -11.96587000   0.67774000   -6.17800000
H   -9.43776000   0.65686000   -6.10197000
H   -13.14632000   1.50122000   -8.91644000
H   -10.61361000   1.47548000   -8.84086000
H   -8.08742000   1.46518000   -8.76258000
C   -8.16980000   5.86211000   -7.82953000
C   -9.44881000   5.12614000   -7.36989000
C   -10.70565000   5.87374000   -7.87963000
H   -8.14922000   5.88298000   -8.94466000
C   -9.44200000   3.66718000   -7.89069000
H   -9.46989000   5.10750000   -6.25465000
C   -10.71624000   2.93781000   -7.43509000
C   -11.96970000   3.67532000   -7.93674000
C   -11.98396000   5.13671000   -7.41939000
H   -9.42303000   3.67310000   -9.00394000
H   -10.68365000   5.89146000   -8.99474000
H   -12.00457000   5.12063000   -6.30395000
H   -11.94925000   3.67892000   -9.05006000
H   -10.73635000   2.87010000   -6.32388000
C   -8.18756000   2.92587000   -7.39359000
H   -8.20524000   2.85504000   -6.28263000
C   -13.24837000   5.87714000   -7.92865000
C   -13.23938000   2.94026000   -7.48249000
C   -14.50853000   5.11906000   -7.46782000
C   -14.49074000   3.67352000   -7.97703000
H   -13.23515000   5.88914000   -9.04290000
H   -14.57686000   5.11892000   -6.35771000
H   -14.51749000   3.66596000   -9.08791000
H   -13.27121000   2.87025000   -6.37273000
C   -3.11433000   -5.92690000   -7.35910000
C   -0.57582000   -5.93982000   -7.30496000
C   -1.83122000   -5.19173000   -7.81526000
H   -0.59883000   -5.96086000   -6.18993000
H   -0.52346000   -2.97832000   -8.86002000
C   -0.55062000   -2.99993000   -7.74505000
C   -1.83578000   -3.73497000   -7.29340000
H   -1.80647000   -5.17227000   -8.93030000
C   -3.08812000   -2.98651000   -7.80971000
C   -4.37525000   -3.71856000   -7.35734000
C   -4.37034000   -5.18169000   -7.87336000
H   -4.34299000   -5.16590000   -8.98841000
H   -3.13940000   -5.94452000   -6.24413000
H   -1.86327000   -3.75447000   -6.17847000
H   -3.05952000   -2.96853000   -8.92462000
H   -4.40240000   -3.73444000   -6.24231000
C   -3.09019000   -1.52940000   -7.28845000
C   -0.55395000   -1.54416000   -7.21965000
C   -1.80284000   -0.79472000   -7.73700000
C   -4.33695000   -0.77895000   -7.80972000
H   -3.12195000   -1.54759000   -6.17361000
H   -0.58364000   -1.56563000   -6.10478000
H   -4.30294000   -0.76228000   -8.92482000
H   -1.77151000   -0.77515000   -8.85206000
C   -5.63247000   -1.50623000   -7.36368000
C   -5.63128000   -2.96893000   -7.87364000
C   -5.65789000   -5.91796000   -7.41929000
C   -6.86043000   -0.73497000   -7.88555000
C   -6.90042000   -3.71526000   -7.42109000
C   -6.89535000   -5.15859000   -7.93376000
H   -6.87393000   -0.73387000   -8.99771000
H   -5.67414000   -1.51852000   -6.25017000
H   -5.61122000   -2.95651000   -8.98776000
H   -6.97624000   -3.71670000   -6.31151000
H   -6.91642000   -5.15672000   -9.04571000
H   -5.69266000   -5.93005000   -6.30559000
C   -6.85273000   0.71018000   -7.37499000
C   -5.57091000   1.43047000   -7.80653000
C   -4.33279000   0.68201000   -7.29095000
C   -3.04880000   1.40669000   -7.73004000
C   -1.80533000   0.66373000   -7.21484000
C   -0.52163000   1.39251000   -7.65204000
H   -6.93419000   0.71770000   -6.26679000
H   -4.36687000   0.67774000   -6.17800000
H   -1.83876000   0.65686000   -6.10197000
H   -5.54732000   1.50122000   -8.91644000
H   -3.01461000   1.47548000   -8.84086000
H   -0.48842000   1.46518000   -8.76258000
C   -0.57080000   5.86211000   -7.82953000
C   -1.84981000   5.12614000   -7.36989000
C   -3.10665000   5.87374000   -7.87963000
H   -0.55022000   5.88298000   -8.94466000
C   -1.84300000   3.66718000   -7.89069000
H   -1.87089000   5.10750000   -6.25465000
C   -3.11724000   2.93781000   -7.43509000
C   -4.37070000   3.67532000   -7.93674000
C   -4.38496000   5.13671000   -7.41939000
H   -1.82403000   3.67310000   -9.00394000
H   -3.08465000   5.89146000   -8.99474000
H   -4.40557000   5.12063000   -6.30395000
H   -4.35025000   3.67892000   -9.05006000
H   -3.13735000   2.87010000   -6.32388000
C   -0.58856000   2.92587000   -7.39359000
H   -0.60624000   2.85504000   -6.28263000
C   -5.64937000   5.87714000   -7.92865000
C   -5.64038000   2.94026000   -7.48249000
C   -6.90953000   5.11906000   -7.46782000
C   -6.89174000   3.67352000   -7.97703000
H   -5.63615000   5.88914000   -9.04290000
H   -6.97786000   5.11892000   -6.35771000
H   -6.91849000   3.66596000   -9.08791000
H   -5.67221000   2.87025000   -6.37273000
C   4.48467000   -5.92690000   -7.35910000
C   7.02318000   -5.93982000   -7.30496000
C   5.76778000   -5.19173000   -7.81526000
H   7.00017000   -5.96086000   -6.18993000
H   7.07554000   -2.97832000   -8.86002000
C   7.04838000   -2.99993000   -7.74505000
C   5.76322000   -3.73497000   -7.29340000
H   5.79253000   -5.17227000   -8.93030000
C   4.51088000   -2.98651000   -7.80971000
C   3.22375000   -3.71856000   -7.35734000
C   3.22866000   -5.18169000   -7.87336000
H   3.25601000   -5.16590000   -8.98841000
H   4.45960000   -5.94452000   -6.24413000
H   5.73573000   -3.75447000   -6.17847000
H   4.53948000   -2.96853000   -8.92462000
H   3.19660000   -3.73444000   -6.24231000
C   4.50881000   -1.52940000   -7.28845000
C   7.04505000   -1.54416000   -7.21965000
C   5.79616000   -0.79472000   -7.73700000
C   3.26205000   -0.77895000   -7.80972000
H   4.47705000   -1.54759000   -6.17361000
H   7.01536000   -1.56563000   -6.10478000
H   3.29606000   -0.76228000   -8.92482000
H   5.82749000   -0.77515000   -8.85206000
C   1.96653000   -1.50623000   -7.36368000
C   1.96772000   -2.96893000   -7.87364000
C   1.94111000   -5.91796000   -7.41929000
C   0.73857000   -0.73497000   -7.88555000
C   0.69858000   -3.71526000   -7.42109000
C   0.70365000   -5.15859000   -7.93376000
H   0.72507000   -0.73387000   -8.99771000
H   1.92486000   -1.51852000   -6.25017000
H   1.98778000   -2.95651000   -8.98776000
H   0.62276000   -3.71670000   -6.31151000
H   0.68258000   -5.15672000   -9.04571000
H   1.90634000   -5.93005000   -6.30559000
C   0.74627000   0.71018000   -7.37499000
C   2.02809000   1.43047000   -7.80653000
C   3.26621000   0.68201000   -7.29095000
C   4.55020000   1.40669000   -7.73004000
C   5.79367000   0.66373000   -7.21484000
C   7.07737000   1.39251000   -7.65204000
H   0.66481000   0.71770000   -6.26679000
H   3.23213000   0.67774000   -6.17800000
H   5.76024000   0.65686000   -6.10197000
H   2.05168000   1.50122000   -8.91644000
H   4.58439000   1.47548000   -8.84086000
H   7.11058000   1.46518000   -8.76258000
C   7.02820000   5.86211000   -7.82953000
C   5.74919000   5.12614000   -7.36989000
C   4.49235000   5.87374000   -7.87963000
H   7.04878000   5.88298000   -8.94466000
C   5.75600000   3.66718000   -7.89069000
H   5.72811000   5.10750000   -6.25465000
C   4.48176000   2.93781000   -7.43509000
C   3.22830000   3.67532000   -7.93674000
C   3.21404000   5.13671000   -7.41939000
H   5.77497000   3.67310000   -9.00394000
H   4.51435000   5.89146000   -8.99474000
H   3.19343000   5.12063000   -6.30395000
H   3.24875000   3.67892000   -9.05006000
H   4.46165000   2.87010000   -6.32388000
C   7.01044000   2.92587000   -7.39359000
H   6.99276000   2.85504000   -6.28263000
C   1.94963000   5.87714000   -7.92865000
C   1.95862000   2.94026000   -7.48249000
C   0.68947000   5.11906000   -7.46782000
C   0.70726000   3.67352000   -7.97703000
H   1.96285000   5.88914000   -9.04290000
H   0.62114000   5.11892000   -6.35771000
H   0.68051000   3.66596000   -9.08791000
H   1.92679000   2.87025000   -6.37273000
C   12.08367000   -5.92690000   -7.35910000
C   14.62218000   -5.93982000   -7.30496000
C   13.36678000   -5.19173000   -7.81526000
H   14.59917000   -5.96086000   -6.18993000
H   14.67454000   -2.97832000   -8.86002000
C   14.64738000   -2.99993000   -7.74505000
C   13.36222000   -3.73497000   -7.29340000
H   13.39153000   -5.17227000   -8.93030000
C   12.10988000   -2.98651000   -7.80971000
C   10.82275000   -3.71856000   -7.35734000
C   10.82766000   -5.18169000   -7.87336000
H   10.85501000   -5.16590000   -8.98841000
H   12.05860000   -5.94452000   -6.24413000
H   13.33473000   -3.75447000   -6.17847000
H   12.13848000   -2.96853000   -8.92462000
H   10.79560000   -3.73444000   -6.24231000
C   12.10781000   -1.52940000   -7.28845000
C   14.64405000   -1.54416000   -7.21965000
C   13.39516000   -0.79472000   -7.73700000
C   10.86105000   -0.77895000   -7.80972000
H   12.07605000   -1.54759000   -6.17361000
H   14.61436000   -1.56563000   -6.10478000
H   10.89506000   -0.76228000   -8.92482000
H   13.42649000   -0.77515000   -8.85206000
C   9.56553000   -1.50623000   -7.36368000
C   9.56672000   -2.96893000   -7.87364000
C   9.54011000   -5.91796000   -7.41929000
C   8.33757000   -0.73497000   -7.88555000
C   8.29758000   -3.71526000   -7.42109000
C   8.30265000   -5.15859000   -7.93376000
H   8.32407000   -0.73387000   -8.99771000
H   9.52386000   -1.51852000   -6.25017000
H   9.58678000   -2.95651000   -8.98776000
H   8.22176000   -3.71670000   -6.31151000
H   8.28158000   -5.15672000   -9.04571000
H   9.50534000   -5.93005000   -6.30559000
C   8.34527000   0.71018000   -7.37499000
C   9.62709000   1.43047000   -7.80653000
C   10.86521000   0.68201000   -7.29095000
C   12.14920000   1.40669000   -7.73004000
C   13.39267000   0.66373000   -7.21484000
C   14.67637000   1.39251000   -7.65204000
H   8.26381000   0.71770000   -6.26679000
H   10.83113000   0.67774000   -6.17800000
H   13.35924000   0.65686000   -6.10197000
H   9.65068000   1.50122000   -8.91644000
H   12.18339000   1.47548000   -8.84086000
H   14.70958000   1.46518000   -8.76258000
C   14.62720000   5.86211000   -7.82953000
C   13.34819000   5.12614000   -7.36989000
C   12.09135000   5.87374000   -7.87963000
H   14.64778000   5.88298000   -8.94466000
C   13.35500000   3.66718000   -7.89069000
H   13.32711000   5.10750000   -6.25465000
C   12.08076000   2.93781000   -7.43509000
C   10.82730000   3.67532000   -7.93674000
C   10.81304000   5.13671000   -7.41939000
H   13.37397000   3.67310000   -9.00394000
H   12.11335000   5.89146000   -8.99474000
H   10.79243000   5.12063000   -6.30395000
H   10.84775000   3.67892000   -9.05006000
H   12.06065000   2.87010000   -6.32388000
C   14.60944000   2.92587000   -7.39359000
H   14.59176000   2.85504000   -6.28263000
C   9.54863000   5.87714000   -7.92865000
C   9.55762000   2.94026000   -7.48249000
C   8.28847000   5.11906000   -7.46782000
C   8.30626000   3.67352000   -7.97703000
H   9.56185000   5.88914000   -9.04290000
H   8.22014000   5.11892000   -6.35771000
H   8.27951000   3.66596000   -9.08791000
H   9.52579000   2.87025000   -6.37273000
C   -10.71333000   -5.92690000   7.64090000
C   -8.17482000   -5.93982000   7.69504000
C   -9.43022000   -5.19173000   7.18474000
H   -8.19783000   -5.96086000   8.81007000
H   -8.12246000   -2.97832000   6.13998000
C   -8.14962000   -2.99993000   7.25495000
C   -9.43478000   -3.73497000   7.70660000
H   -9.40547000   -5.17227000   6.06970000
C   -10.68712000   -2.98651000   7.19029000
C   -11.97425000   -3.71856000   7.64266000
C   -11.96934000   -5.18169000   7.12664000
H   -11.94199000   -5.16590000   6.01159000
H   -10.73840000   -5.94452000   8.75587000
H   -9.46227000   -3.75447000   8.82153000
H   -10.65852000   -2.96853000   6.07538000
H   -12.00140000   -3.73444000   8.75769000
C   -10.68919000   -1.52940000   7.71155000
C   -8.15295000   -1.54416000   7.78035000
C   -9.40184000   -0.79472000   7.26300000
C   -11.93595000   -0.77895000   7.19028000
H   -10.72095000   -1.54759000   8.82639000
H   -8.18264000   -1.56563000   8.89522000
H   -11.90194000   -0.76228000   6.07518000
H   -9.37051000   -0.77515000   6.14794000
C   -13.23147000   -1.50623000   7.63632000
C   -13.23028000   -2.96893000   7.12636000
C   -13.25689000   -5.91796000   7.58071000
C   -14.45943000   -0.73497000   7.11445000
C   -14.49942000   -3.71526000   7.57891000
C   -14.49435000   -5.15859000   7.06624000
H   -14.47293000   -0.73387000   6.00229000
H   -13.27314000   -1.51852000   8.74983000
H   -13.21022000   -2.95651000   6.01224000
H   -14.57524000   -3.71670000   8.68849000
H   -14.51542000   -5.15672000   5.95429000
H   -13.29166000   -5.93005000   8.69441000
C   -14.45173000   0.71018000   7.62501000
C   -13.16991000   1.43047000   7.19347000
C   -11.93179000   0.68201000   7.70905000
C   -10.64780000   1.40669000   7.26996000
C   -9.40433000   0.66373000   7.78516000
C   -8.12063000   1.39251000   7.34796000
H   -14.53319000   0.71770000   8.73321000
H   -11.96587000   0.67774000   8.82200000
H   -9.43776000   0.65686000   8.89803000
H   -13.14632000   1.50122000   6.08356000
H   -10.61361000   1.47548000   6.15914000
H   -8.08742000   1.46518000   6.23742000
C   -8.16980000   5.86211000   7.17047000
C   -9.44881000   5.12614000   7.63011000
C   -10.70565000   5.87374000   7.12037000
H   -8.14922000   5.88298000   6.05534000
C   -9.44200000   3.66718000   7.10931000
H   -9.46989000   5.10750000   8.74535000
C   -10.71624000   2.93781000   7.56491000
C   -11.96970000   3.67532000   7.06326000
C   -11.98396000   5.13671000   7.58061000
H   -9.42303000   3.67310000   5.99606000
H   -10.68365000   5.89146000   6.00526000
H   -12.00457000   5.12063000   8.69605000
H   -11.94925000   3.67892000   5.94994000
H   -10.73635000   2.87010000   8.67612000
C   -8.18756000   2.92587000   7.60641000
H   -8.20524000   2.85504000   8.71737000
C   -13.24837000   5.87714000   7.07135000
C   -13.23938000   2.94026000   7.51751000
C   -14.50853000   5.11906000   7.53218000
C   -14.49074000   3.67352000   7.02297000
H   -13.23515000   5.88914000   5.95710000
H   -14.57686000   5.11892000   8.64229000
H   -14.51749000   3.66596000   5.91209000
H   -13.27121000   2.87025000   8.62727000
C   -3.11433000   -5.92690000   7.64090000
C   -0.57582000   -5.93982000   7.69504000
C   -1.83122000   -5.19173000   7.18474000
H   -0.59883000   -5.96086000   8.81007000
H   -0.52346000   -2.97832000   6.13998000
C   -0.55062000   -2.99993000   7.25495000
C   -1.83578000   -3.73497000   7.70660000
H   -1.80647000   -5.17227000   6.06970000
C   -3.08812000   -2.98651000   7.19029000
C   -4.37525000   -3.71856000   7.64266000
C   -4.37034000   -5.18169000   7.12664000
H   -4.34299000   -5.16590000   6.01159000
H   -3.13940000   -5.94452000   8.75587000
H   -1.86327000   -3.75447000   8.82153000
H   -3.05952000   -2.96853000   6.07538000
H   -4.40240000   -3.73444000   8.75769000
C   -3.09019000   -1.52940000   7.71155000
C   -0.55395000   -1.54416000   7.78035000
C   -1.80284000   -0.79472000   7.26300000
C   -4.33695000   -0.77895000   7.19028000
H   -3.12195000   -1.54759000   8.82639000
H   -0.58364000   -1.56563000   8.89522000
H   -1.77151000   -0.77515000   6.14794000
C   -5.63247000   -1.50623000   7.63632000
C   -5.63128000   -2.96893000   7.12636000
C   -5.65789000   -5.91796000   7.58071000
C   -6.86043000   -0.73497000   7.11445000
C   -6.90042000   -3.71526000   7.57891000
C   -6.89535000   -5.15859000   7.06624000
H   -6.87393000   -0.73387000   6.00229000
H   -5.67414000   -1.51852000   8.74983000
H   -5.61122000   -2.95651000   6.01224000
H   -6.97624000   -3.71670000   8.68849000
H   -6.91642000   -5.15672000   5.95429000
H   -5.69266000   -5.93005000   8.69441000
C   -6.85273000   0.71018000   7.62501000
C   -5.57091000   1.43047000   7.19347000
C   -4.33279000   0.68201000   7.70905000
C   -3.04880000   1.40669000   7.26996000
C   -1.80533000   0.66373000   7.78516000
C   -0.52163000   1.39251000   7.34796000
H   -6.93419000   0.71770000   8.73321000
H   -4.36687000   0.67774000   8.82200000
H   -1.83876000   0.65686000   8.89803000
H   -5.54732000   1.50122000   6.08356000
H   -3.01461000   1.47548000   6.15914000
H   -0.48842000   1.46518000   6.23742000
C   -0.57080000   5.86211000   7.17047000
C   -1.84981000   5.12614000   7.63011000
C   -3.10665000   5.87374000   7.12037000
H   -0.55022000   5.88298000   6.05534000
C   -1.84300000   3.66718000   7.10931000
H   -1.87089000   5.10750000   8.74535000
C   -3.11724000   2.93781000   7.56491000
C   -4.37070000   3.67532000   7.06326000
C   -4.38496000   5.13671000   7.58061000
H   -1.82403000   3.67310000   5.99606000
H   -3.08465000   5.89146000   6.00526000
H   -4.40557000   5.12063000   8.69605000
H   -4.35025000   3.67892000   5.94994000
H   -3.13735000   2.87010000   8.67612000
C   -0.58856000   2.92587000   7.60641000
H   -0.60624000   2.85504000   8.71737000
C   -5.64937000   5.87714000   7.07135000
C   -5.64038000   2.94026000   7.51751000
C   -6.90953000   5.11906000   7.53218000
C   -6.89174000   3.67352000   7.02297000
H   -5.63615000   5.88914000   5.95710000
H   -6.97786000   5.11892000   8.64229000
H   -6.91849000   3.66596000   5.91209000
H   -5.67221000   2.87025000   8.62727000
C   4.48467000   -5.92690000   7.64090000
C   7.02318000   -5.93982000   7.69504000
C   5.76778000   -5.19173000   7.18474000
H   7.00017000   -5.96086000   8.81007000
H   7.07554000   -2.97832000   6.13998000
C   7.04838000   -2.99993000   7.25495000
C   5.76322000   -3.73497000   7.70660000
H   5.79253000   -5.17227000   6.06970000
C   4.51088000   -2.98651000   7.19029000
C   3.22375000   -3.71856000   7.64266000
C   3.22866000   -5.18169000   7.12664000
H   3.25601000   -5.16590000   6.01159000
H   4.45960000   -5.94452000   8.75587000
H   5.73573000   -3.75447000   8.82153000
H   4.53948000   -2.96853000   6.07538000
H   3.19660000   -3.73444000   8.75769000
C   4.50881000   -1.52940000   7.71155000
C   7.04505000   -1.54416000   7.78035000
C   5.79616000   -0.79472000   7.26300000
C   3.26205000   -0.77895000   7.19028000
H   4.47705000   -1.54759000   8.82639000
H   7.01536000   -1.56563000   8.89522000
H   3.29606000   -0.76228000   6.07518000
C   1.96653000   -1.50623000   7.63632000
C   1.96772000   -2.96893000   7.12636000
C   1.94111000   -5.91796000   7.58071000
C   0.73857000   -0.73497000   7.11445000
C   0.69858000   -3.71526000   7.57891000
C   0.70365000   -5.15859000   7.06624000
H   0.72507000   -0.73387000   6.00229000
H   1.92486000   -1.51852000   8.74983000
H   1.98778000   -2.95651000   6.01224000
H   0.62276000   -3.71670000   8.68849000
H   0.68258000   -5.15672000   5.95429000
H   1.90634000   -5.93005000   8.69441000
C   0.74627000   0.71018000   7.62501000
C   2.02809000   1.43047000   7.19347000
C   3.26621000   0.68201000   7.70905000
C   4.55020000   1.40669000   7.26996000
C   5.79367000   0.66373000   7.78516000
C   7.07737000   1.39251000   7.34796000
H   0.66481000   0.71770000   8.73321000
H   3.23213000   0.67774000   8.82200000
H   5.76024000   0.65686000   8.89803000
H   2.05168000   1.50122000   6.08356000
H   4.58439000   1.47548000   6.15914000
H   7.11058000   1.46518000   6.23742000
C   7.02820000   5.86211000   7.17047000
C   5.74919000   5.12614000   7.63011000
C   4.49235000   5.87374000   7.12037000
H   7.04878000   5.88298000   6.05534000
C   5.75600000   3.66718000   7.10931000
H   5.72811000   5.10750000   8.74535000
C   4.48176000   2.93781000   7.56491000
C   3.22830000   3.67532000   7.06326000
C   3.21404000   5.13671000   7.58061000
H   5.77497000   3.67310000   5.99606000
H   4.51435000   5.89146000   6.00526000
H   3.19343000   5.12063000   8.69605000
H   3.24875000   3.67892000   5.94994000
H   4.46165000   2.87010000   8.67612000
C   7.01044000   2.92587000   7.60641000
H   6.99276000   2.85504000   8.71737000
C   1.94963000   5.87714000   7.07135000
C   1.95862000   2.94026000   7.51751000
C   0.68947000   5.11906000   7.53218000
C   0.70726000   3.67352000   7.02297000
H   1.96285000   5.88914000   5.95710000
H   0.62114000   5.11892000   8.64229000
H   0.68051000   3.66596000   5.91209000
H   1.92679000   2.87025000   8.62727000
C   12.08367000   -5.92690000   7.64090000
C   14.62218000   -5.93982000   7.69504000
C   13.36678000   -5.19173000   7.18474000
H   14.59917000   -5.96086000   8.81007000
H   14.67454000   -2.97832000   6.13998000
C   14.64738000   -2.99993000   7.25495000
C   13.36222000   -3.73497000   7.70660000
H   13.39153000   -5.17227000   6.06970000
C   12.10988000   -2.98651000   7.19029000
C   10.82275000   -3.71856000   7.64266000
C   10.82766000   -5.18169000   7.12664000
H   10.85501000   -5.16590000   6.01159000
H   12.05860000   -5.94452000   8.75587000
H   13.33473000   -3.75447000   8.82153000
H   12.13848000   -2.96853000   6.07538000
H   10.79560000   -3.73444000   8.75769000
C   12.10781000   -1.52940000   7.71155000
C   14.64405000   -1.54416000   7.78035000
C   13.39516000   -0.79472000   7.26300000
C   10.86105000   -0.77895000   7.19028000
H   12.07605000   -1.54759000   8.82639000
H   14.61436000   -1.56563000   8.89522000
H   10.89506000   -0.76228000   6.07518000
H   13.42649000   -0.77515000   6.14794000
C   9.56553000   -1.50623000   7.63632000
C   9.56672000   -2.96893000   7.12636000
C   9.54011000   -5.91796000   7.58071000
C   8.33757000   -0.73497000   7.11445000
C   8.29758000   -3.71526000   7.57891000
C   8.30265000   -5.15859000   7.06624000
H   8.32407000   -0.73387000   6.00229000
H   9.52386000   -1.51852000   8.74983000
H   9.58678000   -2.95651000   6.01224000
H   8.22176000   -3.71670000   8.68849000
H   8.28158000   -5.15672000   5.95429000
H   9.50534000   -5.93005000   8.69441000
C   8.34527000   0.71018000   7.62501000
C   9.62709000   1.43047000   7.19347000
C   10.86521000   0.68201000   7.70905000
C   12.14920000   1.40669000   7.26996000
C   13.39267000   0.66373000   7.78516000
C   14.67637000   1.39251000   7.34796000
H   8.26381000   0.71770000   8.73321000
H   10.83113000   0.67774000   8.82200000
H   13.35924000   0.65686000   8.89803000
H   9.65068000   1.50122000   6.08356000
H   12.18339000   1.47548000   6.15914000
H   14.70958000   1.46518000   6.23742000
C   14.62720000   5.86211000   7.17047000
C   13.34819000   5.12614000   7.63011000
C   12.09135000   5.87374000   7.12037000
H   14.64778000   5.88298000   6.05534000
C   13.35500000   3.66718000   7.10931000
H   13.32711000   5.10750000   8.74535000
C   12.08076000   2.93781000   7.56491000
C   10.82730000   3.67532000   7.06326000
C   10.81304000   5.13671000   7.58061000
H   13.37397000   3.67310000   5.99606000
H   12.11335000   5.89146000   6.00526000
H   10.79243000   5.12063000   8.69605000
H   10.84775000   3.67892000   5.94994000
H   12.06065000   2.87010000   8.67612000
C   14.60944000   2.92587000   7.60641000
H   14.59176000   2.85504000   8.71737000
C   9.54863000   5.87714000   7.07135000
C   9.55762000   2.94026000   7.51751000
C   8.28847000   5.11906000   7.53218000
C   8.30626000   3.67352000   7.02297000
H   9.56185000   5.88914000   5.95710000
H   8.22014000   5.11892000   8.64229000
H   8.27951000   3.66596000   5.91209000
H   9.52579000   2.87025000   8.62727000
N   -4.82072983   -0.26253992   2.97950854
C   -5.41272492   -0.48604955   4.36003035
H   -5.95728585   0.44722761   4.60579293
H   -6.16287165   -1.29475460   4.29356155
C   -4.30995080   -0.74599160   5.45618011
H   -3.85703770   -1.70802723   5.19926539
H   -3.45020435   -0.07404933   5.22922061
C   -6.03062541   -0.35122261   1.95182387
H   -6.33656289   -1.39532971   1.67696518
H   -6.81988221   0.31804034   2.26699526
H   -5.67366918   0.14887743   1.02082245
C   -3.68511454   -1.10986644   2.56662398
H   -3.95188640   -2.16433602   2.89055710
H   -3.55039837   -1.12409625   1.47303263
H   -2.74306406   -0.78209910   3.05965266
C   -4.29510373   1.17701412   2.85537835
H   -5.11332464   1.86004272   2.92515607
H   -3.71784074   1.41977055   3.73822431
H   -3.79888132   1.27938704   1.95977126
N   5.96801780   -0.89589334   3.11815122
C   6.10090683   -1.64361114   4.45254632
H   5.34818034   -2.48134168   4.46642595
H   7.12128752   -2.01434261   4.53482007
C   5.77355148   -0.61136523   5.62945124
H   6.40912651   0.24517879   5.39460091
H   4.85172284   -0.15114553   5.44252327
C   6.45048064   -1.80053848   2.09567782
H   7.37093876   -2.29124970   2.30395278
H   5.73094380   -2.59357877   1.92644497
H   6.64782858   -1.34441599   1.16438795
C   6.93234988   0.24863440   3.14418446
H   7.84736768   -0.14035299   3.56430862
H   7.07512037   0.67503461   2.12875141
H   6.55042564   0.96502776   3.80437668
C   4.57413245   -0.49264453   2.80816125
H   4.49970576   0.09959146   1.90123193
H   3.99852884   -1.38815227   2.68332813
H   4.10939378   0.09268602   3.58951351
O   -9.43477683   4.13036653   -1.89578070
H   -9.23356659   3.96478632   -0.98456460
H   -9.88356024   4.96332617   -2.13101440
O   12.66325743   -5.54399974   -2.36055401
H   12.62770626   -4.84851295   -3.02519937
H   11.80591301   -5.96341802   -2.44336348
O   -8.07661988   5.03998974   3.54001254
H   -7.90452268   5.55814329   2.74154697
H   -8.29146885   5.61485673   4.22906296
O   -10.62250079   0.01338728   1.27282200
H   -10.07895448   0.76875943   1.17138271
H   -11.06620328   0.02099751   0.38475930
O   -7.86801056   2.11574576   3.84935156
H   -7.72423311   3.04437689   3.66475755
H   -4.00309719   4.60193312   4.04579980
O   2.84330199   -3.27368803   1.65828573
H   1.88826729   -3.39973961   1.96691229
H   3.48256305   -3.51110373   2.32632886
O   7.15292828   3.61946791   0.74519919
H   7.79550499   3.32201597   1.50210561
H   -10.90047624   -1.49494109   -1.74985049
O   4.83142188   5.93243960   -2.40246112
H   5.13976818   6.15775480   -1.52631283
H   5.47297239   6.35132067   -2.99074054
O   4.37397811   -0.04269054   -0.49881606
H   3.75220757   0.17253889   -1.22873157
H   5.23722749   0.46732902   -0.59750868
O   12.44207372   0.95351268   -1.34948505
H   12.76547971   0.04146304   -1.52646810
H   13.20593711   1.50564962   -1.25642018
O   -4.50626907   4.44988152   0.88908940
H   -4.50841673   5.17547627   0.24995516
H   -5.31080364   3.92196866   0.88799308
O   -0.24195744   4.11912773   -0.23121192
H   14.80101367   2.35569511   2.30013405
H   11.24608376   -6.28063082   3.01313584
O   10.71182149   -0.68635637   0.70020800
H   10.53006489   -0.08626786   1.36069189
H   11.72227600   -0.65545347   0.60879213
O   -0.26077622   -6.41567899   -0.51013245
H   -0.05307115   -5.92263391   -1.31986711
H   -0.24119411   -5.87722332   0.32130875
O   -8.03351908   -3.14735067   3.89366339
H   -8.48786124   -3.11246482   3.04413663
H   -7.92256496   -4.07631970   3.98025273
O   -7.31905108   -3.92892745   -3.75041813
H   -6.68115188   -4.46249896   -4.18930925
H   -8.08685131   -4.46393716   -3.55003359
O   7.52595402   5.20420160   -3.31747349
H   7.80600018   4.46660255   -2.69124365
H   6.81805683   4.87299139   -3.94000117
O   0.79933099   1.26425628   0.15953617
H   1.26630721   1.77427375   -0.48402462
H   -0.12368938   1.37984766   0.05606431
O   -1.48097850   -3.74925297   -0.24061966
H   -2.40457790   -3.56080900   -0.00963286
H   -1.08323798   -2.82371361   -0.23347805
O   -8.98806017   -2.41215181   -0.00413826
H   -8.64941878   -3.11652763   0.57962844
H   -9.83548514   -2.31239160   0.39374465
O   9.89362421   -3.74582583   0.35995400
H   8.98178082   -3.98026992   0.51882725
H   9.92837340   -2.79897044   0.46422667
O   5.92492525   5.88805687   2.25214381
H   6.06777451   4.99006545   1.84407171
H   5.91123666   6.43623962   1.49132286
O   -14.95508274   -4.24277485   0.39120774
H   -14.47129411   -4.23823145   -0.43854957
H   14.81765046   -4.98458095   0.41346449
O   -3.53842610   5.28657046   3.62536717
H   -3.47929214   5.19908305   2.64977457
H   0.52508952   4.23535691   -0.78963703
O   -1.99126953   -0.85163065   0.21228493
H   -2.51277361   -0.33431407   -0.36276956
H   -1.04552397   -0.79671803   -0.09545641
O   5.64290485   3.25706110   -1.94327224
H   5.23139210   2.48382945   -1.47342713
H   6.07945689   3.73297087   -1.25668202
O   -7.87331923   5.67845028   0.53179934
H   -8.67232924   2.01413024   4.39419048
H   -7.63661434   6.63293988   0.58664302
O   -8.63733705   2.64137220   1.06495395
H   -8.63237507   2.03082413   1.80049326
H   -9.19610550   2.53393728   0.27691475
O   -4.18803390   -3.39163599   -0.49063110
H   -4.43265414   -2.73576081   -1.22167428
H   -4.29091230   -4.29309280   -0.90897297
O   -9.51436034   -6.09751077   -3.60317084
H   -9.56490425   -6.06260866   -2.64063079
H   -8.62682575   -6.36617895   -3.90715021
O   -8.65036239   0.48694148   -1.77358785
H   -8.73407218   -0.47974514   -1.57723825
H   -9.53254735   0.72021461   -2.20800076
O   -0.32959188   1.15837210   3.44216756
H   0.42397780   1.33543516   2.85925609
H   -1.04355211   0.85465180   2.89956651
O   3.37938267   0.61439794   -3.19589491
H   3.62206182   1.55831242   -3.36729706
H   4.03786523   0.04698264   -3.61774889
O   4.74938339   2.83694443   0.93314744
H   5.69999011   3.28500436   0.92324873
H   4.71530643   1.91212581   0.64227044
O   0.13958265   5.18773484   2.67883750
H   -0.06542050   4.80081458   1.77132779
H   0.65224288   4.60727031   3.29606315
O   11.21282805   1.17435634   3.55831638
H   10.78860302   1.95239457   3.36270918
H   12.13176519   1.23278668   3.30543055
O   0.88358040   -1.64831435   -1.40496153
H   1.42304019   -2.15752263   -2.04568656
H   1.40280761   -0.82055590   -1.19095412
O   9.51560551   -1.13326392   3.80503269
H   9.74950825   -2.06406076   3.90304375
H   10.15955994   -0.49292777   4.02512417
O   -2.90163313   -4.78707578   2.85944854
H   -2.18071109   -5.38389003   3.14113103
H   -3.41097851   -4.82057619   3.69456643
O   9.31453567   5.49514999   1.45252993
H   8.64257584   4.77949013   1.29495078
H   9.25864986   6.18516168   0.76932832
O   14.63799022   5.62861391   -1.70581833
H   14.03547981   6.01376177   -2.31750172
H   -15.10111686   6.30623783   -1.40581933
O   -3.56688644   -6.18872769   -0.21624557
H   -3.32555528   -6.06793250   0.68689582
H   -2.74693968   -5.94141503   -0.69366948
O   2.26835922   -4.69114087   -1.25957362
H   1.68275901   -4.09744345   -0.71038890
H   2.41099340   -5.51118532   -0.75489957
O   13.64510444   -0.23362787   0.96518515
H   14.25901511   0.52827646   1.07212002
H   14.04706825   -0.92644971   1.42877184
O   7.14231887   1.11592475   -0.41031659
H   7.99470013   1.04420147   -0.94965952
H   7.25304298   1.94895453   0.08477996
O   -9.98712338   -6.35433976   2.39462321
H   -9.15055852   -5.95037430   2.05337326
H   -10.20473678   -5.89127404   3.26287174
O   13.44405270   -2.86115061   -1.81187532
H   14.24544003   -2.86137206   -1.31325256
H   12.98342602   -3.62622187   -1.47768724
O   -10.21850970   -5.28837954   -0.34166706
H   -10.58783720   -6.05318993   0.18223055
H   -9.43333363   -5.02267922   0.22496652
O   4.25227391   2.33923739   3.57148233
H   4.45060228   2.56739012   2.62205518
H   3.95477631   3.18190316   4.03529670
O   2.88035662   5.74037137   0.39783347
H   2.61552507   4.98669020   0.99878810
H   2.91307174   6.60792430   0.87781637
O   -12.29714844   -2.81982088   -0.41590970
H   -11.62971934   -3.53649286   -0.58646231
H   -12.37715324   -2.63981500   0.49872600
O   14.64798887   3.49924566   3.78035491
H   15.11246620   4.39471002   3.70436007
H   8.61183991   3.59090959   -0.75804681
O   0.59283913   4.43956485   -3.48653041
H   1.41308360   4.59616769   -3.94354653
H   0.02611211   5.19601237   -3.69704596
O   12.30701727   4.39626909   2.46995399
H   11.33672157   4.48158277   2.36811499
H   12.62902664   5.19516650   2.03558945
O   5.40407568   -3.43867567   -0.90247767
H   4.46379760   -3.31142150   -1.09931945
H   5.81900059   -2.70260132   -1.30926733
O   -5.47083421   -3.21773854   2.03225314
H   -5.05351320   -3.39670094   1.21230044
H   -6.30406361   -3.70217505   1.92897936
O   -11.36795716   -0.70390494   -2.10172026
H   9.60565637   5.63477712   -1.54956341
H   -12.25255238   -1.10106514   -2.19668750
O   -11.50820375   2.77539597   -0.67996102
H   -10.71429058   3.06713002   -1.17151209
H   -12.15284074   2.23116596   -1.20459752
O   10.46280988   3.56480648   -3.87639507
H   9.96960314   3.37225765   -4.68846762
H   10.08466539   3.00065405   -3.16106749
O   7.20909251   6.09646488   -0.47895226
H   7.12929934   5.24657923   0.06951413
H   7.26630897   5.71901068   -1.37614488
O   7.12494161   -4.57239273   0.85585991
H   7.10992424   -5.49422038   1.09048701
H   6.34586195   -4.41659630   0.28003748
O   6.35415764   -0.52173707   -2.73838545
H   7.05654943   -1.16017023   -2.64935493
H   -0.28278528   -4.72097592   2.68318410
O   2.41534124   3.12516906   -1.36794230
H   3.32267326   3.40745286   -1.36594862
H   1.82605318   3.88662514   -1.41439500
O   9.97429648   6.10927544   -2.31527475
H   10.09392457   5.45519294   -2.99015972
H   6.51668974   0.29964532   -2.23112397
O   9.52807204   0.53864425   -2.37227393
H   9.45492827   -0.41480163   -2.60891268
H   10.40013176   0.65549167   -1.96455458
O   11.44370828   -6.34819464   0.47500220
H   11.88959736   -6.67687244   -0.25244749
H   10.93936288   -5.57116656   0.13641048
O   15.06661103   2.07051645   1.44472332
H   15.10210968   2.90199914   0.96531907
H   13.71133399   3.57562839   3.74656045
O   -5.65622148   0.21713226   -1.31003665
H   -6.54495029   0.70423115   -1.42870184
H   -5.66543047   -0.53814367   -1.94887988
O   8.82693572   -3.83478244   3.22518834
H   8.13439903   -4.22419310   2.64010513
H   9.62353072   -4.43188850   3.13205698
O   8.35609657   -2.42857686   -3.11183510
H   8.33186304   -2.60194466   -4.07437664
H   8.36346383   -3.28777523   -2.65776642
O   -7.26336032   -5.73452933   3.55422126
H   -7.40196306   -5.37754234   2.68222318
H   -6.35539164   -5.40307333   3.75738057
O   8.62898829   3.32530646   -1.64467175
H   -0.81659644   4.91388074   -0.25737581
H   8.45233743   2.40722002   -1.64627224
O   8.17444772   -4.99768400   -2.56616807
H   7.35621791   -5.45958571   -2.49726579
H   8.85053271   -5.70950851   -2.61477065
O   -1.70655421   1.37812910   -1.87201341
H   -2.35709972   2.02636222   -2.19025764
H   -0.86883625   1.75969804   -2.12340065
O   -13.91468270   -6.22381694   3.81215752
H   -13.71635706   6.50315039   3.14637570
H   -13.08718365   -5.74682589   3.93023938
O   -7.92061512   -4.71914474   1.21823013
H   -7.33704731   -5.07208385   0.49272552
H   -8.67151206   5.55787656   1.05718148
O   10.67337563   -6.29426726   3.77288243
H   10.25895963   6.23252593   3.68792265
O   0.33518530   -4.27604168   2.08697187
H   -0.21847455   -3.86114233   1.40833873
