844

C   -10.71333000   -5.92690000   -7.35910000
C   -8.17482000   -5.93982000   -7.30496000
C   -9.43022000   -5.19173000   -7.81526000
H   -8.19783000   -5.96086000   -6.18993000
H   -8.12246000   -2.97832000   -8.86002000
C   -8.14962000   -2.99993000   -7.74505000
C   -9.43478000   -3.73497000   -7.29340000
H   -9.40547000   -5.17227000   -8.93030000
C   -10.68712000   -2.98651000   -7.80971000
C   -11.97425000   -3.71856000   -7.35734000
C   -11.96934000   -5.18169000   -7.87336000
H   -11.94199000   -5.16590000   -8.98841000
H   -10.73840000   -5.94452000   -6.24413000
H   -9.46227000   -3.75447000   -6.17847000
H   -10.65852000   -2.96853000   -8.92462000
H   -12.00140000   -3.73444000   -6.24231000
C   -10.68919000   -1.52940000   -7.28845000
C   -8.15295000   -1.54416000   -7.21965000
C   -9.40184000   -0.79472000   -7.73700000
C   -11.93595000   -0.77895000   -7.80972000
H   -10.72095000   -1.54759000   -6.17361000
H   -8.18264000   -1.56563000   -6.10478000
H   -11.90194000   -0.76228000   -8.92482000
H   -9.37051000   -0.77515000   -8.85206000
C   -13.23147000   -1.50623000   -7.36368000
C   -13.23028000   -2.96893000   -7.87364000
C   -13.25689000   -5.91796000   -7.41929000
C   -14.45943000   -0.73497000   -7.88555000
C   -14.49942000   -3.71526000   -7.42109000
C   -14.49435000   -5.15859000   -7.93376000
H   -14.47293000   -0.73387000   -8.99771000
H   -13.27314000   -1.51852000   -6.25017000
H   -13.21022000   -2.95651000   -8.98776000
H   -14.57524000   -3.71670000   -6.31151000
H   -14.51542000   -5.15672000   -9.04571000
H   -13.29166000   -5.93005000   -6.30559000
C   -14.45173000   0.71018000   -7.37499000
C   -13.16991000   1.43047000   -7.80653000
C   -11.93179000   0.68201000   -7.29095000
C   -10.64780000   1.40669000   -7.73004000
C   -9.40433000   0.66373000   -7.21484000
C   -8.12063000   1.39251000   -7.65204000
H   -14.53319000   0.71770000   -6.26679000
H   -11.96587000   0.67774000   -6.17800000
H   -9.43776000   0.65686000   -6.10197000
H   -13.14632000   1.50122000   -8.91644000
H   -10.61361000   1.47548000   -8.84086000
H   -8.08742000   1.46518000   -8.76258000
C   -8.16980000   5.86211000   -7.82953000
C   -9.44881000   5.12614000   -7.36989000
C   -10.70565000   5.87374000   -7.87963000
H   -8.14922000   5.88298000   -8.94466000
C   -9.44200000   3.66718000   -7.89069000
H   -9.46989000   5.10750000   -6.25465000
C   -10.71624000   2.93781000   -7.43509000
C   -11.96970000   3.67532000   -7.93674000
C   -11.98396000   5.13671000   -7.41939000
H   -9.42303000   3.67310000   -9.00394000
H   -10.68365000   5.89146000   -8.99474000
H   -12.00457000   5.12063000   -6.30395000
H   -11.94925000   3.67892000   -9.05006000
H   -10.73635000   2.87010000   -6.32388000
C   -8.18756000   2.92587000   -7.39359000
H   -8.20524000   2.85504000   -6.28263000
C   -13.24837000   5.87714000   -7.92865000
C   -13.23938000   2.94026000   -7.48249000
C   -14.50853000   5.11906000   -7.46782000
C   -14.49074000   3.67352000   -7.97703000
H   -13.23515000   5.88914000   -9.04290000
H   -14.57686000   5.11892000   -6.35771000
H   -14.51749000   3.66596000   -9.08791000
H   -13.27121000   2.87025000   -6.37273000
C   -3.11433000   -5.92690000   -7.35910000
C   -0.57582000   -5.93982000   -7.30496000
C   -1.83122000   -5.19173000   -7.81526000
H   -0.59883000   -5.96086000   -6.18993000
H   -0.52346000   -2.97832000   -8.86002000
C   -0.55062000   -2.99993000   -7.74505000
C   -1.83578000   -3.73497000   -7.29340000
H   -1.80647000   -5.17227000   -8.93030000
C   -3.08812000   -2.98651000   -7.80971000
C   -4.37525000   -3.71856000   -7.35734000
C   -4.37034000   -5.18169000   -7.87336000
H   -4.34299000   -5.16590000   -8.98841000
H   -3.13940000   -5.94452000   -6.24413000
H   -1.86327000   -3.75447000   -6.17847000
H   -3.05952000   -2.96853000   -8.92462000
H   -4.40240000   -3.73444000   -6.24231000
C   -3.09019000   -1.52940000   -7.28845000
C   -0.55395000   -1.54416000   -7.21965000
C   -1.80284000   -0.79472000   -7.73700000
C   -4.33695000   -0.77895000   -7.80972000
H   -3.12195000   -1.54759000   -6.17361000
H   -0.58364000   -1.56563000   -6.10478000
H   -4.30294000   -0.76228000   -8.92482000
H   -1.77151000   -0.77515000   -8.85206000
C   -5.63247000   -1.50623000   -7.36368000
C   -5.63128000   -2.96893000   -7.87364000
C   -5.65789000   -5.91796000   -7.41929000
C   -6.86043000   -0.73497000   -7.88555000
C   -6.90042000   -3.71526000   -7.42109000
C   -6.89535000   -5.15859000   -7.93376000
H   -6.87393000   -0.73387000   -8.99771000
H   -5.67414000   -1.51852000   -6.25017000
H   -5.61122000   -2.95651000   -8.98776000
H   -6.97624000   -3.71670000   -6.31151000
H   -6.91642000   -5.15672000   -9.04571000
H   -5.69266000   -5.93005000   -6.30559000
C   -6.85273000   0.71018000   -7.37499000
C   -5.57091000   1.43047000   -7.80653000
C   -4.33279000   0.68201000   -7.29095000
C   -3.04880000   1.40669000   -7.73004000
C   -1.80533000   0.66373000   -7.21484000
C   -0.52163000   1.39251000   -7.65204000
H   -6.93419000   0.71770000   -6.26679000
H   -4.36687000   0.67774000   -6.17800000
H   -1.83876000   0.65686000   -6.10197000
H   -5.54732000   1.50122000   -8.91644000
H   -3.01461000   1.47548000   -8.84086000
H   -0.48842000   1.46518000   -8.76258000
C   -0.57080000   5.86211000   -7.82953000
C   -1.84981000   5.12614000   -7.36989000
C   -3.10665000   5.87374000   -7.87963000
H   -0.55022000   5.88298000   -8.94466000
C   -1.84300000   3.66718000   -7.89069000
H   -1.87089000   5.10750000   -6.25465000
C   -3.11724000   2.93781000   -7.43509000
C   -4.37070000   3.67532000   -7.93674000
C   -4.38496000   5.13671000   -7.41939000
H   -1.82403000   3.67310000   -9.00394000
H   -3.08465000   5.89146000   -8.99474000
H   -4.40557000   5.12063000   -6.30395000
H   -4.35025000   3.67892000   -9.05006000
H   -3.13735000   2.87010000   -6.32388000
C   -0.58856000   2.92587000   -7.39359000
H   -0.60624000   2.85504000   -6.28263000
C   -5.64937000   5.87714000   -7.92865000
C   -5.64038000   2.94026000   -7.48249000
C   -6.90953000   5.11906000   -7.46782000
C   -6.89174000   3.67352000   -7.97703000
H   -5.63615000   5.88914000   -9.04290000
H   -6.97786000   5.11892000   -6.35771000
H   -6.91849000   3.66596000   -9.08791000
H   -5.67221000   2.87025000   -6.37273000
C   4.48467000   -5.92690000   -7.35910000
C   7.02318000   -5.93982000   -7.30496000
C   5.76778000   -5.19173000   -7.81526000
H   7.00017000   -5.96086000   -6.18993000
H   7.07554000   -2.97832000   -8.86002000
C   7.04838000   -2.99993000   -7.74505000
C   5.76322000   -3.73497000   -7.29340000
H   5.79253000   -5.17227000   -8.93030000
C   4.51088000   -2.98651000   -7.80971000
C   3.22375000   -3.71856000   -7.35734000
C   3.22866000   -5.18169000   -7.87336000
H   3.25601000   -5.16590000   -8.98841000
H   4.45960000   -5.94452000   -6.24413000
H   5.73573000   -3.75447000   -6.17847000
H   4.53948000   -2.96853000   -8.92462000
H   3.19660000   -3.73444000   -6.24231000
C   4.50881000   -1.52940000   -7.28845000
C   7.04505000   -1.54416000   -7.21965000
C   5.79616000   -0.79472000   -7.73700000
C   3.26205000   -0.77895000   -7.80972000
H   4.47705000   -1.54759000   -6.17361000
H   7.01536000   -1.56563000   -6.10478000
H   3.29606000   -0.76228000   -8.92482000
H   5.82749000   -0.77515000   -8.85206000
C   1.96653000   -1.50623000   -7.36368000
C   1.96772000   -2.96893000   -7.87364000
C   1.94111000   -5.91796000   -7.41929000
C   0.73857000   -0.73497000   -7.88555000
C   0.69858000   -3.71526000   -7.42109000
C   0.70365000   -5.15859000   -7.93376000
H   0.72507000   -0.73387000   -8.99771000
H   1.92486000   -1.51852000   -6.25017000
H   1.98778000   -2.95651000   -8.98776000
H   0.62276000   -3.71670000   -6.31151000
H   0.68258000   -5.15672000   -9.04571000
H   1.90634000   -5.93005000   -6.30559000
C   0.74627000   0.71018000   -7.37499000
C   2.02809000   1.43047000   -7.80653000
C   3.26621000   0.68201000   -7.29095000
C   4.55020000   1.40669000   -7.73004000
C   5.79367000   0.66373000   -7.21484000
C   7.07737000   1.39251000   -7.65204000
H   0.66481000   0.71770000   -6.26679000
H   3.23213000   0.67774000   -6.17800000
H   5.76024000   0.65686000   -6.10197000
H   2.05168000   1.50122000   -8.91644000
H   4.58439000   1.47548000   -8.84086000
H   7.11058000   1.46518000   -8.76258000
C   7.02820000   5.86211000   -7.82953000
C   5.74919000   5.12614000   -7.36989000
C   4.49235000   5.87374000   -7.87963000
H   7.04878000   5.88298000   -8.94466000
C   5.75600000   3.66718000   -7.89069000
H   5.72811000   5.10750000   -6.25465000
C   4.48176000   2.93781000   -7.43509000
C   3.22830000   3.67532000   -7.93674000
C   3.21404000   5.13671000   -7.41939000
H   5.77497000   3.67310000   -9.00394000
H   4.51435000   5.89146000   -8.99474000
H   3.19343000   5.12063000   -6.30395000
H   3.24875000   3.67892000   -9.05006000
H   4.46165000   2.87010000   -6.32388000
C   7.01044000   2.92587000   -7.39359000
H   6.99276000   2.85504000   -6.28263000
C   1.94963000   5.87714000   -7.92865000
C   1.95862000   2.94026000   -7.48249000
C   0.68947000   5.11906000   -7.46782000
C   0.70726000   3.67352000   -7.97703000
H   1.96285000   5.88914000   -9.04290000
H   0.62114000   5.11892000   -6.35771000
H   0.68051000   3.66596000   -9.08791000
H   1.92679000   2.87025000   -6.37273000
C   12.08367000   -5.92690000   -7.35910000
C   14.62218000   -5.93982000   -7.30496000
C   13.36678000   -5.19173000   -7.81526000
H   14.59917000   -5.96086000   -6.18993000
H   14.67454000   -2.97832000   -8.86002000
C   14.64738000   -2.99993000   -7.74505000
C   13.36222000   -3.73497000   -7.29340000
H   13.39153000   -5.17227000   -8.93030000
C   12.10988000   -2.98651000   -7.80971000
C   10.82275000   -3.71856000   -7.35734000
C   10.82766000   -5.18169000   -7.87336000
H   10.85501000   -5.16590000   -8.98841000
H   12.05860000   -5.94452000   -6.24413000
H   13.33473000   -3.75447000   -6.17847000
H   12.13848000   -2.96853000   -8.92462000
H   10.79560000   -3.73444000   -6.24231000
C   12.10781000   -1.52940000   -7.28845000
C   14.64405000   -1.54416000   -7.21965000
C   13.39516000   -0.79472000   -7.73700000
C   10.86105000   -0.77895000   -7.80972000
H   12.07605000   -1.54759000   -6.17361000
H   14.61436000   -1.56563000   -6.10478000
H   10.89506000   -0.76228000   -8.92482000
H   13.42649000   -0.77515000   -8.85206000
C   9.56553000   -1.50623000   -7.36368000
C   9.56672000   -2.96893000   -7.87364000
C   9.54011000   -5.91796000   -7.41929000
C   8.33757000   -0.73497000   -7.88555000
C   8.29758000   -3.71526000   -7.42109000
C   8.30265000   -5.15859000   -7.93376000
H   8.32407000   -0.73387000   -8.99771000
H   9.52386000   -1.51852000   -6.25017000
H   9.58678000   -2.95651000   -8.98776000
H   8.22176000   -3.71670000   -6.31151000
H   8.28158000   -5.15672000   -9.04571000
H   9.50534000   -5.93005000   -6.30559000
C   8.34527000   0.71018000   -7.37499000
C   9.62709000   1.43047000   -7.80653000
C   10.86521000   0.68201000   -7.29095000
C   12.14920000   1.40669000   -7.73004000
C   13.39267000   0.66373000   -7.21484000
C   14.67637000   1.39251000   -7.65204000
H   8.26381000   0.71770000   -6.26679000
H   10.83113000   0.67774000   -6.17800000
H   13.35924000   0.65686000   -6.10197000
H   9.65068000   1.50122000   -8.91644000
H   12.18339000   1.47548000   -8.84086000
H   14.70958000   1.46518000   -8.76258000
C   14.62720000   5.86211000   -7.82953000
C   13.34819000   5.12614000   -7.36989000
C   12.09135000   5.87374000   -7.87963000
H   14.64778000   5.88298000   -8.94466000
C   13.35500000   3.66718000   -7.89069000
H   13.32711000   5.10750000   -6.25465000
C   12.08076000   2.93781000   -7.43509000
C   10.82730000   3.67532000   -7.93674000
C   10.81304000   5.13671000   -7.41939000
H   13.37397000   3.67310000   -9.00394000
H   12.11335000   5.89146000   -8.99474000
H   10.79243000   5.12063000   -6.30395000
H   10.84775000   3.67892000   -9.05006000
H   12.06065000   2.87010000   -6.32388000
C   14.60944000   2.92587000   -7.39359000
H   14.59176000   2.85504000   -6.28263000
C   9.54863000   5.87714000   -7.92865000
C   9.55762000   2.94026000   -7.48249000
C   8.28847000   5.11906000   -7.46782000
C   8.30626000   3.67352000   -7.97703000
H   9.56185000   5.88914000   -9.04290000
H   8.22014000   5.11892000   -6.35771000
H   8.27951000   3.66596000   -9.08791000
H   9.52579000   2.87025000   -6.37273000
C   -10.71333000   -5.92690000   7.64090000
C   -8.17482000   -5.93982000   7.69504000
C   -9.43022000   -5.19173000   7.18474000
H   -8.19783000   -5.96086000   8.81007000
H   -8.12246000   -2.97832000   6.13998000
C   -8.14962000   -2.99993000   7.25495000
C   -9.43478000   -3.73497000   7.70660000
H   -9.40547000   -5.17227000   6.06970000
C   -10.68712000   -2.98651000   7.19029000
C   -11.97425000   -3.71856000   7.64266000
C   -11.96934000   -5.18169000   7.12664000
H   -11.94199000   -5.16590000   6.01159000
H   -10.73840000   -5.94452000   8.75587000
H   -9.46227000   -3.75447000   8.82153000
H   -10.65852000   -2.96853000   6.07538000
H   -12.00140000   -3.73444000   8.75769000
C   -10.68919000   -1.52940000   7.71155000
C   -8.15295000   -1.54416000   7.78035000
C   -9.40184000   -0.79472000   7.26300000
C   -11.93595000   -0.77895000   7.19028000
H   -10.72095000   -1.54759000   8.82639000
H   -8.18264000   -1.56563000   8.89522000
H   -11.90194000   -0.76228000   6.07518000
H   -9.37051000   -0.77515000   6.14794000
C   -13.23147000   -1.50623000   7.63632000
C   -13.23028000   -2.96893000   7.12636000
C   -13.25689000   -5.91796000   7.58071000
C   -14.45943000   -0.73497000   7.11445000
C   -14.49942000   -3.71526000   7.57891000
C   -14.49435000   -5.15859000   7.06624000
H   -14.47293000   -0.73387000   6.00229000
H   -13.27314000   -1.51852000   8.74983000
H   -13.21022000   -2.95651000   6.01224000
H   -14.57524000   -3.71670000   8.68849000
H   -14.51542000   -5.15672000   5.95429000
H   -13.29166000   -5.93005000   8.69441000
C   -14.45173000   0.71018000   7.62501000
C   -13.16991000   1.43047000   7.19347000
C   -11.93179000   0.68201000   7.70905000
C   -10.64780000   1.40669000   7.26996000
C   -9.40433000   0.66373000   7.78516000
C   -8.12063000   1.39251000   7.34796000
H   -14.53319000   0.71770000   8.73321000
H   -11.96587000   0.67774000   8.82200000
H   -9.43776000   0.65686000   8.89803000
H   -13.14632000   1.50122000   6.08356000
H   -10.61361000   1.47548000   6.15914000
H   -8.08742000   1.46518000   6.23742000
C   -8.16980000   5.86211000   7.17047000
C   -9.44881000   5.12614000   7.63011000
C   -10.70565000   5.87374000   7.12037000
H   -8.14922000   5.88298000   6.05534000
C   -9.44200000   3.66718000   7.10931000
H   -9.46989000   5.10750000   8.74535000
C   -10.71624000   2.93781000   7.56491000
C   -11.96970000   3.67532000   7.06326000
C   -11.98396000   5.13671000   7.58061000
H   -9.42303000   3.67310000   5.99606000
H   -10.68365000   5.89146000   6.00526000
H   -12.00457000   5.12063000   8.69605000
H   -11.94925000   3.67892000   5.94994000
H   -10.73635000   2.87010000   8.67612000
C   -8.18756000   2.92587000   7.60641000
H   -8.20524000   2.85504000   8.71737000
C   -13.24837000   5.87714000   7.07135000
C   -13.23938000   2.94026000   7.51751000
C   -14.50853000   5.11906000   7.53218000
C   -14.49074000   3.67352000   7.02297000
H   -13.23515000   5.88914000   5.95710000
H   -14.57686000   5.11892000   8.64229000
H   -14.51749000   3.66596000   5.91209000
H   -13.27121000   2.87025000   8.62727000
C   -3.11433000   -5.92690000   7.64090000
C   -0.57582000   -5.93982000   7.69504000
C   -1.83122000   -5.19173000   7.18474000
H   -0.59883000   -5.96086000   8.81007000
H   -0.52346000   -2.97832000   6.13998000
C   -0.55062000   -2.99993000   7.25495000
C   -1.83578000   -3.73497000   7.70660000
H   -1.80647000   -5.17227000   6.06970000
C   -3.08812000   -2.98651000   7.19029000
C   -4.37525000   -3.71856000   7.64266000
C   -4.37034000   -5.18169000   7.12664000
H   -4.34299000   -5.16590000   6.01159000
H   -3.13940000   -5.94452000   8.75587000
H   -1.86327000   -3.75447000   8.82153000
H   -3.05952000   -2.96853000   6.07538000
H   -4.40240000   -3.73444000   8.75769000
C   -3.09019000   -1.52940000   7.71155000
C   -0.55395000   -1.54416000   7.78035000
C   -1.80284000   -0.79472000   7.26300000
C   -4.33695000   -0.77895000   7.19028000
H   -3.12195000   -1.54759000   8.82639000
H   -0.58364000   -1.56563000   8.89522000
H   -1.77151000   -0.77515000   6.14794000
C   -5.63247000   -1.50623000   7.63632000
C   -5.63128000   -2.96893000   7.12636000
C   -5.65789000   -5.91796000   7.58071000
C   -6.86043000   -0.73497000   7.11445000
C   -6.90042000   -3.71526000   7.57891000
C   -6.89535000   -5.15859000   7.06624000
H   -6.87393000   -0.73387000   6.00229000
H   -5.67414000   -1.51852000   8.74983000
H   -5.61122000   -2.95651000   6.01224000
H   -6.97624000   -3.71670000   8.68849000
H   -6.91642000   -5.15672000   5.95429000
H   -5.69266000   -5.93005000   8.69441000
C   -6.85273000   0.71018000   7.62501000
C   -5.57091000   1.43047000   7.19347000
C   -4.33279000   0.68201000   7.70905000
C   -3.04880000   1.40669000   7.26996000
C   -1.80533000   0.66373000   7.78516000
C   -0.52163000   1.39251000   7.34796000
H   -6.93419000   0.71770000   8.73321000
H   -4.36687000   0.67774000   8.82200000
H   -1.83876000   0.65686000   8.89803000
H   -5.54732000   1.50122000   6.08356000
H   -3.01461000   1.47548000   6.15914000
H   -0.48842000   1.46518000   6.23742000
C   -0.57080000   5.86211000   7.17047000
C   -1.84981000   5.12614000   7.63011000
C   -3.10665000   5.87374000   7.12037000
H   -0.55022000   5.88298000   6.05534000
C   -1.84300000   3.66718000   7.10931000
H   -1.87089000   5.10750000   8.74535000
C   -3.11724000   2.93781000   7.56491000
C   -4.37070000   3.67532000   7.06326000
C   -4.38496000   5.13671000   7.58061000
H   -1.82403000   3.67310000   5.99606000
H   -3.08465000   5.89146000   6.00526000
H   -4.40557000   5.12063000   8.69605000
H   -4.35025000   3.67892000   5.94994000
H   -3.13735000   2.87010000   8.67612000
C   -0.58856000   2.92587000   7.60641000
H   -0.60624000   2.85504000   8.71737000
C   -5.64937000   5.87714000   7.07135000
C   -5.64038000   2.94026000   7.51751000
C   -6.90953000   5.11906000   7.53218000
C   -6.89174000   3.67352000   7.02297000
H   -5.63615000   5.88914000   5.95710000
H   -6.97786000   5.11892000   8.64229000
H   -6.91849000   3.66596000   5.91209000
H   -5.67221000   2.87025000   8.62727000
C   4.48467000   -5.92690000   7.64090000
C   7.02318000   -5.93982000   7.69504000
C   5.76778000   -5.19173000   7.18474000
H   7.00017000   -5.96086000   8.81007000
H   7.07554000   -2.97832000   6.13998000
C   7.04838000   -2.99993000   7.25495000
C   5.76322000   -3.73497000   7.70660000
H   5.79253000   -5.17227000   6.06970000
C   4.51088000   -2.98651000   7.19029000
C   3.22375000   -3.71856000   7.64266000
C   3.22866000   -5.18169000   7.12664000
H   3.25601000   -5.16590000   6.01159000
H   4.45960000   -5.94452000   8.75587000
H   5.73573000   -3.75447000   8.82153000
H   4.53948000   -2.96853000   6.07538000
H   3.19660000   -3.73444000   8.75769000
C   4.50881000   -1.52940000   7.71155000
C   7.04505000   -1.54416000   7.78035000
C   5.79616000   -0.79472000   7.26300000
C   3.26205000   -0.77895000   7.19028000
H   4.47705000   -1.54759000   8.82639000
H   7.01536000   -1.56563000   8.89522000
H   3.29606000   -0.76228000   6.07518000
C   1.96653000   -1.50623000   7.63632000
C   1.96772000   -2.96893000   7.12636000
C   1.94111000   -5.91796000   7.58071000
C   0.73857000   -0.73497000   7.11445000
C   0.69858000   -3.71526000   7.57891000
C   0.70365000   -5.15859000   7.06624000
H   0.72507000   -0.73387000   6.00229000
H   1.92486000   -1.51852000   8.74983000
H   1.98778000   -2.95651000   6.01224000
H   0.62276000   -3.71670000   8.68849000
H   0.68258000   -5.15672000   5.95429000
H   1.90634000   -5.93005000   8.69441000
C   0.74627000   0.71018000   7.62501000
C   2.02809000   1.43047000   7.19347000
C   3.26621000   0.68201000   7.70905000
C   4.55020000   1.40669000   7.26996000
C   5.79367000   0.66373000   7.78516000
C   7.07737000   1.39251000   7.34796000
H   0.66481000   0.71770000   8.73321000
H   3.23213000   0.67774000   8.82200000
H   5.76024000   0.65686000   8.89803000
H   2.05168000   1.50122000   6.08356000
H   4.58439000   1.47548000   6.15914000
H   7.11058000   1.46518000   6.23742000
C   7.02820000   5.86211000   7.17047000
C   5.74919000   5.12614000   7.63011000
C   4.49235000   5.87374000   7.12037000
H   7.04878000   5.88298000   6.05534000
C   5.75600000   3.66718000   7.10931000
H   5.72811000   5.10750000   8.74535000
C   4.48176000   2.93781000   7.56491000
C   3.22830000   3.67532000   7.06326000
C   3.21404000   5.13671000   7.58061000
H   5.77497000   3.67310000   5.99606000
H   4.51435000   5.89146000   6.00526000
H   3.19343000   5.12063000   8.69605000
H   3.24875000   3.67892000   5.94994000
H   4.46165000   2.87010000   8.67612000
C   7.01044000   2.92587000   7.60641000
H   6.99276000   2.85504000   8.71737000
C   1.94963000   5.87714000   7.07135000
C   1.95862000   2.94026000   7.51751000
C   0.68947000   5.11906000   7.53218000
C   0.70726000   3.67352000   7.02297000
H   1.96285000   5.88914000   5.95710000
H   0.62114000   5.11892000   8.64229000
H   0.68051000   3.66596000   5.91209000
H   1.92679000   2.87025000   8.62727000
C   12.08367000   -5.92690000   7.64090000
C   14.62218000   -5.93982000   7.69504000
C   13.36678000   -5.19173000   7.18474000
H   14.59917000   -5.96086000   8.81007000
H   14.67454000   -2.97832000   6.13998000
C   14.64738000   -2.99993000   7.25495000
C   13.36222000   -3.73497000   7.70660000
H   13.39153000   -5.17227000   6.06970000
C   12.10988000   -2.98651000   7.19029000
C   10.82275000   -3.71856000   7.64266000
C   10.82766000   -5.18169000   7.12664000
H   10.85501000   -5.16590000   6.01159000
H   12.05860000   -5.94452000   8.75587000
H   13.33473000   -3.75447000   8.82153000
H   12.13848000   -2.96853000   6.07538000
H   10.79560000   -3.73444000   8.75769000
C   12.10781000   -1.52940000   7.71155000
C   14.64405000   -1.54416000   7.78035000
C   13.39516000   -0.79472000   7.26300000
C   10.86105000   -0.77895000   7.19028000
H   12.07605000   -1.54759000   8.82639000
H   14.61436000   -1.56563000   8.89522000
H   10.89506000   -0.76228000   6.07518000
H   13.42649000   -0.77515000   6.14794000
C   9.56553000   -1.50623000   7.63632000
C   9.56672000   -2.96893000   7.12636000
C   9.54011000   -5.91796000   7.58071000
C   8.33757000   -0.73497000   7.11445000
C   8.29758000   -3.71526000   7.57891000
C   8.30265000   -5.15859000   7.06624000
H   8.32407000   -0.73387000   6.00229000
H   9.52386000   -1.51852000   8.74983000
H   9.58678000   -2.95651000   6.01224000
H   8.22176000   -3.71670000   8.68849000
H   8.28158000   -5.15672000   5.95429000
H   9.50534000   -5.93005000   8.69441000
C   8.34527000   0.71018000   7.62501000
C   9.62709000   1.43047000   7.19347000
C   10.86521000   0.68201000   7.70905000
C   12.14920000   1.40669000   7.26996000
C   13.39267000   0.66373000   7.78516000
C   14.67637000   1.39251000   7.34796000
H   8.26381000   0.71770000   8.73321000
H   10.83113000   0.67774000   8.82200000
H   13.35924000   0.65686000   8.89803000
H   9.65068000   1.50122000   6.08356000
H   12.18339000   1.47548000   6.15914000
H   14.70958000   1.46518000   6.23742000
C   14.62720000   5.86211000   7.17047000
C   13.34819000   5.12614000   7.63011000
C   12.09135000   5.87374000   7.12037000
H   14.64778000   5.88298000   6.05534000
C   13.35500000   3.66718000   7.10931000
H   13.32711000   5.10750000   8.74535000
C   12.08076000   2.93781000   7.56491000
C   10.82730000   3.67532000   7.06326000
C   10.81304000   5.13671000   7.58061000
H   13.37397000   3.67310000   5.99606000
H   12.11335000   5.89146000   6.00526000
H   10.79243000   5.12063000   8.69605000
H   10.84775000   3.67892000   5.94994000
H   12.06065000   2.87010000   8.67612000
C   14.60944000   2.92587000   7.60641000
H   14.59176000   2.85504000   8.71737000
C   9.54863000   5.87714000   7.07135000
C   9.55762000   2.94026000   7.51751000
C   8.28847000   5.11906000   7.53218000
C   8.30626000   3.67352000   7.02297000
H   9.56185000   5.88914000   5.95710000
H   8.22014000   5.11892000   8.64229000
H   8.27951000   3.66596000   5.91209000
H   9.52579000   2.87025000   8.62727000
N   -4.83858020   0.09142897   3.05992286
C   -4.14114817   0.41065981   4.47628008
H   -3.08690859   0.56995741   4.11359122
H   -4.50039536   1.45658603   4.68189294
C   -4.28893049   -0.79048422   5.51542260
H   -5.06045795   -1.38821599   5.11441557
H   -3.31144770   -1.29144984   5.31556193
C   -4.00154467   -1.11339335   2.32470007
H   -4.40822204   -0.96162335   1.29869294
H   -2.98124835   -1.01306455   2.47241028
H   -4.29629884   -2.04399281   2.82108754
C   -4.80159457   1.30469176   2.18071960
H   -3.79719936   1.63876225   1.95600441
H   -5.36163707   1.01406216   1.28572688
H   -5.34204986   2.15426479   2.67622916
C   -6.27476966   -0.34126135   3.19985929
H   -6.85047777   -0.29542682   2.23711901
H   -6.40055396   -1.36724407   3.54862125
H   -6.79405540   0.31474602   3.96889831
N   5.27376905   -0.07990737   3.16326158
C   6.07100733   0.22492164   4.48038593
H   7.15037204   0.28294734   4.46169844
H   5.82968310   1.28889488   4.72618553
C   5.77848686   -0.89169612   5.55923378
H   4.79269578   -1.27164715   5.34576532
H   6.36917275   -1.73227456   5.16641515
C   5.66437311   1.01756526   2.07164244
H   5.33925009   2.01787100   2.44781626
H   6.74671229   1.03651374   1.90716021
H   5.13232954   0.75467563   1.19116455
C   3.78582482   0.15326333   3.41650710
H   3.54312253   1.04152103   3.85236290
H   3.27886094   0.02342170   2.49731234
H   3.34854025   -0.71485277   3.98376575
C   5.42136615   -1.40947515   2.52434871
H   6.52957130   -1.59700000   2.22604442
H   5.04867838   -2.05049579   3.31006062
H   4.82274445   -1.42131018   1.61619566
O   -10.57844994   5.36829500   -0.38615640
H   -10.69718507   5.37510914   0.52841800
H   -9.66387942   5.63314744   -0.47214272
O   3.15910543   0.17120652   0.11702722
H   3.18140113   0.91534263   -0.59204041
H   3.09230015   -0.63798615   -0.43149886
O   8.60616053   -0.80765055   2.51034842
H   9.41103802   -1.12382957   2.04446809
H   8.93502011   -0.04356235   3.01641556
O   -7.74198213   0.15968648   -1.79634279
H   -8.61919067   0.00726550   -1.50043724
H   -7.79002057   0.67044272   -2.59846075
O   2.80578478   3.06533678   -0.69777240
H   6.82911014   -0.39675907   -1.19887901
H   2.19480735   3.32600904   -0.01213728
O   -4.87501557   -0.38536755   -0.79028646
H   -5.82603876   -0.15379399   -0.95872684
H   -4.67207659   -1.30159139   -1.21731739
O   -15.15470888   2.00541729   -1.75582871
H   8.22934858   2.75063040   2.35178922
H   14.43510519   1.52586939   -1.53015410
O   4.64069795   -5.33933432   0.41391227
H   2.78309243   3.69253821   -1.45914492
H   5.07405276   -6.09726975   0.84013010
O   11.38195799   0.29454404   -3.31783410
H   11.82061884   -0.30065898   -3.99121894
H   10.86553325   -0.23459978   -2.66152057
O   8.14132868   -3.86426164   2.76703631
H   8.71359842   -3.13483032   3.01953840
H   7.72838298   -3.62570597   1.96625497
O   -8.89395015   6.57474808   1.57057937
H   -8.18775141   6.19329264   0.90691577
H   -9.16191550   5.77345683   2.03831812
O   2.13287882   -2.39145968   -3.57201882
H   1.87757606   -2.31873217   -4.51675207
H   2.41421963   -3.34279770   -3.41269013
O   10.44612865   -4.84250278   0.17958707
H   11.21155043   -5.14778191   0.69120625
H   9.98155026   -4.22615911   0.77168074
O   -7.37403459   -4.66011389   3.30561921
H   -6.74344200   -5.36008724   3.06660148
H   -8.24006774   -5.09720125   3.30015024
O   -8.76837168   1.12144796   0.75897013
H   -8.11049913   1.68895262   1.21833657
H   -8.51720301   1.40779064   -0.12474383
O   -7.87670053   2.38468922   -3.78991603
H   -8.20329260   2.81579706   -2.93959384
H   -7.15054638   3.01734364   -4.04308816
O   12.80266249   -1.98974769   -1.32599827
H   11.93693424   -2.12732954   -0.89197740
H   12.96159605   -2.70711372   -1.92987002
O   -12.18943670   -2.91972050   -2.79761249
H   -11.97047049   -2.04787793   -2.86176244
H   -11.95610903   -3.28745100   -3.63181245
O   4.93157913   -1.24904911   -3.63221737
H   4.19777780   -1.81886048   -3.58523107
H   5.50571748   -1.45033325   -2.87546605
O   7.61413744   3.83264399   1.00001696
H   8.23858835   4.57757495   0.97837181
H   6.74612854   4.19909679   0.63096620
O   -9.23602015   0.76369901   3.55495845
H   -9.22640391   1.43253497   4.19762477
H   -9.40210956   -0.01114387   4.02281137
O   -9.37943647   -1.70060950   0.02246056
H   -10.20854624   -2.11925771   -0.16348022
H   -9.67137577   -0.94917897   0.55416983
O   7.19605957   1.65953486   -1.03230762
H   7.41515342   2.56711276   -0.86654967
H   6.31890907   1.68467344   -1.38287931
O   1.86015728   -2.12473803   4.05524294
H   1.83498370   -1.75162770   3.13599669
H   1.89423702   -3.05427282   3.80940063
O   -6.00179321   6.01066474   2.79364226
H   -6.57389840   5.48517254   3.43870221
H   -6.41187947   5.84164161   1.85053034
O   6.79352393   -3.49441071   0.37878711
H   6.04885726   -4.10899128   0.37529708
H   6.51461803   -2.83445864   -0.29237842
O   -3.75676375   -5.39018552   -3.16231874
H   -2.83073597   -5.55342901   -3.40866237
H   -4.07245436   -6.24915989   -2.92665284
O   11.49302572   5.50427201   -3.92164584
H   10.60035528   5.50220701   -3.63783235
H   -1.48629911   2.48521520   0.48604609
O   -6.70337526   -3.16197022   0.38492578
H   -7.63133760   -2.96974875   0.20886296
H   -6.70272617   -3.51891948   1.26480769
O   3.18644823   -4.92084796   -2.67193053
H   3.28181096   -5.60866993   -3.30985167
H   3.69104720   -5.14665166   -1.88218991
O   5.05590230   4.58779044   0.06858913
H   4.83722600   5.30867639   -0.55987219
H   4.25494815   4.05878396   0.16245144
O   12.72632093   -4.76692286   -2.28415532
H   -6.34891590   6.08871981   -0.40777087
H   13.30680192   -4.35503852   -2.91947867
O   8.97641616   2.27782272   2.73412189
H   -1.94805804   -2.47987854   0.76263270
H   9.45618166   1.92266655   1.92085313
O   -9.73467460   3.78478150   2.64565394
H   -10.05663445   3.29120114   1.88599632
H   -10.27062140   3.41007614   3.36723747
O   -3.96161198   -4.31032026   2.81406194
H   -4.69175564   -4.94527993   2.92139799
H   -3.51738820   -4.49558143   1.99743122
O   13.62262114   -0.28376909   1.22807182
H   14.39974773   -0.58787803   1.77220243
H   14.05624517   -0.26017337   0.35912321
O   -5.31572718   3.53487797   0.47539558
H   -4.39457536   3.83763971   0.28351884
H   -5.94595363   4.35181989   0.39208697
O   11.40968950   4.31015645   0.73642018
H   12.07761186   3.78639708   0.24408348
H   10.51052509   4.04734956   0.45782849
O   -0.96385459   -0.85140390   4.01118964
H   -0.38479446   -0.38371389   3.45108476
H   -0.49385136   -1.70682361   4.15900619
O   -0.53474444   -3.49409701   -2.34744111
H   -0.55140009   -3.18546511   -1.43070275
H   0.31112723   -3.23346571   -2.69126345
O   -7.82127756   3.20530831   -1.14195111
H   -7.16609845   2.62628902   -0.78211832
H   -7.55996698   4.07558917   -0.80055484
O   0.77865447   3.28172946   1.39444521
H   0.95508416   2.80770780   2.20012629
H   0.00617674   3.78999692   1.69682624
O   1.24423740   -3.31473241   -0.45978378
H   1.66524858   -4.06192176   -0.95076668
H   2.07194307   -2.74969455   -0.53909512
O   -6.77802221   -1.98250144   -3.34002632
H   -6.05249733   -1.89518604   -2.65545413
H   -7.33665980   -1.22430802   -3.04791754
O   6.71738199   -6.21138830   -1.22028230
H   5.99824236   -5.79657916   -0.73141927
H   6.31704481   6.41310904   -1.55422016
O   13.06132364   -4.14301475   1.42654428
H   13.15522612   -4.39495685   0.50872767
H   13.25222554   -4.96334018   1.92496279
O   4.58885824   1.81785365   -2.40166680
H   4.39293903   1.26801195   -3.23859514
H   3.85324034   1.80101991   -1.76579831
O   2.56051224   -4.50114333   1.81073242
H   3.45950613   -4.79837150   1.43941003
H   2.09637954   -4.34516712   0.99146253
O   -9.11474358   -2.14010633   3.50819285
H   -9.56409635   -2.95948259   3.48731340
H   -8.94410526   -1.88779755   2.63402606
O   11.20069519   -2.17377430   1.64260779
H   11.62044854   -3.06000609   1.56543942
H   11.85021644   -1.68739730   1.24341765
O   -10.35575245   -4.82768505   2.63135880
H   -9.71232800   -5.50942441   2.29322637
H   -11.08833083   -4.82843747   1.97712231
O   5.39111037   5.35532920   2.83248009
H   4.79354100   5.34889308   2.08932047
H   6.24316571   5.14123775   2.51903476
O   -12.13827617   5.31437405   3.28300031
H   -12.03448128   5.31874355   2.29012215
H   -12.14866991   6.20987903   3.57692218
O   9.31708675   -4.93661494   -2.75771107
H   8.39967209   -4.78334520   -2.55438732
H   9.64410257   -5.50468402   -2.05671129
O   -6.98308050   5.50040444   0.08604161
H   15.07723924   2.84028354   -2.24776016
H   11.83955259   -4.76218094   -2.60155490
O   1.11378225   2.44382452   4.00183383
H   0.70483406   1.52590939   3.98652983
H   0.44465866   3.15705298   3.82335698
O   -3.41512988   -3.22628834   -0.62939448
H   -4.14608484   -3.64819081   -0.18313284
H   -3.26069813   -3.73699018   -1.44999429
O   7.97100784   6.64998663   1.01652023
H   8.50064515   -6.03852777   1.34725001
H   7.25964367   -6.34438449   0.48253710
O   -11.32832391   1.07514841   -4.04837509
H   -11.73861202   0.93757084   -3.19659365
H   -10.66516117   1.78612335   -3.98356840
O   -12.57676365   1.22636646   -1.42039833
H   -13.51019496   1.31700138   -1.72277252
H   -12.30713882   2.11035363   -1.09903378
O   -1.00917275   -2.22902929   1.08742736
H   -0.40426543   -2.69239417   0.53684386
H   11.79198981   6.39468003   -3.59237464
O   -12.02384997   -5.36984906   0.38143043
H   -11.26522976   -5.61150020   -0.16703301
H   -12.91379359   -5.44832664   -0.01246281
O   -1.90359810   1.64935011   0.59286336
H   -13.46388538   1.06184578   1.20920565
H   -1.94482061   1.34117672   -0.34768003
O   1.12581178   6.60094598   1.93735102
H   1.66063394   6.25170070   2.68042276
H   1.18497736   -5.81501353   2.00583435
O   4.20189396   -2.60256414   -0.49538660
H   4.23191824   -3.49475481   -0.12096702
H   4.52224523   -2.70129491   -1.41915210
O   12.37441412   1.73430387   -1.19738275
H   12.19426237   0.78239981   -1.08663748
H   12.05035344   1.94871230   -2.05536895
O   0.51888501   -0.00293050   1.47757936
H   -0.13571826   0.52605672   1.01661383
H   0.20549531   -0.91870878   1.38804078
O   -4.27599056   3.91201972   3.04330146
H   -4.16690535   4.78139635   3.51504612
H   -4.80886626   4.18014083   2.25752206
O   9.57558480   -2.50259455   -1.33542511
H   9.62007962   -3.40214014   -1.70236128
H   8.98652174   -2.45788783   -0.55184635
O   -5.52998519   4.22902001   -2.58062172
H   -6.24485239   4.51355858   -2.00807200
H   -5.04895497   3.70956636   -1.91615808
O   2.94795380   6.12860605   -0.28916839
H   3.53980974   -6.59498551   0.06168239
H   2.15335539   6.26381599   0.17540481
O   6.20152140   5.23565781   -3.25703410
H   5.95479772   4.34401748   -3.54813239
H   7.12481043   5.34085840   -3.46337334
O   9.86488780   6.22876525   -1.42095913
H   9.18477539   6.10064953   -0.74406146
H   10.73230205   6.20486461   -1.03561977
O   -1.65550658   6.00585507   1.07202190
H   -1.15618283   -6.58056207   1.25617597
H   -1.20007009   5.39615992   1.60501433
O   -1.41949045   3.72795145   3.30455997
H   -2.10901760   3.11289219   3.66106240
H   -1.94757628   4.53788066   3.12785041
O   4.49612262   -4.34571978   4.04458814
H   3.79488978   -4.70340357   3.46226765
H   5.38485110   -4.56773893   3.67183643
O   6.66050392   -1.28558705   -1.49091216
H   7.54142076   -1.55175046   -1.79484957
O   -12.99706248   0.33724207   1.62907909
H   -12.13882103   0.73129945   1.31740482
