844

C   -10.71333000   -5.92690000   -7.35910000
C   -8.17482000   -5.93982000   -7.30496000
C   -9.43022000   -5.19173000   -7.81526000
H   -8.19783000   -5.96086000   -6.18993000
H   -8.12246000   -2.97832000   -8.86002000
C   -8.14962000   -2.99993000   -7.74505000
C   -9.43478000   -3.73497000   -7.29340000
H   -9.40547000   -5.17227000   -8.93030000
C   -10.68712000   -2.98651000   -7.80971000
C   -11.97425000   -3.71856000   -7.35734000
C   -11.96934000   -5.18169000   -7.87336000
H   -11.94199000   -5.16590000   -8.98841000
H   -10.73840000   -5.94452000   -6.24413000
H   -9.46227000   -3.75447000   -6.17847000
H   -10.65852000   -2.96853000   -8.92462000
H   -12.00140000   -3.73444000   -6.24231000
C   -10.68919000   -1.52940000   -7.28845000
C   -8.15295000   -1.54416000   -7.21965000
C   -9.40184000   -0.79472000   -7.73700000
C   -11.93595000   -0.77895000   -7.80972000
H   -10.72095000   -1.54759000   -6.17361000
H   -8.18264000   -1.56563000   -6.10478000
H   -11.90194000   -0.76228000   -8.92482000
H   -9.37051000   -0.77515000   -8.85206000
C   -13.23147000   -1.50623000   -7.36368000
C   -13.23028000   -2.96893000   -7.87364000
C   -13.25689000   -5.91796000   -7.41929000
C   -14.45943000   -0.73497000   -7.88555000
C   -14.49942000   -3.71526000   -7.42109000
C   -14.49435000   -5.15859000   -7.93376000
H   -14.47293000   -0.73387000   -8.99771000
H   -13.27314000   -1.51852000   -6.25017000
H   -13.21022000   -2.95651000   -8.98776000
H   -14.57524000   -3.71670000   -6.31151000
H   -14.51542000   -5.15672000   -9.04571000
H   -13.29166000   -5.93005000   -6.30559000
C   -14.45173000   0.71018000   -7.37499000
C   -13.16991000   1.43047000   -7.80653000
C   -11.93179000   0.68201000   -7.29095000
C   -10.64780000   1.40669000   -7.73004000
C   -9.40433000   0.66373000   -7.21484000
C   -8.12063000   1.39251000   -7.65204000
H   -14.53319000   0.71770000   -6.26679000
H   -11.96587000   0.67774000   -6.17800000
H   -9.43776000   0.65686000   -6.10197000
H   -13.14632000   1.50122000   -8.91644000
H   -10.61361000   1.47548000   -8.84086000
H   -8.08742000   1.46518000   -8.76258000
C   -8.16980000   5.86211000   -7.82953000
C   -9.44881000   5.12614000   -7.36989000
C   -10.70565000   5.87374000   -7.87963000
H   -8.14922000   5.88298000   -8.94466000
C   -9.44200000   3.66718000   -7.89069000
H   -9.46989000   5.10750000   -6.25465000
C   -10.71624000   2.93781000   -7.43509000
C   -11.96970000   3.67532000   -7.93674000
C   -11.98396000   5.13671000   -7.41939000
H   -9.42303000   3.67310000   -9.00394000
H   -10.68365000   5.89146000   -8.99474000
H   -12.00457000   5.12063000   -6.30395000
H   -11.94925000   3.67892000   -9.05006000
H   -10.73635000   2.87010000   -6.32388000
C   -8.18756000   2.92587000   -7.39359000
H   -8.20524000   2.85504000   -6.28263000
C   -13.24837000   5.87714000   -7.92865000
C   -13.23938000   2.94026000   -7.48249000
C   -14.50853000   5.11906000   -7.46782000
C   -14.49074000   3.67352000   -7.97703000
H   -13.23515000   5.88914000   -9.04290000
H   -14.57686000   5.11892000   -6.35771000
H   -14.51749000   3.66596000   -9.08791000
H   -13.27121000   2.87025000   -6.37273000
C   -3.11433000   -5.92690000   -7.35910000
C   -0.57582000   -5.93982000   -7.30496000
C   -1.83122000   -5.19173000   -7.81526000
H   -0.59883000   -5.96086000   -6.18993000
H   -0.52346000   -2.97832000   -8.86002000
C   -0.55062000   -2.99993000   -7.74505000
C   -1.83578000   -3.73497000   -7.29340000
H   -1.80647000   -5.17227000   -8.93030000
C   -3.08812000   -2.98651000   -7.80971000
C   -4.37525000   -3.71856000   -7.35734000
C   -4.37034000   -5.18169000   -7.87336000
H   -4.34299000   -5.16590000   -8.98841000
H   -3.13940000   -5.94452000   -6.24413000
H   -1.86327000   -3.75447000   -6.17847000
H   -3.05952000   -2.96853000   -8.92462000
H   -4.40240000   -3.73444000   -6.24231000
C   -3.09019000   -1.52940000   -7.28845000
C   -0.55395000   -1.54416000   -7.21965000
C   -1.80284000   -0.79472000   -7.73700000
C   -4.33695000   -0.77895000   -7.80972000
H   -3.12195000   -1.54759000   -6.17361000
H   -0.58364000   -1.56563000   -6.10478000
H   -4.30294000   -0.76228000   -8.92482000
H   -1.77151000   -0.77515000   -8.85206000
C   -5.63247000   -1.50623000   -7.36368000
C   -5.63128000   -2.96893000   -7.87364000
C   -5.65789000   -5.91796000   -7.41929000
C   -6.86043000   -0.73497000   -7.88555000
C   -6.90042000   -3.71526000   -7.42109000
C   -6.89535000   -5.15859000   -7.93376000
H   -6.87393000   -0.73387000   -8.99771000
H   -5.67414000   -1.51852000   -6.25017000
H   -5.61122000   -2.95651000   -8.98776000
H   -6.97624000   -3.71670000   -6.31151000
H   -6.91642000   -5.15672000   -9.04571000
H   -5.69266000   -5.93005000   -6.30559000
C   -6.85273000   0.71018000   -7.37499000
C   -5.57091000   1.43047000   -7.80653000
C   -4.33279000   0.68201000   -7.29095000
C   -3.04880000   1.40669000   -7.73004000
C   -1.80533000   0.66373000   -7.21484000
C   -0.52163000   1.39251000   -7.65204000
H   -6.93419000   0.71770000   -6.26679000
H   -4.36687000   0.67774000   -6.17800000
H   -1.83876000   0.65686000   -6.10197000
H   -5.54732000   1.50122000   -8.91644000
H   -3.01461000   1.47548000   -8.84086000
H   -0.48842000   1.46518000   -8.76258000
C   -0.57080000   5.86211000   -7.82953000
C   -1.84981000   5.12614000   -7.36989000
C   -3.10665000   5.87374000   -7.87963000
H   -0.55022000   5.88298000   -8.94466000
C   -1.84300000   3.66718000   -7.89069000
H   -1.87089000   5.10750000   -6.25465000
C   -3.11724000   2.93781000   -7.43509000
C   -4.37070000   3.67532000   -7.93674000
C   -4.38496000   5.13671000   -7.41939000
H   -1.82403000   3.67310000   -9.00394000
H   -3.08465000   5.89146000   -8.99474000
H   -4.40557000   5.12063000   -6.30395000
H   -4.35025000   3.67892000   -9.05006000
H   -3.13735000   2.87010000   -6.32388000
C   -0.58856000   2.92587000   -7.39359000
H   -0.60624000   2.85504000   -6.28263000
C   -5.64937000   5.87714000   -7.92865000
C   -5.64038000   2.94026000   -7.48249000
C   -6.90953000   5.11906000   -7.46782000
C   -6.89174000   3.67352000   -7.97703000
H   -5.63615000   5.88914000   -9.04290000
H   -6.97786000   5.11892000   -6.35771000
H   -6.91849000   3.66596000   -9.08791000
H   -5.67221000   2.87025000   -6.37273000
C   4.48467000   -5.92690000   -7.35910000
C   7.02318000   -5.93982000   -7.30496000
C   5.76778000   -5.19173000   -7.81526000
H   7.00017000   -5.96086000   -6.18993000
H   7.07554000   -2.97832000   -8.86002000
C   7.04838000   -2.99993000   -7.74505000
C   5.76322000   -3.73497000   -7.29340000
H   5.79253000   -5.17227000   -8.93030000
C   4.51088000   -2.98651000   -7.80971000
C   3.22375000   -3.71856000   -7.35734000
C   3.22866000   -5.18169000   -7.87336000
H   3.25601000   -5.16590000   -8.98841000
H   4.45960000   -5.94452000   -6.24413000
H   5.73573000   -3.75447000   -6.17847000
H   4.53948000   -2.96853000   -8.92462000
H   3.19660000   -3.73444000   -6.24231000
C   4.50881000   -1.52940000   -7.28845000
C   7.04505000   -1.54416000   -7.21965000
C   5.79616000   -0.79472000   -7.73700000
C   3.26205000   -0.77895000   -7.80972000
H   4.47705000   -1.54759000   -6.17361000
H   7.01536000   -1.56563000   -6.10478000
H   3.29606000   -0.76228000   -8.92482000
H   5.82749000   -0.77515000   -8.85206000
C   1.96653000   -1.50623000   -7.36368000
C   1.96772000   -2.96893000   -7.87364000
C   1.94111000   -5.91796000   -7.41929000
C   0.73857000   -0.73497000   -7.88555000
C   0.69858000   -3.71526000   -7.42109000
C   0.70365000   -5.15859000   -7.93376000
H   0.72507000   -0.73387000   -8.99771000
H   1.92486000   -1.51852000   -6.25017000
H   1.98778000   -2.95651000   -8.98776000
H   0.62276000   -3.71670000   -6.31151000
H   0.68258000   -5.15672000   -9.04571000
H   1.90634000   -5.93005000   -6.30559000
C   0.74627000   0.71018000   -7.37499000
C   2.02809000   1.43047000   -7.80653000
C   3.26621000   0.68201000   -7.29095000
C   4.55020000   1.40669000   -7.73004000
C   5.79367000   0.66373000   -7.21484000
C   7.07737000   1.39251000   -7.65204000
H   0.66481000   0.71770000   -6.26679000
H   3.23213000   0.67774000   -6.17800000
H   5.76024000   0.65686000   -6.10197000
H   2.05168000   1.50122000   -8.91644000
H   4.58439000   1.47548000   -8.84086000
H   7.11058000   1.46518000   -8.76258000
C   7.02820000   5.86211000   -7.82953000
C   5.74919000   5.12614000   -7.36989000
C   4.49235000   5.87374000   -7.87963000
H   7.04878000   5.88298000   -8.94466000
C   5.75600000   3.66718000   -7.89069000
H   5.72811000   5.10750000   -6.25465000
C   4.48176000   2.93781000   -7.43509000
C   3.22830000   3.67532000   -7.93674000
C   3.21404000   5.13671000   -7.41939000
H   5.77497000   3.67310000   -9.00394000
H   4.51435000   5.89146000   -8.99474000
H   3.19343000   5.12063000   -6.30395000
H   3.24875000   3.67892000   -9.05006000
H   4.46165000   2.87010000   -6.32388000
C   7.01044000   2.92587000   -7.39359000
H   6.99276000   2.85504000   -6.28263000
C   1.94963000   5.87714000   -7.92865000
C   1.95862000   2.94026000   -7.48249000
C   0.68947000   5.11906000   -7.46782000
C   0.70726000   3.67352000   -7.97703000
H   1.96285000   5.88914000   -9.04290000
H   0.62114000   5.11892000   -6.35771000
H   0.68051000   3.66596000   -9.08791000
H   1.92679000   2.87025000   -6.37273000
C   12.08367000   -5.92690000   -7.35910000
C   14.62218000   -5.93982000   -7.30496000
C   13.36678000   -5.19173000   -7.81526000
H   14.59917000   -5.96086000   -6.18993000
H   14.67454000   -2.97832000   -8.86002000
C   14.64738000   -2.99993000   -7.74505000
C   13.36222000   -3.73497000   -7.29340000
H   13.39153000   -5.17227000   -8.93030000
C   12.10988000   -2.98651000   -7.80971000
C   10.82275000   -3.71856000   -7.35734000
C   10.82766000   -5.18169000   -7.87336000
H   10.85501000   -5.16590000   -8.98841000
H   12.05860000   -5.94452000   -6.24413000
H   13.33473000   -3.75447000   -6.17847000
H   12.13848000   -2.96853000   -8.92462000
H   10.79560000   -3.73444000   -6.24231000
C   12.10781000   -1.52940000   -7.28845000
C   14.64405000   -1.54416000   -7.21965000
C   13.39516000   -0.79472000   -7.73700000
C   10.86105000   -0.77895000   -7.80972000
H   12.07605000   -1.54759000   -6.17361000
H   14.61436000   -1.56563000   -6.10478000
H   10.89506000   -0.76228000   -8.92482000
H   13.42649000   -0.77515000   -8.85206000
C   9.56553000   -1.50623000   -7.36368000
C   9.56672000   -2.96893000   -7.87364000
C   9.54011000   -5.91796000   -7.41929000
C   8.33757000   -0.73497000   -7.88555000
C   8.29758000   -3.71526000   -7.42109000
C   8.30265000   -5.15859000   -7.93376000
H   8.32407000   -0.73387000   -8.99771000
H   9.52386000   -1.51852000   -6.25017000
H   9.58678000   -2.95651000   -8.98776000
H   8.22176000   -3.71670000   -6.31151000
H   8.28158000   -5.15672000   -9.04571000
H   9.50534000   -5.93005000   -6.30559000
C   8.34527000   0.71018000   -7.37499000
C   9.62709000   1.43047000   -7.80653000
C   10.86521000   0.68201000   -7.29095000
C   12.14920000   1.40669000   -7.73004000
C   13.39267000   0.66373000   -7.21484000
C   14.67637000   1.39251000   -7.65204000
H   8.26381000   0.71770000   -6.26679000
H   10.83113000   0.67774000   -6.17800000
H   13.35924000   0.65686000   -6.10197000
H   9.65068000   1.50122000   -8.91644000
H   12.18339000   1.47548000   -8.84086000
H   14.70958000   1.46518000   -8.76258000
C   14.62720000   5.86211000   -7.82953000
C   13.34819000   5.12614000   -7.36989000
C   12.09135000   5.87374000   -7.87963000
H   14.64778000   5.88298000   -8.94466000
C   13.35500000   3.66718000   -7.89069000
H   13.32711000   5.10750000   -6.25465000
C   12.08076000   2.93781000   -7.43509000
C   10.82730000   3.67532000   -7.93674000
C   10.81304000   5.13671000   -7.41939000
H   13.37397000   3.67310000   -9.00394000
H   12.11335000   5.89146000   -8.99474000
H   10.79243000   5.12063000   -6.30395000
H   10.84775000   3.67892000   -9.05006000
H   12.06065000   2.87010000   -6.32388000
C   14.60944000   2.92587000   -7.39359000
H   14.59176000   2.85504000   -6.28263000
C   9.54863000   5.87714000   -7.92865000
C   9.55762000   2.94026000   -7.48249000
C   8.28847000   5.11906000   -7.46782000
C   8.30626000   3.67352000   -7.97703000
H   9.56185000   5.88914000   -9.04290000
H   8.22014000   5.11892000   -6.35771000
H   8.27951000   3.66596000   -9.08791000
H   9.52579000   2.87025000   -6.37273000
C   -10.71333000   -5.92690000   7.64090000
C   -8.17482000   -5.93982000   7.69504000
C   -9.43022000   -5.19173000   7.18474000
H   -8.19783000   -5.96086000   8.81007000
H   -8.12246000   -2.97832000   6.13998000
C   -8.14962000   -2.99993000   7.25495000
C   -9.43478000   -3.73497000   7.70660000
H   -9.40547000   -5.17227000   6.06970000
C   -10.68712000   -2.98651000   7.19029000
C   -11.97425000   -3.71856000   7.64266000
C   -11.96934000   -5.18169000   7.12664000
H   -11.94199000   -5.16590000   6.01159000
H   -10.73840000   -5.94452000   8.75587000
H   -9.46227000   -3.75447000   8.82153000
H   -10.65852000   -2.96853000   6.07538000
H   -12.00140000   -3.73444000   8.75769000
C   -10.68919000   -1.52940000   7.71155000
C   -8.15295000   -1.54416000   7.78035000
C   -9.40184000   -0.79472000   7.26300000
C   -11.93595000   -0.77895000   7.19028000
H   -10.72095000   -1.54759000   8.82639000
H   -8.18264000   -1.56563000   8.89522000
H   -11.90194000   -0.76228000   6.07518000
H   -9.37051000   -0.77515000   6.14794000
C   -13.23147000   -1.50623000   7.63632000
C   -13.23028000   -2.96893000   7.12636000
C   -13.25689000   -5.91796000   7.58071000
C   -14.45943000   -0.73497000   7.11445000
C   -14.49942000   -3.71526000   7.57891000
C   -14.49435000   -5.15859000   7.06624000
H   -14.47293000   -0.73387000   6.00229000
H   -13.27314000   -1.51852000   8.74983000
H   -13.21022000   -2.95651000   6.01224000
H   -14.57524000   -3.71670000   8.68849000
H   -14.51542000   -5.15672000   5.95429000
H   -13.29166000   -5.93005000   8.69441000
C   -14.45173000   0.71018000   7.62501000
C   -13.16991000   1.43047000   7.19347000
C   -11.93179000   0.68201000   7.70905000
C   -10.64780000   1.40669000   7.26996000
C   -9.40433000   0.66373000   7.78516000
C   -8.12063000   1.39251000   7.34796000
H   -14.53319000   0.71770000   8.73321000
H   -11.96587000   0.67774000   8.82200000
H   -9.43776000   0.65686000   8.89803000
H   -13.14632000   1.50122000   6.08356000
H   -10.61361000   1.47548000   6.15914000
H   -8.08742000   1.46518000   6.23742000
C   -8.16980000   5.86211000   7.17047000
C   -9.44881000   5.12614000   7.63011000
C   -10.70565000   5.87374000   7.12037000
H   -8.14922000   5.88298000   6.05534000
C   -9.44200000   3.66718000   7.10931000
H   -9.46989000   5.10750000   8.74535000
C   -10.71624000   2.93781000   7.56491000
C   -11.96970000   3.67532000   7.06326000
C   -11.98396000   5.13671000   7.58061000
H   -9.42303000   3.67310000   5.99606000
H   -10.68365000   5.89146000   6.00526000
H   -12.00457000   5.12063000   8.69605000
H   -11.94925000   3.67892000   5.94994000
H   -10.73635000   2.87010000   8.67612000
C   -8.18756000   2.92587000   7.60641000
H   -8.20524000   2.85504000   8.71737000
C   -13.24837000   5.87714000   7.07135000
C   -13.23938000   2.94026000   7.51751000
C   -14.50853000   5.11906000   7.53218000
C   -14.49074000   3.67352000   7.02297000
H   -13.23515000   5.88914000   5.95710000
H   -14.57686000   5.11892000   8.64229000
H   -14.51749000   3.66596000   5.91209000
H   -13.27121000   2.87025000   8.62727000
C   -3.11433000   -5.92690000   7.64090000
C   -0.57582000   -5.93982000   7.69504000
C   -1.83122000   -5.19173000   7.18474000
H   -0.59883000   -5.96086000   8.81007000
H   -0.52346000   -2.97832000   6.13998000
C   -0.55062000   -2.99993000   7.25495000
C   -1.83578000   -3.73497000   7.70660000
H   -1.80647000   -5.17227000   6.06970000
C   -3.08812000   -2.98651000   7.19029000
C   -4.37525000   -3.71856000   7.64266000
C   -4.37034000   -5.18169000   7.12664000
H   -4.34299000   -5.16590000   6.01159000
H   -3.13940000   -5.94452000   8.75587000
H   -1.86327000   -3.75447000   8.82153000
H   -3.05952000   -2.96853000   6.07538000
H   -4.40240000   -3.73444000   8.75769000
C   -3.09019000   -1.52940000   7.71155000
C   -0.55395000   -1.54416000   7.78035000
C   -1.80284000   -0.79472000   7.26300000
C   -4.33695000   -0.77895000   7.19028000
H   -3.12195000   -1.54759000   8.82639000
H   -0.58364000   -1.56563000   8.89522000
H   -1.77151000   -0.77515000   6.14794000
C   -5.63247000   -1.50623000   7.63632000
C   -5.63128000   -2.96893000   7.12636000
C   -5.65789000   -5.91796000   7.58071000
C   -6.86043000   -0.73497000   7.11445000
C   -6.90042000   -3.71526000   7.57891000
C   -6.89535000   -5.15859000   7.06624000
H   -6.87393000   -0.73387000   6.00229000
H   -5.67414000   -1.51852000   8.74983000
H   -5.61122000   -2.95651000   6.01224000
H   -6.97624000   -3.71670000   8.68849000
H   -6.91642000   -5.15672000   5.95429000
H   -5.69266000   -5.93005000   8.69441000
C   -6.85273000   0.71018000   7.62501000
C   -5.57091000   1.43047000   7.19347000
C   -4.33279000   0.68201000   7.70905000
C   -3.04880000   1.40669000   7.26996000
C   -1.80533000   0.66373000   7.78516000
C   -0.52163000   1.39251000   7.34796000
H   -6.93419000   0.71770000   8.73321000
H   -4.36687000   0.67774000   8.82200000
H   -1.83876000   0.65686000   8.89803000
H   -5.54732000   1.50122000   6.08356000
H   -3.01461000   1.47548000   6.15914000
H   -0.48842000   1.46518000   6.23742000
C   -0.57080000   5.86211000   7.17047000
C   -1.84981000   5.12614000   7.63011000
C   -3.10665000   5.87374000   7.12037000
H   -0.55022000   5.88298000   6.05534000
C   -1.84300000   3.66718000   7.10931000
H   -1.87089000   5.10750000   8.74535000
C   -3.11724000   2.93781000   7.56491000
C   -4.37070000   3.67532000   7.06326000
C   -4.38496000   5.13671000   7.58061000
H   -1.82403000   3.67310000   5.99606000
H   -3.08465000   5.89146000   6.00526000
H   -4.40557000   5.12063000   8.69605000
H   -4.35025000   3.67892000   5.94994000
H   -3.13735000   2.87010000   8.67612000
C   -0.58856000   2.92587000   7.60641000
H   -0.60624000   2.85504000   8.71737000
C   -5.64937000   5.87714000   7.07135000
C   -5.64038000   2.94026000   7.51751000
C   -6.90953000   5.11906000   7.53218000
C   -6.89174000   3.67352000   7.02297000
H   -5.63615000   5.88914000   5.95710000
H   -6.97786000   5.11892000   8.64229000
H   -6.91849000   3.66596000   5.91209000
H   -5.67221000   2.87025000   8.62727000
C   4.48467000   -5.92690000   7.64090000
C   7.02318000   -5.93982000   7.69504000
C   5.76778000   -5.19173000   7.18474000
H   7.00017000   -5.96086000   8.81007000
H   7.07554000   -2.97832000   6.13998000
C   7.04838000   -2.99993000   7.25495000
C   5.76322000   -3.73497000   7.70660000
H   5.79253000   -5.17227000   6.06970000
C   4.51088000   -2.98651000   7.19029000
C   3.22375000   -3.71856000   7.64266000
C   3.22866000   -5.18169000   7.12664000
H   3.25601000   -5.16590000   6.01159000
H   4.45960000   -5.94452000   8.75587000
H   5.73573000   -3.75447000   8.82153000
H   4.53948000   -2.96853000   6.07538000
H   3.19660000   -3.73444000   8.75769000
C   4.50881000   -1.52940000   7.71155000
C   7.04505000   -1.54416000   7.78035000
C   5.79616000   -0.79472000   7.26300000
C   3.26205000   -0.77895000   7.19028000
H   4.47705000   -1.54759000   8.82639000
H   7.01536000   -1.56563000   8.89522000
H   3.29606000   -0.76228000   6.07518000
C   1.96653000   -1.50623000   7.63632000
C   1.96772000   -2.96893000   7.12636000
C   1.94111000   -5.91796000   7.58071000
C   0.73857000   -0.73497000   7.11445000
C   0.69858000   -3.71526000   7.57891000
C   0.70365000   -5.15859000   7.06624000
H   0.72507000   -0.73387000   6.00229000
H   1.92486000   -1.51852000   8.74983000
H   1.98778000   -2.95651000   6.01224000
H   0.62276000   -3.71670000   8.68849000
H   0.68258000   -5.15672000   5.95429000
H   1.90634000   -5.93005000   8.69441000
C   0.74627000   0.71018000   7.62501000
C   2.02809000   1.43047000   7.19347000
C   3.26621000   0.68201000   7.70905000
C   4.55020000   1.40669000   7.26996000
C   5.79367000   0.66373000   7.78516000
C   7.07737000   1.39251000   7.34796000
H   0.66481000   0.71770000   8.73321000
H   3.23213000   0.67774000   8.82200000
H   5.76024000   0.65686000   8.89803000
H   2.05168000   1.50122000   6.08356000
H   4.58439000   1.47548000   6.15914000
H   7.11058000   1.46518000   6.23742000
C   7.02820000   5.86211000   7.17047000
C   5.74919000   5.12614000   7.63011000
C   4.49235000   5.87374000   7.12037000
H   7.04878000   5.88298000   6.05534000
C   5.75600000   3.66718000   7.10931000
H   5.72811000   5.10750000   8.74535000
C   4.48176000   2.93781000   7.56491000
C   3.22830000   3.67532000   7.06326000
C   3.21404000   5.13671000   7.58061000
H   5.77497000   3.67310000   5.99606000
H   4.51435000   5.89146000   6.00526000
H   3.19343000   5.12063000   8.69605000
H   3.24875000   3.67892000   5.94994000
H   4.46165000   2.87010000   8.67612000
C   7.01044000   2.92587000   7.60641000
H   6.99276000   2.85504000   8.71737000
C   1.94963000   5.87714000   7.07135000
C   1.95862000   2.94026000   7.51751000
C   0.68947000   5.11906000   7.53218000
C   0.70726000   3.67352000   7.02297000
H   1.96285000   5.88914000   5.95710000
H   0.62114000   5.11892000   8.64229000
H   0.68051000   3.66596000   5.91209000
H   1.92679000   2.87025000   8.62727000
C   12.08367000   -5.92690000   7.64090000
C   14.62218000   -5.93982000   7.69504000
C   13.36678000   -5.19173000   7.18474000
H   14.59917000   -5.96086000   8.81007000
H   14.67454000   -2.97832000   6.13998000
C   14.64738000   -2.99993000   7.25495000
C   13.36222000   -3.73497000   7.70660000
H   13.39153000   -5.17227000   6.06970000
C   12.10988000   -2.98651000   7.19029000
C   10.82275000   -3.71856000   7.64266000
C   10.82766000   -5.18169000   7.12664000
H   10.85501000   -5.16590000   6.01159000
H   12.05860000   -5.94452000   8.75587000
H   13.33473000   -3.75447000   8.82153000
H   12.13848000   -2.96853000   6.07538000
H   10.79560000   -3.73444000   8.75769000
C   12.10781000   -1.52940000   7.71155000
C   14.64405000   -1.54416000   7.78035000
C   13.39516000   -0.79472000   7.26300000
C   10.86105000   -0.77895000   7.19028000
H   12.07605000   -1.54759000   8.82639000
H   14.61436000   -1.56563000   8.89522000
H   10.89506000   -0.76228000   6.07518000
H   13.42649000   -0.77515000   6.14794000
C   9.56553000   -1.50623000   7.63632000
C   9.56672000   -2.96893000   7.12636000
C   9.54011000   -5.91796000   7.58071000
C   8.33757000   -0.73497000   7.11445000
C   8.29758000   -3.71526000   7.57891000
C   8.30265000   -5.15859000   7.06624000
H   8.32407000   -0.73387000   6.00229000
H   9.52386000   -1.51852000   8.74983000
H   9.58678000   -2.95651000   6.01224000
H   8.22176000   -3.71670000   8.68849000
H   8.28158000   -5.15672000   5.95429000
H   9.50534000   -5.93005000   8.69441000
C   8.34527000   0.71018000   7.62501000
C   9.62709000   1.43047000   7.19347000
C   10.86521000   0.68201000   7.70905000
C   12.14920000   1.40669000   7.26996000
C   13.39267000   0.66373000   7.78516000
C   14.67637000   1.39251000   7.34796000
H   8.26381000   0.71770000   8.73321000
H   10.83113000   0.67774000   8.82200000
H   13.35924000   0.65686000   8.89803000
H   9.65068000   1.50122000   6.08356000
H   12.18339000   1.47548000   6.15914000
H   14.70958000   1.46518000   6.23742000
C   14.62720000   5.86211000   7.17047000
C   13.34819000   5.12614000   7.63011000
C   12.09135000   5.87374000   7.12037000
H   14.64778000   5.88298000   6.05534000
C   13.35500000   3.66718000   7.10931000
H   13.32711000   5.10750000   8.74535000
C   12.08076000   2.93781000   7.56491000
C   10.82730000   3.67532000   7.06326000
C   10.81304000   5.13671000   7.58061000
H   13.37397000   3.67310000   5.99606000
H   12.11335000   5.89146000   6.00526000
H   10.79243000   5.12063000   8.69605000
H   10.84775000   3.67892000   5.94994000
H   12.06065000   2.87010000   8.67612000
C   14.60944000   2.92587000   7.60641000
H   14.59176000   2.85504000   8.71737000
C   9.54863000   5.87714000   7.07135000
C   9.55762000   2.94026000   7.51751000
C   8.28847000   5.11906000   7.53218000
C   8.30626000   3.67352000   7.02297000
H   9.56185000   5.88914000   5.95710000
H   8.22014000   5.11892000   8.64229000
H   8.27951000   3.66596000   5.91209000
H   9.52579000   2.87025000   8.62727000
N   -4.67270973   -0.69001746   2.97849156
C   -5.19358398   -0.69708547   4.64096395
H   -5.70455912   0.26024765   4.59068254
H   -5.83141350   -1.63250635   4.66774315
C   -4.02872804   -0.79799442   5.58495972
H   -3.48098303   -1.68340085   5.26167281
H   -3.28465397   -0.03547127   5.43939139
C   -4.13131652   -2.00912248   2.70464064
H   -3.90984888   -2.16015594   1.68691098
H   -3.23321725   -2.33474063   3.28478798
H   -4.88471064   -2.80583135   2.96240156
C   -3.86845444   0.45631347   2.60498885
H   -3.03062237   0.55311461   3.34940447
H   -3.58060439   0.41243266   1.55264279
H   -4.46107110   1.34517758   2.70412707
C   -6.02354169   -0.53052954   2.27117756
H   -5.70323588   -0.43687591   1.22725943
H   -6.68875707   -1.38225754   2.40490652
H   -6.44369959   0.46409266   2.54758176
N   5.87301949   -0.91464487   3.02485128
C   6.19715885   -1.51795154   4.52693131
H   5.64515781   -2.49315606   4.55369160
H   7.32688141   -1.71729423   4.57160915
C   5.84569836   -0.58993753   5.64209995
H   6.41598038   0.28823877   5.40863450
H   4.82935623   -0.19184577   5.48066645
C   4.35461780   -0.59297694   2.97194100
H   4.25928823   0.31461869   3.57714390
H   4.04327054   -0.34560641   1.92169227
H   3.75005134   -1.38255420   3.35036226
C   6.34869823   -1.96456211   1.97415530
H   7.49046613   -2.02843491   1.83875681
H   5.95394569   -2.96603074   2.27876166
H   5.89169187   -1.79180514   1.04962164
C   6.70080732   0.27805414   2.83757178
H   6.38006650   1.13679039   3.47835354
H   7.75217680   0.04399473   2.90917181
H   6.64902381   0.65484262   1.78997052
O   -8.92352351   5.79259982   0.99881442
H   -8.51545512   5.51371802   1.79433740
H   -8.28238578   6.27399487   0.51182336
O   -13.63293894   6.13702044   -3.32098018
H   -12.83306393   5.80771846   -3.63934486
H   -11.76558407   2.18799042   -0.43257711
O   -7.72982783   -0.50996583   -3.55700238
H   -6.82575466   -0.58794126   -3.15196889
H   -7.67126333   -1.43609574   -3.84939589
O   13.11074397   -6.09327922   3.04717611
H   12.91372230   -5.99050346   2.11516829
H   14.00829037   -6.32131132   3.19785507
O   -7.93954449   3.30150450   -3.33839739
H   -8.18880611   3.25849923   -4.27197313
H   -7.78024582   2.42636109   -3.05094663
O   -15.06205562   5.80434007   2.89274475
H   -14.66967426   6.26299907   2.10225362
H   15.00387737   4.95690064   2.52703730
O   1.29676461   3.72876153   -2.76895213
H   -4.48567929   -5.31541554   -2.22656066
H   1.45803568   3.14261632   -2.05720735
O   -8.60053281   2.13070928   3.31100287
H   -9.46838550   1.91283930   2.93079943
H   -7.94135263   2.33825845   2.66598604
O   -8.77081100   -5.72908076   -1.55815271
H   -8.24011614   -5.90622085   -2.32309171
H   -9.62936416   -6.21510365   -1.61879099
O   -9.60095465   -0.66410969   -1.34674988
H   -10.49107778   -0.31617915   -1.51009920
H   -9.12496209   -0.72957449   -2.19932057
O   -11.39778511   4.22466692   -3.26430138
H   -11.42416512   4.64086084   -2.36773587
H   -12.07322412   3.61593465   -3.12394006
O   -11.01585529   2.30834729   -0.96313143
H   -11.20414030   1.95878697   -1.83717314
H   0.44393269   4.16529886   -2.67810498
O   -1.46067193   0.16898186   -0.61721866
H   -0.88883096   -0.31999086   -1.23944948
H   -1.63579516   0.99057333   -1.08447733
O   -7.90499214   3.69764123   -0.59645523
H   -14.39480559   5.56135924   -3.45402397
H   -8.40789888   3.67982306   -1.42301153
O   11.96419590   -2.68114152   -1.18248914
H   12.72401443   -2.85978270   -0.59327827
H   11.31171618   -2.72802384   -0.54196647
O   11.65291858   5.55166247   -3.95065187
H   10.69858329   5.65970453   -4.22488110
H   11.90492983   6.45644246   -3.63682376
O   3.83369871   -4.59502593   0.28722428
H   4.83586393   -4.43835642   0.26079426
H   3.86065931   -5.40178973   0.84644668
O   6.41626558   -4.50688304   0.66233500
H   6.56611166   -5.27108894   0.05882249
H   7.41381726   -4.22185903   0.93695782
O   -13.37380408   -6.29283466   0.85816526
H   -12.59829471   -5.69935482   0.69535759
H   -14.11427391   -5.71720123   0.86020965
O   -13.06001124   -4.58284984   -2.15866742
H   -13.30456948   -5.47667613   -1.96451233
H   -12.51003839   -4.29894937   -1.41718085
O   -7.09952648   -3.77522776   3.69555126
H   -7.03207042   -3.99482811   2.72842928
H   -7.96850587   -4.13636524   3.88742905
O   -0.91826898   6.41207976   2.02935519
H   7.03615723   -6.68326557   -2.96453474
H   -1.55946979   6.50039785   2.72467148
O   -6.71733037   -2.55367087   0.55422911
H   -7.43829086   -2.99258010   0.09781437
H   -6.01362041   -3.26569788   0.67095073
O   14.84139582   -4.64656964   -0.43971340
H   15.11854615   -3.78529258   -0.65747897
H   15.06894691   -5.25603163   -1.16693677
O   -5.20741786   -1.29874947   -2.27123945
H   -5.53229997   -1.13731038   -1.37850230
H   -5.49404577   -2.20750246   -2.46713836
O   -0.40532946   2.47407432   3.51834438
H   -0.03757403   1.83749083   2.96495569
H   -0.16754805   3.43296843   3.28342542
O   -13.41469916   4.07027049   -0.75452487
H   -12.45494662   4.06444368   -0.46358854
H   -13.70915885   4.89323532   -0.49694711
O   -11.40558879   -4.12401836   0.12543972
H   -10.48938795   -4.01738900   0.47820681
H   13.08132375   -0.29874563   -3.01415526
O   3.91091420   -4.00226268   3.40765708
H   3.46050379   -4.70460271   3.85873273
H   3.56747069   -3.90140424   2.47843550
O   12.88933991   1.71220584   0.63539950
H   12.28155545   1.62423829   1.40550831
H   12.21791340   1.95998582   -0.01382084
O   8.27365626   -6.32189258   3.00974935
H   8.29675589   -6.31983622   3.99654801
H   8.79152251   -5.60855865   2.68942815
O   7.95234089   -2.30582986   -1.06711367
H   8.56371355   -3.06748255   -1.20201272
H   7.29980553   -2.55026422   -0.42701044
O   -1.14519296   4.71932035   -1.30894713
H   -1.78736446   5.27037931   -0.93942658
H   -0.96193859   3.96309873   -0.74650694
O   1.50953637   -5.81610984   3.08952363
H   0.87584794   -6.51834260   2.97619937
H   1.67420284   -5.47867593   2.17494175
O   -4.61866087   -4.37404548   0.72271491
H   -0.39447485   -2.28782571   -3.06927423
H   -4.04740428   -4.25878197   1.54908696
O   4.51528332   -0.31598893   -0.56264637
H   5.10358890   -0.82039484   -1.06230494
H   4.26304126   0.42193286   -1.07346461
O   -5.21286058   5.15711621   1.84233968
H   -5.95569670   5.69668588   1.95924598
H   -4.63967546   5.60027509   1.14560666
O   2.19984591   6.48980864   -3.43942219
H   1.93007693   5.68020033   -2.98393565
H   2.67763547   -6.38433051   -2.81661908
O   -7.22339339   0.82768130   -0.57769670
H   -7.38510200   1.76505988   -0.72983395
H   -8.02592538   0.39060505   -0.80140684
O   -12.64572845   -3.10441926   2.53972408
H   -12.92196973   -2.22099785   2.83945918
H   -13.05270534   -3.69488529   3.20466147
O   7.70580984   5.70502275   0.36049634
H   7.67283760   5.01223319   0.98257176
H   7.76093941   6.46899125   0.94653978
O   8.09807812   4.96199177   -4.14350728
H   7.66083219   4.39582414   -4.81820347
H   7.45535584   5.00100869   -3.45178514
O   11.88761511   3.02077060   -2.10634226
H   11.05122641   2.54268122   -2.28720762
H   11.94797661   3.70470510   -2.81225119
O   -13.44687186   -1.43126534   -3.89559263
H   -13.77486919   -2.06002583   -3.21019390
H   -14.31459002   -1.09143139   -4.28084356
O   -15.03520814   1.25974896   -2.35149784
H   -14.69264031   1.44085937   -1.48619097
H   14.59195718   1.77138587   -2.41218060
O   -14.81895733   -1.81709802   -1.07489482
H   -14.03489237   -1.43567041   -1.44749435
H   14.82043978   -1.39550804   -1.52534391
O   2.77500797   3.22163220   1.65239459
H   3.23985738   4.04637924   1.41738115
H   1.93189630   3.28517833   1.19964293
O   9.70352028   -1.25116831   1.11388591
H   9.46951614   -2.21122412   0.84988232
H   10.63140535   -1.31580910   1.43588212
O   -3.18381597   -6.41005596   0.21722445
H   -3.15006050   -6.46162582   -0.72691608
H   -3.67978282   -5.50911963   0.37419913
O   1.72654292   0.13287905   0.17761981
H   0.96659793   -0.38586856   -0.10626586
H   2.48585739   -0.29263012   -0.16878208
O   8.21584481   -3.71302556   3.91245453
H   8.51105160   -3.47869087   2.98340812
H   7.57790910   -4.32778033   3.68923997
O   -3.49442479   -1.47599687   -0.17916783
H   -2.85945644   -0.83206406   -0.47393184
H   -3.16951134   -2.31840853   -0.47870911
O   4.80613020   5.98301236   -0.38091948
H   5.49316191   5.30644752   -0.25055454
H   5.23263971   6.68623098   -0.90306186
O   -0.30400208   -2.15458727   -2.05429542
H   -0.85884317   -2.91071594   -1.77733996
H   -11.92545596   -3.61195294   0.72319764
O   13.80019015   4.88480785   0.12791895
H   12.93342456   4.96931239   -0.27547569
H   14.00137866   3.90086917   0.01788931
O   -12.31298719   1.10626013   -3.31516425
H   -12.20302977   1.10818357   -4.27775874
H   -12.81458278   0.23292308   -3.17096989
O   7.96838838   3.12268635   3.10610916
H   8.91093802   2.98145143   2.95062146
H   7.92766620   3.64091252   3.89587508
O   0.11172870   2.33972134   0.23955146
H   0.75448073   1.82151844   -0.15227211
H   -0.22381077   1.96345936   1.07486417
O   -6.90777080   -5.47153265   1.23029547
H   -7.39651049   -4.81290760   0.63244115
H   -5.97762775   -5.17574583   0.93769563
O   -9.31277166   -3.65793434   1.74410943
H   -9.90499157   -3.19360100   2.31068361
H   -8.47520664   -3.18652651   1.71515787
O   11.35174132   -3.74705157   2.28128500
H   11.57507520   -4.48132237   2.93871684
H   10.43621878   -3.88303880   1.89869589
O   8.78165664   -4.00990062   1.27980169
H   -1.33776525   -6.60396341   1.21335538
H   9.24319270   -4.60973041   0.64269819
O   13.33866359   -1.14862765   -2.71884760
H   -5.56832597   3.32618089   1.88349822
H   12.49041232   -1.48129596   -2.40073308
O   -15.12871470   -0.96241814   1.87740761
H   -14.52696672   -1.63638814   1.53132029
H   14.87062493   -0.57695278   1.12867790
O   -1.99587476   -4.05096031   -3.39834185
H   -2.04811828   -4.90633208   -3.88204949
H   -2.86307200   -3.91633364   -2.93627751
O   10.65598251   1.70002876   2.87767585
H   11.28305582   2.27744204   3.33999552
H   10.86781192   0.86486757   3.31778904
O   4.84872429   4.61818171   -3.24756578
H   4.76553192   5.28237025   -2.52352864
H   4.01452791   4.43741643   -3.71371501
O   -3.44430409   -6.59197884   3.33856754
H   -3.36062588   -6.18139392   2.50858232
H   -4.24247309   6.17687632   3.29166967
O   11.91455243   -0.86605914   3.90994215
H   11.28138938   -1.55485303   4.01978966
H   12.71093911   -1.09317775   3.42710677
O   14.13998811   -3.43936890   3.26856259
H   13.35902161   -3.91249906   3.60665529
H   14.01970229   -3.44318692   2.30363500
O   3.36541371   2.38889943   -0.89827918
H   3.95596689   2.93211901   -1.43261584
H   3.52283730   2.43483239   0.06919122
O   -6.69967336   6.40566745   3.75607225
H   -7.24575841   -6.43659255   3.21570703
H   -6.59324235   -6.52502943   4.61820965
O   12.30352371   -5.19761325   -3.24821993
H   11.64587627   -4.57623023   -2.84686944
H   12.84219062   -4.61158404   -3.70999625
O   -4.51468475   5.33213228   -3.18276145
H   -5.22296579   4.96927972   -2.68582510
H   -3.71943888   5.01694424   -2.79393673
O   -6.63901997   -3.32764068   -3.43413923
H   -6.41701053   -3.79573703   -2.59985615
H   -5.95669550   -3.49605918   -4.03226298
O   6.14314698   -6.34611807   -2.67743655
H   -8.35172979   4.06404105   0.12249357
H   5.48866176   -6.45253677   -3.34700688
O   -4.70752275   -4.40854952   -2.00568763
H   -4.66079924   -4.30546623   -1.04537206
O   -6.17589177   2.63430049   1.55188883
H   -6.37331341   3.05093447   0.73824777
