844

C   -10.71333000   -5.92690000   -7.35910000
C   -8.17482000   -5.93982000   -7.30496000
C   -9.43022000   -5.19173000   -7.81526000
H   -8.19783000   -5.96086000   -6.18993000
H   -8.12246000   -2.97832000   -8.86002000
C   -8.14962000   -2.99993000   -7.74505000
C   -9.43478000   -3.73497000   -7.29340000
H   -9.40547000   -5.17227000   -8.93030000
C   -10.68712000   -2.98651000   -7.80971000
C   -11.97425000   -3.71856000   -7.35734000
C   -11.96934000   -5.18169000   -7.87336000
H   -11.94199000   -5.16590000   -8.98841000
H   -10.73840000   -5.94452000   -6.24413000
H   -9.46227000   -3.75447000   -6.17847000
H   -10.65852000   -2.96853000   -8.92462000
H   -12.00140000   -3.73444000   -6.24231000
C   -10.68919000   -1.52940000   -7.28845000
C   -8.15295000   -1.54416000   -7.21965000
C   -9.40184000   -0.79472000   -7.73700000
C   -11.93595000   -0.77895000   -7.80972000
H   -10.72095000   -1.54759000   -6.17361000
H   -8.18264000   -1.56563000   -6.10478000
H   -11.90194000   -0.76228000   -8.92482000
H   -9.37051000   -0.77515000   -8.85206000
C   -13.23147000   -1.50623000   -7.36368000
C   -13.23028000   -2.96893000   -7.87364000
C   -13.25689000   -5.91796000   -7.41929000
C   -14.45943000   -0.73497000   -7.88555000
C   -14.49942000   -3.71526000   -7.42109000
C   -14.49435000   -5.15859000   -7.93376000
H   -14.47293000   -0.73387000   -8.99771000
H   -13.27314000   -1.51852000   -6.25017000
H   -13.21022000   -2.95651000   -8.98776000
H   -14.57524000   -3.71670000   -6.31151000
H   -14.51542000   -5.15672000   -9.04571000
H   -13.29166000   -5.93005000   -6.30559000
C   -14.45173000   0.71018000   -7.37499000
C   -13.16991000   1.43047000   -7.80653000
C   -11.93179000   0.68201000   -7.29095000
C   -10.64780000   1.40669000   -7.73004000
C   -9.40433000   0.66373000   -7.21484000
C   -8.12063000   1.39251000   -7.65204000
H   -14.53319000   0.71770000   -6.26679000
H   -11.96587000   0.67774000   -6.17800000
H   -9.43776000   0.65686000   -6.10197000
H   -13.14632000   1.50122000   -8.91644000
H   -10.61361000   1.47548000   -8.84086000
H   -8.08742000   1.46518000   -8.76258000
C   -8.16980000   5.86211000   -7.82953000
C   -9.44881000   5.12614000   -7.36989000
C   -10.70565000   5.87374000   -7.87963000
H   -8.14922000   5.88298000   -8.94466000
C   -9.44200000   3.66718000   -7.89069000
H   -9.46989000   5.10750000   -6.25465000
C   -10.71624000   2.93781000   -7.43509000
C   -11.96970000   3.67532000   -7.93674000
C   -11.98396000   5.13671000   -7.41939000
H   -9.42303000   3.67310000   -9.00394000
H   -10.68365000   5.89146000   -8.99474000
H   -12.00457000   5.12063000   -6.30395000
H   -11.94925000   3.67892000   -9.05006000
H   -10.73635000   2.87010000   -6.32388000
C   -8.18756000   2.92587000   -7.39359000
H   -8.20524000   2.85504000   -6.28263000
C   -13.24837000   5.87714000   -7.92865000
C   -13.23938000   2.94026000   -7.48249000
C   -14.50853000   5.11906000   -7.46782000
C   -14.49074000   3.67352000   -7.97703000
H   -13.23515000   5.88914000   -9.04290000
H   -14.57686000   5.11892000   -6.35771000
H   -14.51749000   3.66596000   -9.08791000
H   -13.27121000   2.87025000   -6.37273000
C   -3.11433000   -5.92690000   -7.35910000
C   -0.57582000   -5.93982000   -7.30496000
C   -1.83122000   -5.19173000   -7.81526000
H   -0.59883000   -5.96086000   -6.18993000
H   -0.52346000   -2.97832000   -8.86002000
C   -0.55062000   -2.99993000   -7.74505000
C   -1.83578000   -3.73497000   -7.29340000
H   -1.80647000   -5.17227000   -8.93030000
C   -3.08812000   -2.98651000   -7.80971000
C   -4.37525000   -3.71856000   -7.35734000
C   -4.37034000   -5.18169000   -7.87336000
H   -4.34299000   -5.16590000   -8.98841000
H   -3.13940000   -5.94452000   -6.24413000
H   -1.86327000   -3.75447000   -6.17847000
H   -3.05952000   -2.96853000   -8.92462000
H   -4.40240000   -3.73444000   -6.24231000
C   -3.09019000   -1.52940000   -7.28845000
C   -0.55395000   -1.54416000   -7.21965000
C   -1.80284000   -0.79472000   -7.73700000
C   -4.33695000   -0.77895000   -7.80972000
H   -3.12195000   -1.54759000   -6.17361000
H   -0.58364000   -1.56563000   -6.10478000
H   -4.30294000   -0.76228000   -8.92482000
H   -1.77151000   -0.77515000   -8.85206000
C   -5.63247000   -1.50623000   -7.36368000
C   -5.63128000   -2.96893000   -7.87364000
C   -5.65789000   -5.91796000   -7.41929000
C   -6.86043000   -0.73497000   -7.88555000
C   -6.90042000   -3.71526000   -7.42109000
C   -6.89535000   -5.15859000   -7.93376000
H   -6.87393000   -0.73387000   -8.99771000
H   -5.67414000   -1.51852000   -6.25017000
H   -5.61122000   -2.95651000   -8.98776000
H   -6.97624000   -3.71670000   -6.31151000
H   -6.91642000   -5.15672000   -9.04571000
H   -5.69266000   -5.93005000   -6.30559000
C   -6.85273000   0.71018000   -7.37499000
C   -5.57091000   1.43047000   -7.80653000
C   -4.33279000   0.68201000   -7.29095000
C   -3.04880000   1.40669000   -7.73004000
C   -1.80533000   0.66373000   -7.21484000
C   -0.52163000   1.39251000   -7.65204000
H   -6.93419000   0.71770000   -6.26679000
H   -4.36687000   0.67774000   -6.17800000
H   -1.83876000   0.65686000   -6.10197000
H   -5.54732000   1.50122000   -8.91644000
H   -3.01461000   1.47548000   -8.84086000
H   -0.48842000   1.46518000   -8.76258000
C   -0.57080000   5.86211000   -7.82953000
C   -1.84981000   5.12614000   -7.36989000
C   -3.10665000   5.87374000   -7.87963000
H   -0.55022000   5.88298000   -8.94466000
C   -1.84300000   3.66718000   -7.89069000
H   -1.87089000   5.10750000   -6.25465000
C   -3.11724000   2.93781000   -7.43509000
C   -4.37070000   3.67532000   -7.93674000
C   -4.38496000   5.13671000   -7.41939000
H   -1.82403000   3.67310000   -9.00394000
H   -3.08465000   5.89146000   -8.99474000
H   -4.40557000   5.12063000   -6.30395000
H   -4.35025000   3.67892000   -9.05006000
H   -3.13735000   2.87010000   -6.32388000
C   -0.58856000   2.92587000   -7.39359000
H   -0.60624000   2.85504000   -6.28263000
C   -5.64937000   5.87714000   -7.92865000
C   -5.64038000   2.94026000   -7.48249000
C   -6.90953000   5.11906000   -7.46782000
C   -6.89174000   3.67352000   -7.97703000
H   -5.63615000   5.88914000   -9.04290000
H   -6.97786000   5.11892000   -6.35771000
H   -6.91849000   3.66596000   -9.08791000
H   -5.67221000   2.87025000   -6.37273000
C   4.48467000   -5.92690000   -7.35910000
C   7.02318000   -5.93982000   -7.30496000
C   5.76778000   -5.19173000   -7.81526000
H   7.00017000   -5.96086000   -6.18993000
H   7.07554000   -2.97832000   -8.86002000
C   7.04838000   -2.99993000   -7.74505000
C   5.76322000   -3.73497000   -7.29340000
H   5.79253000   -5.17227000   -8.93030000
C   4.51088000   -2.98651000   -7.80971000
C   3.22375000   -3.71856000   -7.35734000
C   3.22866000   -5.18169000   -7.87336000
H   3.25601000   -5.16590000   -8.98841000
H   4.45960000   -5.94452000   -6.24413000
H   5.73573000   -3.75447000   -6.17847000
H   4.53948000   -2.96853000   -8.92462000
H   3.19660000   -3.73444000   -6.24231000
C   4.50881000   -1.52940000   -7.28845000
C   7.04505000   -1.54416000   -7.21965000
C   5.79616000   -0.79472000   -7.73700000
C   3.26205000   -0.77895000   -7.80972000
H   4.47705000   -1.54759000   -6.17361000
H   7.01536000   -1.56563000   -6.10478000
H   3.29606000   -0.76228000   -8.92482000
H   5.82749000   -0.77515000   -8.85206000
C   1.96653000   -1.50623000   -7.36368000
C   1.96772000   -2.96893000   -7.87364000
C   1.94111000   -5.91796000   -7.41929000
C   0.73857000   -0.73497000   -7.88555000
C   0.69858000   -3.71526000   -7.42109000
C   0.70365000   -5.15859000   -7.93376000
H   0.72507000   -0.73387000   -8.99771000
H   1.92486000   -1.51852000   -6.25017000
H   1.98778000   -2.95651000   -8.98776000
H   0.62276000   -3.71670000   -6.31151000
H   0.68258000   -5.15672000   -9.04571000
H   1.90634000   -5.93005000   -6.30559000
C   0.74627000   0.71018000   -7.37499000
C   2.02809000   1.43047000   -7.80653000
C   3.26621000   0.68201000   -7.29095000
C   4.55020000   1.40669000   -7.73004000
C   5.79367000   0.66373000   -7.21484000
C   7.07737000   1.39251000   -7.65204000
H   0.66481000   0.71770000   -6.26679000
H   3.23213000   0.67774000   -6.17800000
H   5.76024000   0.65686000   -6.10197000
H   2.05168000   1.50122000   -8.91644000
H   4.58439000   1.47548000   -8.84086000
H   7.11058000   1.46518000   -8.76258000
C   7.02820000   5.86211000   -7.82953000
C   5.74919000   5.12614000   -7.36989000
C   4.49235000   5.87374000   -7.87963000
H   7.04878000   5.88298000   -8.94466000
C   5.75600000   3.66718000   -7.89069000
H   5.72811000   5.10750000   -6.25465000
C   4.48176000   2.93781000   -7.43509000
C   3.22830000   3.67532000   -7.93674000
C   3.21404000   5.13671000   -7.41939000
H   5.77497000   3.67310000   -9.00394000
H   4.51435000   5.89146000   -8.99474000
H   3.19343000   5.12063000   -6.30395000
H   3.24875000   3.67892000   -9.05006000
H   4.46165000   2.87010000   -6.32388000
C   7.01044000   2.92587000   -7.39359000
H   6.99276000   2.85504000   -6.28263000
C   1.94963000   5.87714000   -7.92865000
C   1.95862000   2.94026000   -7.48249000
C   0.68947000   5.11906000   -7.46782000
C   0.70726000   3.67352000   -7.97703000
H   1.96285000   5.88914000   -9.04290000
H   0.62114000   5.11892000   -6.35771000
H   0.68051000   3.66596000   -9.08791000
H   1.92679000   2.87025000   -6.37273000
C   12.08367000   -5.92690000   -7.35910000
C   14.62218000   -5.93982000   -7.30496000
C   13.36678000   -5.19173000   -7.81526000
H   14.59917000   -5.96086000   -6.18993000
H   14.67454000   -2.97832000   -8.86002000
C   14.64738000   -2.99993000   -7.74505000
C   13.36222000   -3.73497000   -7.29340000
H   13.39153000   -5.17227000   -8.93030000
C   12.10988000   -2.98651000   -7.80971000
C   10.82275000   -3.71856000   -7.35734000
C   10.82766000   -5.18169000   -7.87336000
H   10.85501000   -5.16590000   -8.98841000
H   12.05860000   -5.94452000   -6.24413000
H   13.33473000   -3.75447000   -6.17847000
H   12.13848000   -2.96853000   -8.92462000
H   10.79560000   -3.73444000   -6.24231000
C   12.10781000   -1.52940000   -7.28845000
C   14.64405000   -1.54416000   -7.21965000
C   13.39516000   -0.79472000   -7.73700000
C   10.86105000   -0.77895000   -7.80972000
H   12.07605000   -1.54759000   -6.17361000
H   14.61436000   -1.56563000   -6.10478000
H   10.89506000   -0.76228000   -8.92482000
H   13.42649000   -0.77515000   -8.85206000
C   9.56553000   -1.50623000   -7.36368000
C   9.56672000   -2.96893000   -7.87364000
C   9.54011000   -5.91796000   -7.41929000
C   8.33757000   -0.73497000   -7.88555000
C   8.29758000   -3.71526000   -7.42109000
C   8.30265000   -5.15859000   -7.93376000
H   8.32407000   -0.73387000   -8.99771000
H   9.52386000   -1.51852000   -6.25017000
H   9.58678000   -2.95651000   -8.98776000
H   8.22176000   -3.71670000   -6.31151000
H   8.28158000   -5.15672000   -9.04571000
H   9.50534000   -5.93005000   -6.30559000
C   8.34527000   0.71018000   -7.37499000
C   9.62709000   1.43047000   -7.80653000
C   10.86521000   0.68201000   -7.29095000
C   12.14920000   1.40669000   -7.73004000
C   13.39267000   0.66373000   -7.21484000
C   14.67637000   1.39251000   -7.65204000
H   8.26381000   0.71770000   -6.26679000
H   10.83113000   0.67774000   -6.17800000
H   13.35924000   0.65686000   -6.10197000
H   9.65068000   1.50122000   -8.91644000
H   12.18339000   1.47548000   -8.84086000
H   14.70958000   1.46518000   -8.76258000
C   14.62720000   5.86211000   -7.82953000
C   13.34819000   5.12614000   -7.36989000
C   12.09135000   5.87374000   -7.87963000
H   14.64778000   5.88298000   -8.94466000
C   13.35500000   3.66718000   -7.89069000
H   13.32711000   5.10750000   -6.25465000
C   12.08076000   2.93781000   -7.43509000
C   10.82730000   3.67532000   -7.93674000
C   10.81304000   5.13671000   -7.41939000
H   13.37397000   3.67310000   -9.00394000
H   12.11335000   5.89146000   -8.99474000
H   10.79243000   5.12063000   -6.30395000
H   10.84775000   3.67892000   -9.05006000
H   12.06065000   2.87010000   -6.32388000
C   14.60944000   2.92587000   -7.39359000
H   14.59176000   2.85504000   -6.28263000
C   9.54863000   5.87714000   -7.92865000
C   9.55762000   2.94026000   -7.48249000
C   8.28847000   5.11906000   -7.46782000
C   8.30626000   3.67352000   -7.97703000
H   9.56185000   5.88914000   -9.04290000
H   8.22014000   5.11892000   -6.35771000
H   8.27951000   3.66596000   -9.08791000
H   9.52579000   2.87025000   -6.37273000
C   -10.71333000   -5.92690000   7.64090000
C   -8.17482000   -5.93982000   7.69504000
C   -9.43022000   -5.19173000   7.18474000
H   -8.19783000   -5.96086000   8.81007000
H   -8.12246000   -2.97832000   6.13998000
C   -8.14962000   -2.99993000   7.25495000
C   -9.43478000   -3.73497000   7.70660000
H   -9.40547000   -5.17227000   6.06970000
C   -10.68712000   -2.98651000   7.19029000
C   -11.97425000   -3.71856000   7.64266000
C   -11.96934000   -5.18169000   7.12664000
H   -11.94199000   -5.16590000   6.01159000
H   -10.73840000   -5.94452000   8.75587000
H   -9.46227000   -3.75447000   8.82153000
H   -10.65852000   -2.96853000   6.07538000
H   -12.00140000   -3.73444000   8.75769000
C   -10.68919000   -1.52940000   7.71155000
C   -8.15295000   -1.54416000   7.78035000
C   -9.40184000   -0.79472000   7.26300000
C   -11.93595000   -0.77895000   7.19028000
H   -10.72095000   -1.54759000   8.82639000
H   -8.18264000   -1.56563000   8.89522000
H   -11.90194000   -0.76228000   6.07518000
H   -9.37051000   -0.77515000   6.14794000
C   -13.23147000   -1.50623000   7.63632000
C   -13.23028000   -2.96893000   7.12636000
C   -13.25689000   -5.91796000   7.58071000
C   -14.45943000   -0.73497000   7.11445000
C   -14.49942000   -3.71526000   7.57891000
C   -14.49435000   -5.15859000   7.06624000
H   -14.47293000   -0.73387000   6.00229000
H   -13.27314000   -1.51852000   8.74983000
H   -13.21022000   -2.95651000   6.01224000
H   -14.57524000   -3.71670000   8.68849000
H   -14.51542000   -5.15672000   5.95429000
H   -13.29166000   -5.93005000   8.69441000
C   -14.45173000   0.71018000   7.62501000
C   -13.16991000   1.43047000   7.19347000
C   -11.93179000   0.68201000   7.70905000
C   -10.64780000   1.40669000   7.26996000
C   -9.40433000   0.66373000   7.78516000
C   -8.12063000   1.39251000   7.34796000
H   -14.53319000   0.71770000   8.73321000
H   -11.96587000   0.67774000   8.82200000
H   -9.43776000   0.65686000   8.89803000
H   -13.14632000   1.50122000   6.08356000
H   -10.61361000   1.47548000   6.15914000
H   -8.08742000   1.46518000   6.23742000
C   -8.16980000   5.86211000   7.17047000
C   -9.44881000   5.12614000   7.63011000
C   -10.70565000   5.87374000   7.12037000
H   -8.14922000   5.88298000   6.05534000
C   -9.44200000   3.66718000   7.10931000
H   -9.46989000   5.10750000   8.74535000
C   -10.71624000   2.93781000   7.56491000
C   -11.96970000   3.67532000   7.06326000
C   -11.98396000   5.13671000   7.58061000
H   -9.42303000   3.67310000   5.99606000
H   -10.68365000   5.89146000   6.00526000
H   -12.00457000   5.12063000   8.69605000
H   -11.94925000   3.67892000   5.94994000
H   -10.73635000   2.87010000   8.67612000
C   -8.18756000   2.92587000   7.60641000
H   -8.20524000   2.85504000   8.71737000
C   -13.24837000   5.87714000   7.07135000
C   -13.23938000   2.94026000   7.51751000
C   -14.50853000   5.11906000   7.53218000
C   -14.49074000   3.67352000   7.02297000
H   -13.23515000   5.88914000   5.95710000
H   -14.57686000   5.11892000   8.64229000
H   -14.51749000   3.66596000   5.91209000
H   -13.27121000   2.87025000   8.62727000
C   -3.11433000   -5.92690000   7.64090000
C   -0.57582000   -5.93982000   7.69504000
C   -1.83122000   -5.19173000   7.18474000
H   -0.59883000   -5.96086000   8.81007000
H   -0.52346000   -2.97832000   6.13998000
C   -0.55062000   -2.99993000   7.25495000
C   -1.83578000   -3.73497000   7.70660000
H   -1.80647000   -5.17227000   6.06970000
C   -3.08812000   -2.98651000   7.19029000
C   -4.37525000   -3.71856000   7.64266000
C   -4.37034000   -5.18169000   7.12664000
H   -4.34299000   -5.16590000   6.01159000
H   -3.13940000   -5.94452000   8.75587000
H   -1.86327000   -3.75447000   8.82153000
H   -3.05952000   -2.96853000   6.07538000
H   -4.40240000   -3.73444000   8.75769000
C   -3.09019000   -1.52940000   7.71155000
C   -0.55395000   -1.54416000   7.78035000
C   -1.80284000   -0.79472000   7.26300000
C   -4.33695000   -0.77895000   7.19028000
H   -3.12195000   -1.54759000   8.82639000
H   -0.58364000   -1.56563000   8.89522000
H   -1.77151000   -0.77515000   6.14794000
C   -5.63247000   -1.50623000   7.63632000
C   -5.63128000   -2.96893000   7.12636000
C   -5.65789000   -5.91796000   7.58071000
C   -6.86043000   -0.73497000   7.11445000
C   -6.90042000   -3.71526000   7.57891000
C   -6.89535000   -5.15859000   7.06624000
H   -6.87393000   -0.73387000   6.00229000
H   -5.67414000   -1.51852000   8.74983000
H   -5.61122000   -2.95651000   6.01224000
H   -6.97624000   -3.71670000   8.68849000
H   -6.91642000   -5.15672000   5.95429000
H   -5.69266000   -5.93005000   8.69441000
C   -6.85273000   0.71018000   7.62501000
C   -5.57091000   1.43047000   7.19347000
C   -4.33279000   0.68201000   7.70905000
C   -3.04880000   1.40669000   7.26996000
C   -1.80533000   0.66373000   7.78516000
C   -0.52163000   1.39251000   7.34796000
H   -6.93419000   0.71770000   8.73321000
H   -4.36687000   0.67774000   8.82200000
H   -1.83876000   0.65686000   8.89803000
H   -5.54732000   1.50122000   6.08356000
H   -3.01461000   1.47548000   6.15914000
H   -0.48842000   1.46518000   6.23742000
C   -0.57080000   5.86211000   7.17047000
C   -1.84981000   5.12614000   7.63011000
C   -3.10665000   5.87374000   7.12037000
H   -0.55022000   5.88298000   6.05534000
C   -1.84300000   3.66718000   7.10931000
H   -1.87089000   5.10750000   8.74535000
C   -3.11724000   2.93781000   7.56491000
C   -4.37070000   3.67532000   7.06326000
C   -4.38496000   5.13671000   7.58061000
H   -1.82403000   3.67310000   5.99606000
H   -3.08465000   5.89146000   6.00526000
H   -4.40557000   5.12063000   8.69605000
H   -4.35025000   3.67892000   5.94994000
H   -3.13735000   2.87010000   8.67612000
C   -0.58856000   2.92587000   7.60641000
H   -0.60624000   2.85504000   8.71737000
C   -5.64937000   5.87714000   7.07135000
C   -5.64038000   2.94026000   7.51751000
C   -6.90953000   5.11906000   7.53218000
C   -6.89174000   3.67352000   7.02297000
H   -5.63615000   5.88914000   5.95710000
H   -6.97786000   5.11892000   8.64229000
H   -6.91849000   3.66596000   5.91209000
H   -5.67221000   2.87025000   8.62727000
C   4.48467000   -5.92690000   7.64090000
C   7.02318000   -5.93982000   7.69504000
C   5.76778000   -5.19173000   7.18474000
H   7.00017000   -5.96086000   8.81007000
H   7.07554000   -2.97832000   6.13998000
C   7.04838000   -2.99993000   7.25495000
C   5.76322000   -3.73497000   7.70660000
H   5.79253000   -5.17227000   6.06970000
C   4.51088000   -2.98651000   7.19029000
C   3.22375000   -3.71856000   7.64266000
C   3.22866000   -5.18169000   7.12664000
H   3.25601000   -5.16590000   6.01159000
H   4.45960000   -5.94452000   8.75587000
H   5.73573000   -3.75447000   8.82153000
H   4.53948000   -2.96853000   6.07538000
H   3.19660000   -3.73444000   8.75769000
C   4.50881000   -1.52940000   7.71155000
C   7.04505000   -1.54416000   7.78035000
C   5.79616000   -0.79472000   7.26300000
C   3.26205000   -0.77895000   7.19028000
H   4.47705000   -1.54759000   8.82639000
H   7.01536000   -1.56563000   8.89522000
H   3.29606000   -0.76228000   6.07518000
C   1.96653000   -1.50623000   7.63632000
C   1.96772000   -2.96893000   7.12636000
C   1.94111000   -5.91796000   7.58071000
C   0.73857000   -0.73497000   7.11445000
C   0.69858000   -3.71526000   7.57891000
C   0.70365000   -5.15859000   7.06624000
H   0.72507000   -0.73387000   6.00229000
H   1.92486000   -1.51852000   8.74983000
H   1.98778000   -2.95651000   6.01224000
H   0.62276000   -3.71670000   8.68849000
H   0.68258000   -5.15672000   5.95429000
H   1.90634000   -5.93005000   8.69441000
C   0.74627000   0.71018000   7.62501000
C   2.02809000   1.43047000   7.19347000
C   3.26621000   0.68201000   7.70905000
C   4.55020000   1.40669000   7.26996000
C   5.79367000   0.66373000   7.78516000
C   7.07737000   1.39251000   7.34796000
H   0.66481000   0.71770000   8.73321000
H   3.23213000   0.67774000   8.82200000
H   5.76024000   0.65686000   8.89803000
H   2.05168000   1.50122000   6.08356000
H   4.58439000   1.47548000   6.15914000
H   7.11058000   1.46518000   6.23742000
C   7.02820000   5.86211000   7.17047000
C   5.74919000   5.12614000   7.63011000
C   4.49235000   5.87374000   7.12037000
H   7.04878000   5.88298000   6.05534000
C   5.75600000   3.66718000   7.10931000
H   5.72811000   5.10750000   8.74535000
C   4.48176000   2.93781000   7.56491000
C   3.22830000   3.67532000   7.06326000
C   3.21404000   5.13671000   7.58061000
H   5.77497000   3.67310000   5.99606000
H   4.51435000   5.89146000   6.00526000
H   3.19343000   5.12063000   8.69605000
H   3.24875000   3.67892000   5.94994000
H   4.46165000   2.87010000   8.67612000
C   7.01044000   2.92587000   7.60641000
H   6.99276000   2.85504000   8.71737000
C   1.94963000   5.87714000   7.07135000
C   1.95862000   2.94026000   7.51751000
C   0.68947000   5.11906000   7.53218000
C   0.70726000   3.67352000   7.02297000
H   1.96285000   5.88914000   5.95710000
H   0.62114000   5.11892000   8.64229000
H   0.68051000   3.66596000   5.91209000
H   1.92679000   2.87025000   8.62727000
C   12.08367000   -5.92690000   7.64090000
C   14.62218000   -5.93982000   7.69504000
C   13.36678000   -5.19173000   7.18474000
H   14.59917000   -5.96086000   8.81007000
H   14.67454000   -2.97832000   6.13998000
C   14.64738000   -2.99993000   7.25495000
C   13.36222000   -3.73497000   7.70660000
H   13.39153000   -5.17227000   6.06970000
C   12.10988000   -2.98651000   7.19029000
C   10.82275000   -3.71856000   7.64266000
C   10.82766000   -5.18169000   7.12664000
H   10.85501000   -5.16590000   6.01159000
H   12.05860000   -5.94452000   8.75587000
H   13.33473000   -3.75447000   8.82153000
H   12.13848000   -2.96853000   6.07538000
H   10.79560000   -3.73444000   8.75769000
C   12.10781000   -1.52940000   7.71155000
C   14.64405000   -1.54416000   7.78035000
C   13.39516000   -0.79472000   7.26300000
C   10.86105000   -0.77895000   7.19028000
H   12.07605000   -1.54759000   8.82639000
H   14.61436000   -1.56563000   8.89522000
H   10.89506000   -0.76228000   6.07518000
H   13.42649000   -0.77515000   6.14794000
C   9.56553000   -1.50623000   7.63632000
C   9.56672000   -2.96893000   7.12636000
C   9.54011000   -5.91796000   7.58071000
C   8.33757000   -0.73497000   7.11445000
C   8.29758000   -3.71526000   7.57891000
C   8.30265000   -5.15859000   7.06624000
H   8.32407000   -0.73387000   6.00229000
H   9.52386000   -1.51852000   8.74983000
H   9.58678000   -2.95651000   6.01224000
H   8.22176000   -3.71670000   8.68849000
H   8.28158000   -5.15672000   5.95429000
H   9.50534000   -5.93005000   8.69441000
C   8.34527000   0.71018000   7.62501000
C   9.62709000   1.43047000   7.19347000
C   10.86521000   0.68201000   7.70905000
C   12.14920000   1.40669000   7.26996000
C   13.39267000   0.66373000   7.78516000
C   14.67637000   1.39251000   7.34796000
H   8.26381000   0.71770000   8.73321000
H   10.83113000   0.67774000   8.82200000
H   13.35924000   0.65686000   8.89803000
H   9.65068000   1.50122000   6.08356000
H   12.18339000   1.47548000   6.15914000
H   14.70958000   1.46518000   6.23742000
C   14.62720000   5.86211000   7.17047000
C   13.34819000   5.12614000   7.63011000
C   12.09135000   5.87374000   7.12037000
H   14.64778000   5.88298000   6.05534000
C   13.35500000   3.66718000   7.10931000
H   13.32711000   5.10750000   8.74535000
C   12.08076000   2.93781000   7.56491000
C   10.82730000   3.67532000   7.06326000
C   10.81304000   5.13671000   7.58061000
H   13.37397000   3.67310000   5.99606000
H   12.11335000   5.89146000   6.00526000
H   10.79243000   5.12063000   8.69605000
H   10.84775000   3.67892000   5.94994000
H   12.06065000   2.87010000   8.67612000
C   14.60944000   2.92587000   7.60641000
H   14.59176000   2.85504000   8.71737000
C   9.54863000   5.87714000   7.07135000
C   9.55762000   2.94026000   7.51751000
C   8.28847000   5.11906000   7.53218000
C   8.30626000   3.67352000   7.02297000
H   9.56185000   5.88914000   5.95710000
H   8.22014000   5.11892000   8.64229000
H   8.27951000   3.66596000   5.91209000
H   9.52579000   2.87025000   8.62727000
N   -3.59061687   -0.69995904   3.08902117
C   -3.23261552   -0.66351260   4.57004291
H   -2.52774887   -1.45955150   4.73188586
H   -2.70490702   0.33947004   4.59304672
C   -4.45774128   -0.75631010   5.56975539
H   -5.03397014   0.18827565   5.31009272
H   -5.18632749   -1.55264520   5.23682356
C   -4.44874250   0.41952151   2.71227931
H   -4.88116872   0.43640612   1.69123214
H   -5.36955383   0.33056800   3.25922396
H   -3.94169454   1.34894024   2.97252023
C   -4.29234001   -1.96706961   2.72189472
H   -5.03817909   -2.26269794   3.32741063
H   -4.63920853   -1.84658028   1.68199268
H   -3.55312805   -2.81998511   2.76029702
C   -2.30800287   -0.50485516   2.36998394
H   -1.94559206   0.54305214   2.49418518
H   -1.60106187   -1.28837647   2.87739277
H   -2.42111740   -0.75836869   1.33091916
N   6.55459444   -0.95507873   3.19329542
C   6.33010670   -1.65682060   4.51197287
H   5.63273494   -2.53095545   4.32044268
H   7.28125785   -2.07911562   4.66229247
C   5.86425473   -0.64462355   5.56982566
H   6.50853101   0.19655805   5.32938696
H   4.87415788   -0.41641625   5.28028742
C   6.60646019   -2.04837217   2.04965769
H   5.81163696   -2.79772461   2.16111995
H   6.52583971   -1.48671452   1.11155870
H   7.57249136   -2.55330675   2.14690574
C   7.85395581   -0.22520143   3.14353617
H   8.70683570   -0.87255859   3.40010065
H   7.97156479   0.09935327   2.11866473
H   7.81076230   0.67029606   3.67587696
C   5.47381693   0.09976724   2.85692962
H   5.55731166   0.78757778   3.63160209
H   5.78972238   0.67806371   1.98204797
H   4.48575004   -0.29193581   2.76042813
O   14.11185386   6.26662498   -0.84099713
H   13.77954585   -6.55439034   -1.50739214
H   14.10263100   6.68455593   -0.00987177
O   1.10834216   -3.77714688   1.04789396
H   1.90555685   -4.03677611   0.55794987
H   -7.12702663   -0.65209234   3.28423823
O   -6.57721645   -4.91076912   -3.79966944
H   -6.20058217   -5.78835085   -4.03399825
H   -7.50591959   -5.00567870   -3.89168245
O   -4.36212329   6.34039284   -1.52499450
H   -5.12230350   6.31787368   -0.94673016
H   13.92167478   -4.38645305   1.55389987
O   -0.78604019   -6.46221083   -1.66357270
H   0.15310782   6.60306648   -1.56808313
H   -1.21353372   -6.40655080   -0.80495830
O   0.09838873   1.11996734   0.76146473
H   -0.43307550   1.90300260   0.99786529
H   -0.30736269   0.74694702   0.03316609
O   -10.91669211   -2.73706826   -1.05195958
H   0.98789892   -2.72459458   -1.52750976
H   -10.90450716   -3.60057284   -0.67852982
O   -3.53390973   2.42606712   0.31611034
H   -3.15350833   3.30085109   0.19610967
H   -3.57867278   2.17289236   -0.60230094
O   1.81195867   4.56231982   2.72784065
H   2.33434088   5.36469571   2.54196624
H   2.45162816   3.90656315   2.88735056
O   -7.33625034   1.03491880   1.40394592
H   -7.81374080   0.35714932   0.85468858
H   -8.01592384   1.42393545   1.93934488
O   13.92723197   0.33003545   2.95292377
H   14.83642264   0.69323939   2.93758013
H   13.44242371   1.07101864   3.39949691
O   -7.50751168   -1.24194305   3.96432452
H   -8.44750900   -1.35596211   3.60842162
H   -9.93968288   -2.50970189   -0.97839040
O   2.88147353   4.49700945   -1.60616078
H   2.99584112   5.37772492   -1.92407926
H   2.40360695   3.92151029   -2.13885617
O   9.92483594   -3.04912544   2.52150688
H   9.97822196   -3.98004310   2.18016185
H   10.56260875   -3.05176103   3.22280152
O   11.35839625   -5.49399588   4.09156998
H   11.29825602   -5.88968857   3.18573812
H   12.14003329   -4.92518515   4.06494295
O   -12.79511138   5.70576473   1.55093202
H   -13.65214437   5.98980990   1.77639345
H   -12.23495336   6.47945818   1.72711791
O   3.68957111   -3.35415012   2.81634099
H   3.24844508   -3.04047952   3.62585359
H   3.04175411   -3.60899840   2.14511525
O   7.43260323   4.39137294   1.16572461
H   7.79070300   4.29915518   0.26947385
H   6.78215471   3.71181623   1.29288416
O   -3.37328709   -1.09133469   -0.49705080
H   -3.92950816   -0.33685676   -0.71735788
H   -3.73932344   -1.78507087   -1.05531539
O   -8.52957746   -0.81265813   -0.54470414
H   -8.85224096   -0.62655856   -1.44193682
H   -7.81653105   -1.46237029   -0.66394454
O   2.79669572   0.91848155   1.82361954
H   1.85780421   0.75003326   1.92865121
H   2.78367338   1.67566257   1.21245548
O   12.26453549   3.97013198   -1.69726746
H   12.27316480   3.20388044   -1.10368636
H   12.91942706   4.61771606   -1.42882352
O   -3.64603573   -2.94559895   -3.08846037
H   -2.77723511   -2.75934644   -3.53623200
H   0.40075849   -4.38684197   0.94370337
O   -6.52771384   -3.17304876   -1.22668349
H   -6.45245904   -4.14554753   -1.11700707
H   -5.90867167   -2.98473933   -1.95302777
O   9.53042641   -4.85364357   0.66876474
H   8.78664146   -5.42350201   0.37325352
H   10.13850091   -5.53049836   1.07050547
O   -2.44451232   -4.79769836   2.43037513
H   -1.72770385   -4.93740901   3.05482534
H   -2.36442253   -5.38429862   1.74480547
O   1.00381412   0.36010359   -2.60892565
H   0.03260157   0.42025069   -2.27502121
H   1.11400783   1.17593261   -3.13180010
O   13.01195016   -4.26988583   1.63498383
H   12.34475279   1.26497904   -3.80760120
H   9.62968476   2.97790496   3.84309743
O   2.17594538   -6.28506251   -2.71239957
H   3.01060356   -5.81897595   -2.90539138
H   2.05819126   6.53570732   -3.43386435
O   -8.88840111   6.32903065   -0.29744238
H   -8.20476340   5.81238661   -0.68132011
H   -8.92504666   6.08928378   0.64519172
O   4.86097001   3.32447372   1.96742864
H   4.70207443   2.82669241   1.13910321
H   4.10372058   3.90255043   2.04231947
O   3.54734772   -1.53206190   0.43199960
H   3.91958203   -1.13781371   -0.38844552
H   3.15401551   -0.77686416   0.88055514
O   12.54108172   -4.48305514   -1.12683979
H   12.32882884   -4.23614430   -0.22576964
H   12.63327064   -5.15390933   1.89116594
O   13.68851504   -2.98338662   -3.38960188
H   12.73934343   -2.89763020   -3.66142148
H   14.08610053   -3.48879016   -4.10874788
O   13.06507809   0.81486365   -0.31290428
H   13.38389470   0.38754853   0.50331781
H   12.92841947   0.10627687   -0.90110848
O   7.83026260   -1.01934922   -2.43025517
H   8.44146466   -1.58217084   -2.01579658
H   7.88757918   -1.25093178   -3.36640782
O   -5.63769390   0.71271303   -1.02705147
H   -5.95280133   1.29820968   -0.28755209
H   -6.35238724   0.13717783   -1.32494797
O   -1.91205297   6.41502330   0.50539140
H   -2.76612729   5.95792577   0.36336497
H   -3.88216796   -3.86067770   -3.42438722
O   7.07141972   1.18361060   -0.40217684
H   7.02613651   1.80913185   -1.03604655
H   7.10162541   0.36786693   -0.93509953
O   -7.29657043   4.29385331   -1.75440599
H   -6.33085364   4.24448060   -1.69021050
H   -7.54817718   3.50448144   -2.28966365
O   14.65604747   0.03199751   -3.09084794
H   14.53743896   0.39688455   -2.23747879
H   14.18799576   -0.78983489   -3.11992738
O   11.51003955   1.64799802   -3.63731475
H   11.57898298   2.53127588   -4.01580337
H   -3.66790990   -6.44732074   -1.17388296
O   -2.09861996   5.34217275   3.06041667
H   -1.65336271   6.04325920   3.55863232
H   -1.93138495   5.56827131   2.09648461
O   4.28785043   1.33181835   -0.77942834
H   4.65239691   0.93800809   -1.53867893
H   3.92333442   2.20416897   -1.10268997
O   11.32788443   -6.53704982   1.59431884
H   13.43101206   -4.14175415   -1.20590813
H   11.54530766   -6.64863213   0.64593022
O   -2.04071942   3.73487683   -1.72126062
H   -1.25439860   3.60101624   -1.09372239
H   -2.26597610   4.67112403   -1.82570363
O   0.44164331   -3.05200063   3.57835564
H   -0.18674755   -3.78617769   3.54122615
H   1.03035604   -3.20305965   2.78888088
O   15.08924075   -3.73757478   -0.57468500
H   14.74712453   -2.94281613   -0.15943347
H   -14.61471257   -3.33661358   -1.13604746
O   14.79813770   3.60123209   1.11409339
H   -14.95637373   3.11493106   1.59878032
H   14.62432990   3.21231268   0.25947225
O   10.28822773   4.43883559   1.52906743
H   10.95396570   5.20176442   1.61070641
H   9.44561328   4.78415830   1.87577870
O   -14.15251310   2.08264304   3.00580977
H   -14.57050051   2.60464114   3.72538944
H   -13.36371582   2.56224825   2.76954476
O   0.32649685   -6.16700374   1.97409978
H   0.49342609   6.29906338   2.06614016
H   -0.38215197   -6.04170409   1.33387229
O   -10.61030305   -0.25751602   -2.36132858
H   -11.41621649   0.28656339   -2.35862117
H   -10.96532659   -1.15189640   -2.35169109
O   10.42330668   -5.27539900   -2.71356978
H   11.34468748   -5.55735945   -2.78047325
H   10.14914348   -4.85780802   -1.84545523
O   8.02780408   6.27830518   -2.32617136
H   8.13881557   5.34898927   -2.08084461
H   8.86337924   6.49529548   -2.75301905
O   -11.78084139   3.35721170   2.40605253
H   -11.53549540   2.82719994   1.67432610
H   -12.06543781   4.21905244   2.07494593
O   -4.66262004   5.08567269   3.92492942
H   -3.77799961   5.04362484   3.61727817
H   -5.09584267   5.87837346   3.68652165
O   6.25697446   -5.17033808   -0.88527524
H   6.94475862   -5.03118275   -0.19835939
H   6.86233647   -5.48805033   -1.60796458
O   -0.50680347   3.97957775   0.70727116
H   -0.87337090   4.91400279   0.55288714
H   -0.08851015   3.98554814   1.64226703
O   10.41755940   -1.97581737   -0.43423179
H   9.52604585   -2.39831922   -0.38240982
H   10.94601432   -2.25508185   0.34105407
O   4.03435028   -4.04443936   -2.95684978
H   4.86173735   -3.92899280   -3.43062611
H   3.67679074   -3.26792585   -2.53783917
O   13.86459532   -1.44672312   0.61301415
H   14.01333294   -1.02973954   1.48661947
H   13.21959175   -2.16290903   0.73707012
O   9.54003478   2.00583972   4.08653094
H   -14.98231244   3.94042794   -1.80441834
H   10.19728174   1.67531977   3.37981669
O   -1.71542737   2.68141307   3.41158528
H   -2.28158176   2.89883695   2.68049298
H   -1.77301816   3.42422708   4.02097149
O   6.32991780   -2.66677574   -3.88589420
H   5.63048571   -2.00837300   -3.66976489
H   6.69750332   -2.41440725   -4.72218827
O   -0.83263070   -4.03023633   -3.41125946
H   -0.71044005   -4.58155021   -2.60046281
H   -0.22251295   -3.26909866   -3.28822037
O   9.51944768   3.95725058   -1.27853543
H   10.26163235   3.76582615   -1.87794127
H   9.93083473   4.03850121   -0.35760608
O   -1.65213259   5.93932657   -4.20477154
H   -2.22480078   5.25268314   -3.77707416
H   -1.41368977   6.59301841   -3.49310872
O   3.53705060   -5.11212311   0.22056529
H   3.61870797   -5.20514524   -0.74581918
H   4.37546400   -4.74765112   0.46545371
O   6.52013622   -6.60955894   2.15830290
H   6.73658671   6.66623891   1.19002928
H   6.71490292   5.91175859   2.50207855
O   14.09525129   6.40545230   2.22592368
H   14.04768314   5.49901618   1.83392695
H   13.16617234   -6.69451373   2.11891952
O   0.43178334   3.43174980   -3.86820934
H   0.64313355   3.96179870   -4.63440047
H   -0.16953300   3.83006660   -3.25398968
O   12.97599860   3.24623480   3.61944001
H   12.51689914   4.09386328   3.37343281
H   12.72457505   3.02399130   4.56900686
O   3.67385897   6.49428671   2.58284057
H   3.65551734   -5.95947723   2.62617773
H   4.56110128   6.16184783   2.31084183
O   -5.85070782   2.62581632   -3.33409209
H   -5.18813319   3.32071160   -3.36466230
H   -5.37003564   1.80740371   -3.17913346
O   10.93081559   1.63148273   1.53556809
H   11.79406933   1.55794865   1.07929142
H   10.57407111   2.45672975   1.31070403
O   1.36946965   -2.31567555   -2.30240512
H   1.35914810   -1.38621941   -2.08628220
O   -15.15086665   3.45314123   -2.62531162
H   14.31246146   3.06851362   -2.65245141
