844

C   -10.71333000   -5.92690000   -7.35910000
C   -8.17482000   -5.93982000   -7.30496000
C   -9.43022000   -5.19173000   -7.81526000
H   -8.19783000   -5.96086000   -6.18993000
H   -8.12246000   -2.97832000   -8.86002000
C   -8.14962000   -2.99993000   -7.74505000
C   -9.43478000   -3.73497000   -7.29340000
H   -9.40547000   -5.17227000   -8.93030000
C   -10.68712000   -2.98651000   -7.80971000
C   -11.97425000   -3.71856000   -7.35734000
C   -11.96934000   -5.18169000   -7.87336000
H   -11.94199000   -5.16590000   -8.98841000
H   -10.73840000   -5.94452000   -6.24413000
H   -9.46227000   -3.75447000   -6.17847000
H   -10.65852000   -2.96853000   -8.92462000
H   -12.00140000   -3.73444000   -6.24231000
C   -10.68919000   -1.52940000   -7.28845000
C   -8.15295000   -1.54416000   -7.21965000
C   -9.40184000   -0.79472000   -7.73700000
C   -11.93595000   -0.77895000   -7.80972000
H   -10.72095000   -1.54759000   -6.17361000
H   -8.18264000   -1.56563000   -6.10478000
H   -11.90194000   -0.76228000   -8.92482000
H   -9.37051000   -0.77515000   -8.85206000
C   -13.23147000   -1.50623000   -7.36368000
C   -13.23028000   -2.96893000   -7.87364000
C   -13.25689000   -5.91796000   -7.41929000
C   -14.45943000   -0.73497000   -7.88555000
C   -14.49942000   -3.71526000   -7.42109000
C   -14.49435000   -5.15859000   -7.93376000
H   -14.47293000   -0.73387000   -8.99771000
H   -13.27314000   -1.51852000   -6.25017000
H   -13.21022000   -2.95651000   -8.98776000
H   -14.57524000   -3.71670000   -6.31151000
H   -14.51542000   -5.15672000   -9.04571000
H   -13.29166000   -5.93005000   -6.30559000
C   -14.45173000   0.71018000   -7.37499000
C   -13.16991000   1.43047000   -7.80653000
C   -11.93179000   0.68201000   -7.29095000
C   -10.64780000   1.40669000   -7.73004000
C   -9.40433000   0.66373000   -7.21484000
C   -8.12063000   1.39251000   -7.65204000
H   -14.53319000   0.71770000   -6.26679000
H   -11.96587000   0.67774000   -6.17800000
H   -9.43776000   0.65686000   -6.10197000
H   -13.14632000   1.50122000   -8.91644000
H   -10.61361000   1.47548000   -8.84086000
H   -8.08742000   1.46518000   -8.76258000
C   -8.16980000   5.86211000   -7.82953000
C   -9.44881000   5.12614000   -7.36989000
C   -10.70565000   5.87374000   -7.87963000
H   -8.14922000   5.88298000   -8.94466000
C   -9.44200000   3.66718000   -7.89069000
H   -9.46989000   5.10750000   -6.25465000
C   -10.71624000   2.93781000   -7.43509000
C   -11.96970000   3.67532000   -7.93674000
C   -11.98396000   5.13671000   -7.41939000
H   -9.42303000   3.67310000   -9.00394000
H   -10.68365000   5.89146000   -8.99474000
H   -12.00457000   5.12063000   -6.30395000
H   -11.94925000   3.67892000   -9.05006000
H   -10.73635000   2.87010000   -6.32388000
C   -8.18756000   2.92587000   -7.39359000
H   -8.20524000   2.85504000   -6.28263000
C   -13.24837000   5.87714000   -7.92865000
C   -13.23938000   2.94026000   -7.48249000
C   -14.50853000   5.11906000   -7.46782000
C   -14.49074000   3.67352000   -7.97703000
H   -13.23515000   5.88914000   -9.04290000
H   -14.57686000   5.11892000   -6.35771000
H   -14.51749000   3.66596000   -9.08791000
H   -13.27121000   2.87025000   -6.37273000
C   -3.11433000   -5.92690000   -7.35910000
C   -0.57582000   -5.93982000   -7.30496000
C   -1.83122000   -5.19173000   -7.81526000
H   -0.59883000   -5.96086000   -6.18993000
H   -0.52346000   -2.97832000   -8.86002000
C   -0.55062000   -2.99993000   -7.74505000
C   -1.83578000   -3.73497000   -7.29340000
H   -1.80647000   -5.17227000   -8.93030000
C   -3.08812000   -2.98651000   -7.80971000
C   -4.37525000   -3.71856000   -7.35734000
C   -4.37034000   -5.18169000   -7.87336000
H   -4.34299000   -5.16590000   -8.98841000
H   -3.13940000   -5.94452000   -6.24413000
H   -1.86327000   -3.75447000   -6.17847000
H   -3.05952000   -2.96853000   -8.92462000
H   -4.40240000   -3.73444000   -6.24231000
C   -3.09019000   -1.52940000   -7.28845000
C   -0.55395000   -1.54416000   -7.21965000
C   -1.80284000   -0.79472000   -7.73700000
C   -4.33695000   -0.77895000   -7.80972000
H   -3.12195000   -1.54759000   -6.17361000
H   -0.58364000   -1.56563000   -6.10478000
H   -4.30294000   -0.76228000   -8.92482000
H   -1.77151000   -0.77515000   -8.85206000
C   -5.63247000   -1.50623000   -7.36368000
C   -5.63128000   -2.96893000   -7.87364000
C   -5.65789000   -5.91796000   -7.41929000
C   -6.86043000   -0.73497000   -7.88555000
C   -6.90042000   -3.71526000   -7.42109000
C   -6.89535000   -5.15859000   -7.93376000
H   -6.87393000   -0.73387000   -8.99771000
H   -5.67414000   -1.51852000   -6.25017000
H   -5.61122000   -2.95651000   -8.98776000
H   -6.97624000   -3.71670000   -6.31151000
H   -6.91642000   -5.15672000   -9.04571000
H   -5.69266000   -5.93005000   -6.30559000
C   -6.85273000   0.71018000   -7.37499000
C   -5.57091000   1.43047000   -7.80653000
C   -4.33279000   0.68201000   -7.29095000
C   -3.04880000   1.40669000   -7.73004000
C   -1.80533000   0.66373000   -7.21484000
C   -0.52163000   1.39251000   -7.65204000
H   -6.93419000   0.71770000   -6.26679000
H   -4.36687000   0.67774000   -6.17800000
H   -1.83876000   0.65686000   -6.10197000
H   -5.54732000   1.50122000   -8.91644000
H   -3.01461000   1.47548000   -8.84086000
H   -0.48842000   1.46518000   -8.76258000
C   -0.57080000   5.86211000   -7.82953000
C   -1.84981000   5.12614000   -7.36989000
C   -3.10665000   5.87374000   -7.87963000
H   -0.55022000   5.88298000   -8.94466000
C   -1.84300000   3.66718000   -7.89069000
H   -1.87089000   5.10750000   -6.25465000
C   -3.11724000   2.93781000   -7.43509000
C   -4.37070000   3.67532000   -7.93674000
C   -4.38496000   5.13671000   -7.41939000
H   -1.82403000   3.67310000   -9.00394000
H   -3.08465000   5.89146000   -8.99474000
H   -4.40557000   5.12063000   -6.30395000
H   -4.35025000   3.67892000   -9.05006000
H   -3.13735000   2.87010000   -6.32388000
C   -0.58856000   2.92587000   -7.39359000
H   -0.60624000   2.85504000   -6.28263000
C   -5.64937000   5.87714000   -7.92865000
C   -5.64038000   2.94026000   -7.48249000
C   -6.90953000   5.11906000   -7.46782000
C   -6.89174000   3.67352000   -7.97703000
H   -5.63615000   5.88914000   -9.04290000
H   -6.97786000   5.11892000   -6.35771000
H   -6.91849000   3.66596000   -9.08791000
H   -5.67221000   2.87025000   -6.37273000
C   4.48467000   -5.92690000   -7.35910000
C   7.02318000   -5.93982000   -7.30496000
C   5.76778000   -5.19173000   -7.81526000
H   7.00017000   -5.96086000   -6.18993000
H   7.07554000   -2.97832000   -8.86002000
C   7.04838000   -2.99993000   -7.74505000
C   5.76322000   -3.73497000   -7.29340000
H   5.79253000   -5.17227000   -8.93030000
C   4.51088000   -2.98651000   -7.80971000
C   3.22375000   -3.71856000   -7.35734000
C   3.22866000   -5.18169000   -7.87336000
H   3.25601000   -5.16590000   -8.98841000
H   4.45960000   -5.94452000   -6.24413000
H   5.73573000   -3.75447000   -6.17847000
H   4.53948000   -2.96853000   -8.92462000
H   3.19660000   -3.73444000   -6.24231000
C   4.50881000   -1.52940000   -7.28845000
C   7.04505000   -1.54416000   -7.21965000
C   5.79616000   -0.79472000   -7.73700000
C   3.26205000   -0.77895000   -7.80972000
H   4.47705000   -1.54759000   -6.17361000
H   7.01536000   -1.56563000   -6.10478000
H   3.29606000   -0.76228000   -8.92482000
H   5.82749000   -0.77515000   -8.85206000
C   1.96653000   -1.50623000   -7.36368000
C   1.96772000   -2.96893000   -7.87364000
C   1.94111000   -5.91796000   -7.41929000
C   0.73857000   -0.73497000   -7.88555000
C   0.69858000   -3.71526000   -7.42109000
C   0.70365000   -5.15859000   -7.93376000
H   0.72507000   -0.73387000   -8.99771000
H   1.92486000   -1.51852000   -6.25017000
H   1.98778000   -2.95651000   -8.98776000
H   0.62276000   -3.71670000   -6.31151000
H   0.68258000   -5.15672000   -9.04571000
H   1.90634000   -5.93005000   -6.30559000
C   0.74627000   0.71018000   -7.37499000
C   2.02809000   1.43047000   -7.80653000
C   3.26621000   0.68201000   -7.29095000
C   4.55020000   1.40669000   -7.73004000
C   5.79367000   0.66373000   -7.21484000
C   7.07737000   1.39251000   -7.65204000
H   0.66481000   0.71770000   -6.26679000
H   3.23213000   0.67774000   -6.17800000
H   5.76024000   0.65686000   -6.10197000
H   2.05168000   1.50122000   -8.91644000
H   4.58439000   1.47548000   -8.84086000
H   7.11058000   1.46518000   -8.76258000
C   7.02820000   5.86211000   -7.82953000
C   5.74919000   5.12614000   -7.36989000
C   4.49235000   5.87374000   -7.87963000
H   7.04878000   5.88298000   -8.94466000
C   5.75600000   3.66718000   -7.89069000
H   5.72811000   5.10750000   -6.25465000
C   4.48176000   2.93781000   -7.43509000
C   3.22830000   3.67532000   -7.93674000
C   3.21404000   5.13671000   -7.41939000
H   5.77497000   3.67310000   -9.00394000
H   4.51435000   5.89146000   -8.99474000
H   3.19343000   5.12063000   -6.30395000
H   3.24875000   3.67892000   -9.05006000
H   4.46165000   2.87010000   -6.32388000
C   7.01044000   2.92587000   -7.39359000
H   6.99276000   2.85504000   -6.28263000
C   1.94963000   5.87714000   -7.92865000
C   1.95862000   2.94026000   -7.48249000
C   0.68947000   5.11906000   -7.46782000
C   0.70726000   3.67352000   -7.97703000
H   1.96285000   5.88914000   -9.04290000
H   0.62114000   5.11892000   -6.35771000
H   0.68051000   3.66596000   -9.08791000
H   1.92679000   2.87025000   -6.37273000
C   12.08367000   -5.92690000   -7.35910000
C   14.62218000   -5.93982000   -7.30496000
C   13.36678000   -5.19173000   -7.81526000
H   14.59917000   -5.96086000   -6.18993000
H   14.67454000   -2.97832000   -8.86002000
C   14.64738000   -2.99993000   -7.74505000
C   13.36222000   -3.73497000   -7.29340000
H   13.39153000   -5.17227000   -8.93030000
C   12.10988000   -2.98651000   -7.80971000
C   10.82275000   -3.71856000   -7.35734000
C   10.82766000   -5.18169000   -7.87336000
H   10.85501000   -5.16590000   -8.98841000
H   12.05860000   -5.94452000   -6.24413000
H   13.33473000   -3.75447000   -6.17847000
H   12.13848000   -2.96853000   -8.92462000
H   10.79560000   -3.73444000   -6.24231000
C   12.10781000   -1.52940000   -7.28845000
C   14.64405000   -1.54416000   -7.21965000
C   13.39516000   -0.79472000   -7.73700000
C   10.86105000   -0.77895000   -7.80972000
H   12.07605000   -1.54759000   -6.17361000
H   14.61436000   -1.56563000   -6.10478000
H   10.89506000   -0.76228000   -8.92482000
H   13.42649000   -0.77515000   -8.85206000
C   9.56553000   -1.50623000   -7.36368000
C   9.56672000   -2.96893000   -7.87364000
C   9.54011000   -5.91796000   -7.41929000
C   8.33757000   -0.73497000   -7.88555000
C   8.29758000   -3.71526000   -7.42109000
C   8.30265000   -5.15859000   -7.93376000
H   8.32407000   -0.73387000   -8.99771000
H   9.52386000   -1.51852000   -6.25017000
H   9.58678000   -2.95651000   -8.98776000
H   8.22176000   -3.71670000   -6.31151000
H   8.28158000   -5.15672000   -9.04571000
H   9.50534000   -5.93005000   -6.30559000
C   8.34527000   0.71018000   -7.37499000
C   9.62709000   1.43047000   -7.80653000
C   10.86521000   0.68201000   -7.29095000
C   12.14920000   1.40669000   -7.73004000
C   13.39267000   0.66373000   -7.21484000
C   14.67637000   1.39251000   -7.65204000
H   8.26381000   0.71770000   -6.26679000
H   10.83113000   0.67774000   -6.17800000
H   13.35924000   0.65686000   -6.10197000
H   9.65068000   1.50122000   -8.91644000
H   12.18339000   1.47548000   -8.84086000
H   14.70958000   1.46518000   -8.76258000
C   14.62720000   5.86211000   -7.82953000
C   13.34819000   5.12614000   -7.36989000
C   12.09135000   5.87374000   -7.87963000
H   14.64778000   5.88298000   -8.94466000
C   13.35500000   3.66718000   -7.89069000
H   13.32711000   5.10750000   -6.25465000
C   12.08076000   2.93781000   -7.43509000
C   10.82730000   3.67532000   -7.93674000
C   10.81304000   5.13671000   -7.41939000
H   13.37397000   3.67310000   -9.00394000
H   12.11335000   5.89146000   -8.99474000
H   10.79243000   5.12063000   -6.30395000
H   10.84775000   3.67892000   -9.05006000
H   12.06065000   2.87010000   -6.32388000
C   14.60944000   2.92587000   -7.39359000
H   14.59176000   2.85504000   -6.28263000
C   9.54863000   5.87714000   -7.92865000
C   9.55762000   2.94026000   -7.48249000
C   8.28847000   5.11906000   -7.46782000
C   8.30626000   3.67352000   -7.97703000
H   9.56185000   5.88914000   -9.04290000
H   8.22014000   5.11892000   -6.35771000
H   8.27951000   3.66596000   -9.08791000
H   9.52579000   2.87025000   -6.37273000
C   -10.71333000   -5.92690000   7.64090000
C   -8.17482000   -5.93982000   7.69504000
C   -9.43022000   -5.19173000   7.18474000
H   -8.19783000   -5.96086000   8.81007000
H   -8.12246000   -2.97832000   6.13998000
C   -8.14962000   -2.99993000   7.25495000
C   -9.43478000   -3.73497000   7.70660000
H   -9.40547000   -5.17227000   6.06970000
C   -10.68712000   -2.98651000   7.19029000
C   -11.97425000   -3.71856000   7.64266000
C   -11.96934000   -5.18169000   7.12664000
H   -11.94199000   -5.16590000   6.01159000
H   -10.73840000   -5.94452000   8.75587000
H   -9.46227000   -3.75447000   8.82153000
H   -10.65852000   -2.96853000   6.07538000
H   -12.00140000   -3.73444000   8.75769000
C   -10.68919000   -1.52940000   7.71155000
C   -8.15295000   -1.54416000   7.78035000
C   -9.40184000   -0.79472000   7.26300000
C   -11.93595000   -0.77895000   7.19028000
H   -10.72095000   -1.54759000   8.82639000
H   -8.18264000   -1.56563000   8.89522000
H   -11.90194000   -0.76228000   6.07518000
H   -9.37051000   -0.77515000   6.14794000
C   -13.23147000   -1.50623000   7.63632000
C   -13.23028000   -2.96893000   7.12636000
C   -13.25689000   -5.91796000   7.58071000
C   -14.45943000   -0.73497000   7.11445000
C   -14.49942000   -3.71526000   7.57891000
C   -14.49435000   -5.15859000   7.06624000
H   -14.47293000   -0.73387000   6.00229000
H   -13.27314000   -1.51852000   8.74983000
H   -13.21022000   -2.95651000   6.01224000
H   -14.57524000   -3.71670000   8.68849000
H   -14.51542000   -5.15672000   5.95429000
H   -13.29166000   -5.93005000   8.69441000
C   -14.45173000   0.71018000   7.62501000
C   -13.16991000   1.43047000   7.19347000
C   -11.93179000   0.68201000   7.70905000
C   -10.64780000   1.40669000   7.26996000
C   -9.40433000   0.66373000   7.78516000
C   -8.12063000   1.39251000   7.34796000
H   -14.53319000   0.71770000   8.73321000
H   -11.96587000   0.67774000   8.82200000
H   -9.43776000   0.65686000   8.89803000
H   -13.14632000   1.50122000   6.08356000
H   -10.61361000   1.47548000   6.15914000
H   -8.08742000   1.46518000   6.23742000
C   -8.16980000   5.86211000   7.17047000
C   -9.44881000   5.12614000   7.63011000
C   -10.70565000   5.87374000   7.12037000
H   -8.14922000   5.88298000   6.05534000
C   -9.44200000   3.66718000   7.10931000
H   -9.46989000   5.10750000   8.74535000
C   -10.71624000   2.93781000   7.56491000
C   -11.96970000   3.67532000   7.06326000
C   -11.98396000   5.13671000   7.58061000
H   -9.42303000   3.67310000   5.99606000
H   -10.68365000   5.89146000   6.00526000
H   -12.00457000   5.12063000   8.69605000
H   -11.94925000   3.67892000   5.94994000
H   -10.73635000   2.87010000   8.67612000
C   -8.18756000   2.92587000   7.60641000
H   -8.20524000   2.85504000   8.71737000
C   -13.24837000   5.87714000   7.07135000
C   -13.23938000   2.94026000   7.51751000
C   -14.50853000   5.11906000   7.53218000
C   -14.49074000   3.67352000   7.02297000
H   -13.23515000   5.88914000   5.95710000
H   -14.57686000   5.11892000   8.64229000
H   -14.51749000   3.66596000   5.91209000
H   -13.27121000   2.87025000   8.62727000
C   -3.11433000   -5.92690000   7.64090000
C   -0.57582000   -5.93982000   7.69504000
C   -1.83122000   -5.19173000   7.18474000
H   -0.59883000   -5.96086000   8.81007000
H   -0.52346000   -2.97832000   6.13998000
C   -0.55062000   -2.99993000   7.25495000
C   -1.83578000   -3.73497000   7.70660000
H   -1.80647000   -5.17227000   6.06970000
C   -3.08812000   -2.98651000   7.19029000
C   -4.37525000   -3.71856000   7.64266000
C   -4.37034000   -5.18169000   7.12664000
H   -4.34299000   -5.16590000   6.01159000
H   -3.13940000   -5.94452000   8.75587000
H   -1.86327000   -3.75447000   8.82153000
H   -3.05952000   -2.96853000   6.07538000
H   -4.40240000   -3.73444000   8.75769000
C   -3.09019000   -1.52940000   7.71155000
C   -0.55395000   -1.54416000   7.78035000
C   -1.80284000   -0.79472000   7.26300000
C   -4.33695000   -0.77895000   7.19028000
H   -3.12195000   -1.54759000   8.82639000
H   -0.58364000   -1.56563000   8.89522000
H   -1.77151000   -0.77515000   6.14794000
C   -5.63247000   -1.50623000   7.63632000
C   -5.63128000   -2.96893000   7.12636000
C   -5.65789000   -5.91796000   7.58071000
C   -6.86043000   -0.73497000   7.11445000
C   -6.90042000   -3.71526000   7.57891000
C   -6.89535000   -5.15859000   7.06624000
H   -6.87393000   -0.73387000   6.00229000
H   -5.67414000   -1.51852000   8.74983000
H   -5.61122000   -2.95651000   6.01224000
H   -6.97624000   -3.71670000   8.68849000
H   -6.91642000   -5.15672000   5.95429000
H   -5.69266000   -5.93005000   8.69441000
C   -6.85273000   0.71018000   7.62501000
C   -5.57091000   1.43047000   7.19347000
C   -4.33279000   0.68201000   7.70905000
C   -3.04880000   1.40669000   7.26996000
C   -1.80533000   0.66373000   7.78516000
C   -0.52163000   1.39251000   7.34796000
H   -6.93419000   0.71770000   8.73321000
H   -4.36687000   0.67774000   8.82200000
H   -1.83876000   0.65686000   8.89803000
H   -5.54732000   1.50122000   6.08356000
H   -3.01461000   1.47548000   6.15914000
H   -0.48842000   1.46518000   6.23742000
C   -0.57080000   5.86211000   7.17047000
C   -1.84981000   5.12614000   7.63011000
C   -3.10665000   5.87374000   7.12037000
H   -0.55022000   5.88298000   6.05534000
C   -1.84300000   3.66718000   7.10931000
H   -1.87089000   5.10750000   8.74535000
C   -3.11724000   2.93781000   7.56491000
C   -4.37070000   3.67532000   7.06326000
C   -4.38496000   5.13671000   7.58061000
H   -1.82403000   3.67310000   5.99606000
H   -3.08465000   5.89146000   6.00526000
H   -4.40557000   5.12063000   8.69605000
H   -4.35025000   3.67892000   5.94994000
H   -3.13735000   2.87010000   8.67612000
C   -0.58856000   2.92587000   7.60641000
H   -0.60624000   2.85504000   8.71737000
C   -5.64937000   5.87714000   7.07135000
C   -5.64038000   2.94026000   7.51751000
C   -6.90953000   5.11906000   7.53218000
C   -6.89174000   3.67352000   7.02297000
H   -5.63615000   5.88914000   5.95710000
H   -6.97786000   5.11892000   8.64229000
H   -6.91849000   3.66596000   5.91209000
H   -5.67221000   2.87025000   8.62727000
C   4.48467000   -5.92690000   7.64090000
C   7.02318000   -5.93982000   7.69504000
C   5.76778000   -5.19173000   7.18474000
H   7.00017000   -5.96086000   8.81007000
H   7.07554000   -2.97832000   6.13998000
C   7.04838000   -2.99993000   7.25495000
C   5.76322000   -3.73497000   7.70660000
H   5.79253000   -5.17227000   6.06970000
C   4.51088000   -2.98651000   7.19029000
C   3.22375000   -3.71856000   7.64266000
C   3.22866000   -5.18169000   7.12664000
H   3.25601000   -5.16590000   6.01159000
H   4.45960000   -5.94452000   8.75587000
H   5.73573000   -3.75447000   8.82153000
H   4.53948000   -2.96853000   6.07538000
H   3.19660000   -3.73444000   8.75769000
C   4.50881000   -1.52940000   7.71155000
C   7.04505000   -1.54416000   7.78035000
C   5.79616000   -0.79472000   7.26300000
C   3.26205000   -0.77895000   7.19028000
H   4.47705000   -1.54759000   8.82639000
H   7.01536000   -1.56563000   8.89522000
H   3.29606000   -0.76228000   6.07518000
C   1.96653000   -1.50623000   7.63632000
C   1.96772000   -2.96893000   7.12636000
C   1.94111000   -5.91796000   7.58071000
C   0.73857000   -0.73497000   7.11445000
C   0.69858000   -3.71526000   7.57891000
C   0.70365000   -5.15859000   7.06624000
H   0.72507000   -0.73387000   6.00229000
H   1.92486000   -1.51852000   8.74983000
H   1.98778000   -2.95651000   6.01224000
H   0.62276000   -3.71670000   8.68849000
H   0.68258000   -5.15672000   5.95429000
H   1.90634000   -5.93005000   8.69441000
C   0.74627000   0.71018000   7.62501000
C   2.02809000   1.43047000   7.19347000
C   3.26621000   0.68201000   7.70905000
C   4.55020000   1.40669000   7.26996000
C   5.79367000   0.66373000   7.78516000
C   7.07737000   1.39251000   7.34796000
H   0.66481000   0.71770000   8.73321000
H   3.23213000   0.67774000   8.82200000
H   5.76024000   0.65686000   8.89803000
H   2.05168000   1.50122000   6.08356000
H   4.58439000   1.47548000   6.15914000
H   7.11058000   1.46518000   6.23742000
C   7.02820000   5.86211000   7.17047000
C   5.74919000   5.12614000   7.63011000
C   4.49235000   5.87374000   7.12037000
H   7.04878000   5.88298000   6.05534000
C   5.75600000   3.66718000   7.10931000
H   5.72811000   5.10750000   8.74535000
C   4.48176000   2.93781000   7.56491000
C   3.22830000   3.67532000   7.06326000
C   3.21404000   5.13671000   7.58061000
H   5.77497000   3.67310000   5.99606000
H   4.51435000   5.89146000   6.00526000
H   3.19343000   5.12063000   8.69605000
H   3.24875000   3.67892000   5.94994000
H   4.46165000   2.87010000   8.67612000
C   7.01044000   2.92587000   7.60641000
H   6.99276000   2.85504000   8.71737000
C   1.94963000   5.87714000   7.07135000
C   1.95862000   2.94026000   7.51751000
C   0.68947000   5.11906000   7.53218000
C   0.70726000   3.67352000   7.02297000
H   1.96285000   5.88914000   5.95710000
H   0.62114000   5.11892000   8.64229000
H   0.68051000   3.66596000   5.91209000
H   1.92679000   2.87025000   8.62727000
C   12.08367000   -5.92690000   7.64090000
C   14.62218000   -5.93982000   7.69504000
C   13.36678000   -5.19173000   7.18474000
H   14.59917000   -5.96086000   8.81007000
H   14.67454000   -2.97832000   6.13998000
C   14.64738000   -2.99993000   7.25495000
C   13.36222000   -3.73497000   7.70660000
H   13.39153000   -5.17227000   6.06970000
C   12.10988000   -2.98651000   7.19029000
C   10.82275000   -3.71856000   7.64266000
C   10.82766000   -5.18169000   7.12664000
H   10.85501000   -5.16590000   6.01159000
H   12.05860000   -5.94452000   8.75587000
H   13.33473000   -3.75447000   8.82153000
H   12.13848000   -2.96853000   6.07538000
H   10.79560000   -3.73444000   8.75769000
C   12.10781000   -1.52940000   7.71155000
C   14.64405000   -1.54416000   7.78035000
C   13.39516000   -0.79472000   7.26300000
C   10.86105000   -0.77895000   7.19028000
H   12.07605000   -1.54759000   8.82639000
H   14.61436000   -1.56563000   8.89522000
H   10.89506000   -0.76228000   6.07518000
H   13.42649000   -0.77515000   6.14794000
C   9.56553000   -1.50623000   7.63632000
C   9.56672000   -2.96893000   7.12636000
C   9.54011000   -5.91796000   7.58071000
C   8.33757000   -0.73497000   7.11445000
C   8.29758000   -3.71526000   7.57891000
C   8.30265000   -5.15859000   7.06624000
H   8.32407000   -0.73387000   6.00229000
H   9.52386000   -1.51852000   8.74983000
H   9.58678000   -2.95651000   6.01224000
H   8.22176000   -3.71670000   8.68849000
H   8.28158000   -5.15672000   5.95429000
H   9.50534000   -5.93005000   8.69441000
C   8.34527000   0.71018000   7.62501000
C   9.62709000   1.43047000   7.19347000
C   10.86521000   0.68201000   7.70905000
C   12.14920000   1.40669000   7.26996000
C   13.39267000   0.66373000   7.78516000
C   14.67637000   1.39251000   7.34796000
H   8.26381000   0.71770000   8.73321000
H   10.83113000   0.67774000   8.82200000
H   13.35924000   0.65686000   8.89803000
H   9.65068000   1.50122000   6.08356000
H   12.18339000   1.47548000   6.15914000
H   14.70958000   1.46518000   6.23742000
C   14.62720000   5.86211000   7.17047000
C   13.34819000   5.12614000   7.63011000
C   12.09135000   5.87374000   7.12037000
H   14.64778000   5.88298000   6.05534000
C   13.35500000   3.66718000   7.10931000
H   13.32711000   5.10750000   8.74535000
C   12.08076000   2.93781000   7.56491000
C   10.82730000   3.67532000   7.06326000
C   10.81304000   5.13671000   7.58061000
H   13.37397000   3.67310000   5.99606000
H   12.11335000   5.89146000   6.00526000
H   10.79243000   5.12063000   8.69605000
H   10.84775000   3.67892000   5.94994000
H   12.06065000   2.87010000   8.67612000
C   14.60944000   2.92587000   7.60641000
H   14.59176000   2.85504000   8.71737000
C   9.54863000   5.87714000   7.07135000
C   9.55762000   2.94026000   7.51751000
C   8.28847000   5.11906000   7.53218000
C   8.30626000   3.67352000   7.02297000
H   9.56185000   5.88914000   5.95710000
H   8.22014000   5.11892000   8.64229000
H   8.27951000   3.66596000   5.91209000
H   9.52579000   2.87025000   8.62727000
N   -4.49072355   -1.24164183   2.99639567
C   -4.88009499   -1.62616527   4.63533638
H   -5.99080950   -1.70568765   4.55778884
H   -4.41017779   -2.63387605   4.67829360
C   -4.20808882   -0.68513770   5.60345052
H   -3.15134727   -0.82289224   5.28705590
H   -4.49334306   0.31637456   5.31470500
C   -5.18398520   -2.24170696   2.17475240
H   -4.73004434   -3.26756201   2.45757151
H   -6.26291738   -2.40008319   2.40084353
H   -5.09477904   -2.25985985   1.12239026
C   -3.00967019   -1.49512594   2.82290062
H   -2.77011860   -2.51198357   2.95826683
H   -2.80427898   -1.28725344   1.77098884
H   -2.44885880   -0.73583057   3.40598077
C   -4.80212367   0.21747541   2.78091774
H   -5.73401353   0.47229808   3.19606174
H   -4.07356237   0.75688186   3.30617388
H   -4.92516449   0.30725281   1.72607112
N   5.88311018   -0.16144555   3.18189540
C   6.30969547   0.20574016   4.62669062
H   7.35919403   0.31537296   4.52826553
H   5.97919138   1.22479262   4.75534294
C   5.79674832   -0.89198591   5.60844980
H   4.80075698   -0.96253719   5.32661896
H   6.29229011   -1.79165262   5.34470612
C   6.03698572   -1.58861011   2.94218003
H   5.19060677   -1.99022228   3.52519280
H   5.95742891   -1.75321384   1.89085448
H   7.06193371   -1.74642742   3.25715554
C   6.67221856   0.72767195   2.20692905
H   6.37179170   1.74420435   2.35141399
H   7.72385438   0.73533511   2.47651250
H   6.40662611   0.38196233   1.16046368
C   4.46901051   0.28709939   2.89854152
H   3.72744346   -0.53994787   3.15113613
H   4.23979921   1.17623346   3.55635599
H   4.32866965   0.42624917   1.80828391
O   -3.71759416   6.09176767   0.33843868
H   -4.64142614   6.29744664   0.16757188
H   -3.26116650   6.36668474   -0.52262921
O   -12.10721452   -1.90115310   1.56945976
H   -11.91867389   -2.36772479   0.66634084
H   14.53997808   -5.05992309   -1.97523491
O   -6.75876564   -3.94581068   -2.22883193
H   -6.76928612   -4.93820109   -2.20996992
H   -7.68721762   -3.72610917   -2.09714853
O   -3.70118592   4.61185955   3.28328172
H   -3.57833338   4.96572056   2.41625945
H   -4.65555866   4.39325711   3.18076185
O   -4.70335895   5.81205088   -3.38696328
H   -4.73357576   4.88127176   -3.58356392
H   -5.36251188   5.89783617   -2.67188791
O   10.82908124   4.19940944   3.71117201
H   11.61206988   4.21161807   3.20460643
H   10.15777470   3.76480474   3.19595695
O   -7.40019633   -3.53745447   0.98973262
H   -8.07305251   0.49025925   0.40520572
H   -7.03609179   -3.86224859   0.12229886
O   13.10685588   -4.19039234   -0.18843063
H   12.51452381   -3.86478374   0.52698913
H   13.97784786   -3.84377921   0.11325276
O   -14.37629773   4.11480096   2.55433670
H   -14.39271820   4.95073637   2.97235720
H   -13.96337374   4.38076644   1.71344661
O   -14.43989977   -1.26214549   2.86512757
H   -15.02989734   -2.05084380   2.89987645
H   -13.67496885   -1.67317781   2.50516239
O   -14.61569004   -2.58962602   -0.28523991
H   -14.22379265   -1.65483624   -0.31300854
H   -13.85978654   -3.21990979   -0.20978563
O   14.74016571   -5.87720418   -1.53649285
H   14.30561052   -5.70231958   -0.71475903
H   -8.39935768   -3.72419232   0.97452196
O   -2.27840814   2.06733442   3.58646413
H   -2.72056808   2.93119155   3.49208928
H   -1.34210651   2.13104149   3.29881419
O   -7.45693838   -5.34870352   3.29589820
H   -7.30060722   -4.82227440   2.47333520
H   -8.37486935   -5.21692195   3.52738112
O   -11.04002762   1.80474259   0.11299656
H   -11.25405258   1.16166211   0.77396103
H   -10.70064826   2.53228528   0.61090817
O   -7.48837793   6.57556317   -2.05637902
H   2.61627656   3.17753447   -1.88615495
H   -7.86891043   6.68792897   -1.15724170
O   -12.69980373   1.28557404   2.76903674
H   -13.32423090   0.61842369   3.10627518
H   -13.18248456   1.98401100   2.37604205
O   1.39590280   -0.64108912   3.72077984
H   1.27448277   -1.15084658   2.91310038
H   1.16423481   0.24334726   3.39159605
O   -6.47622381   3.74484005   2.91174231
H   -6.42423994   3.93191509   1.95377350
H   -7.22442127   3.08036940   2.95646951
O   11.16967791   -1.80799513   3.84202962
H   10.33648852   -1.21987246   3.88123275
H   11.87021007   -1.32123439   3.35997622
O   -3.00088069   0.02739685   -0.57504866
H   -3.51124930   -0.59536665   -1.09378940
H   -2.04646280   -0.17056717   -0.79929163
O   2.60125638   -4.59772443   0.80265166
H   2.15925224   -3.96505330   0.20768448
H   2.48969913   -5.41770850   0.20991121
O   -4.51026517   -5.26975443   3.80128033
H   -5.44084232   -5.07019631   3.79369608
H   -4.37838480   -6.18840477   3.56526478
O   -10.93735080   -5.74086097   2.85824083
H   -10.23988117   -6.41123773   3.16060890
H   -10.71227009   -5.27066794   2.04734100
O   -12.30533036   -4.13913969   -0.40342966
H   -12.30095999   -5.00000379   -0.83557754
H   -11.39786943   -4.04814837   -0.05914050
O   -3.14110879   1.89029068   -2.79755817
H   -2.36696009   1.55553002   -3.25070173
H   -3.19066471   1.69554944   -1.84603959
O   4.58955752   5.28839430   -0.38395110
H   3.82732061   4.99947958   -0.86130928
H   4.59437174   4.73884898   0.39493106
O   2.34044321   4.14069633   -1.90915484
H   2.21918637   4.33053596   -2.84946100
H   8.33433457   0.38749549   0.29895914
O   -3.89850934   -4.23859371   -3.10903195
H   -4.10717674   -5.00480146   -2.54813170
H   -4.11851484   -3.45527428   -2.54009874
O   8.51754255   -3.29039581   3.20374585
H   8.43768575   -4.14424752   2.75066762
H   9.22717226   -3.40167840   3.84479096
O   1.75489996   -0.69925046   -2.57127549
H   2.61953439   -0.84079225   -2.13848519
H   1.85076447   -0.81387421   -3.54179107
O   -15.18194036   -5.36179986   1.70447960
H   -8.14726025   -6.58905215   -2.67246449
H   -14.81872113   -4.62785551   1.16585619
O   -9.11002217   -6.62639637   0.31666079
H   -9.39488777   -5.68622329   0.44102739
H   -9.81588371   6.31130728   -0.20235380
O   9.02454361   -6.03161147   2.31502018
H   9.94695836   -5.97051119   2.10017202
H   8.50755318   -6.27117658   1.50942722
O   0.03041380   0.75719986   -1.12546385
H   0.76788223   1.03428074   -1.65098489
H   -0.16469719   -0.15739234   -1.14930255
O   1.59769285   6.36664251   -0.52695930
H   1.92306496   6.05411896   -1.39094582
H   1.04843484   5.62572535   -0.17643127
O   12.69015767   3.82778353   -4.49780429
H   11.95942513   3.25392736   -4.16597964
H   13.48730869   3.41799539   -4.23983016
O   -0.02353158   3.67799642   0.07979511
H   -0.95621952   3.38365000   -0.06002848
H   0.40694658   3.63699992   -0.78801150
O   -9.43571079   -2.96301690   -1.42547473
H   -9.16190906   -2.15077826   -0.92784983
H   -9.55177950   -3.56446896   -0.61701006
O   12.18187971   -6.15934123   3.82341358
H   11.70360526   6.42822750   4.08964484
H   12.94238747   -6.37902959   3.36581853
O   7.50838134   2.47623360   -3.07954778
H   6.92194702   2.35744021   -3.80499827
H   6.99831901   2.12228648   -2.29907450
O   -10.00163398   -4.22673834   0.82189237
H   -10.48510629   -3.72788044   1.52054964
H   -7.79247431   5.30423223   0.12117649
O   -11.44614408   -3.88431951   -3.37241116
H   -10.92090804   -3.13708950   -3.07806894
H   -11.81907507   -4.16196454   -2.56425728
O   12.64256459   5.63695733   -1.69005542
H   12.99651414   4.80825691   -1.87817234
H   13.35979295   6.22805201   -1.87256734
O   13.36380126   -3.67574354   3.08049052
H   12.54844102   -3.61430304   3.59666636
H   13.33726468   -4.50234188   2.53134870
O   9.52143509   2.83071328   1.52881815
H   9.73967083   1.94468761   1.21925100
H   9.18204035   3.32684661   0.71753863
O   11.27025959   -6.68530387   -4.16626809
H   10.73919733   6.27591253   -4.82763056
H   11.62392758   5.98052225   -3.66825757
O   9.77195803   -2.57167469   -0.11101651
H   -11.58418737   -1.11074098   1.43801129
H   8.93676194   -2.50374294   0.30657446
O   0.47793432   2.73807981   2.71141497
H   0.04970539   3.57778970   2.91821201
H   0.63048853   2.63301375   1.70285693
O   13.60491373   2.21408060   -1.36541839
H   14.06778288   3.04609730   -1.15433615
H   13.21342661   1.92933107   -0.48902061
O   -11.60951301   5.20156443   -1.10063631
H   -11.86569129   4.57864333   -1.81893006
H   -12.39262940   5.74299608   -0.91284775
O   -0.68484660   -5.56727448   0.43065297
H   -1.17116591   -6.32577844   0.71804229
H   0.07875247   -5.96347543   0.03204867
O   3.62589120   1.48305149   -2.00885478
H   4.41691917   1.50863770   -2.55877755
H   3.88984892   0.92234094   -1.27430974
O   6.70379688   4.53215371   1.64549006
H   7.46237060   4.04426850   2.01210629
H   6.99633527   4.74753076   0.73381652
O   10.83501672   -4.38566834   -2.17557987
H   11.05984811   -5.04996861   -2.91294649
H   11.65064049   -4.32717862   -1.67595962
O   10.45218702   2.14824562   -3.21516520
H   10.51750361   1.51082533   -2.47746567
H   9.51757143   2.20470281   -3.35726107
O   -0.50713431   -2.02704908   0.62659858
H   -0.23082431   -2.56498007   1.36666565
H   0.20095764   -1.35328555   0.47588949
O   3.72418767   5.96772751   -3.79507054
H   4.31752189   6.63174827   -4.14034229
H   4.07866023   5.54845874   -3.01441622
O   0.47287465   -4.02149988   2.60367265
H   1.40301979   -4.03675591   2.49964677
H   0.32649244   -4.57938558   1.84008857
O   2.05097000   -0.31919130   0.59417032
H   3.01561481   -0.38264692   0.54103305
H   1.88183300   0.48741224   0.15764120
O   5.13816599   -4.41992898   2.30398947
H   5.35090111   -5.40150602   2.19429061
H   4.29938527   -4.18670355   1.87926113
O   -13.08045338   3.32332770   -2.71215972
H   -12.83487918   3.15767104   -3.66004957
H   -12.88151476   2.46131754   -2.25554689
O   4.76047472   0.11334294   0.02056203
H   -9.52414797   4.06332422   3.20940512
H   4.91880646   -0.84965898   -0.21439749
O   -5.36560120   -1.58878175   -1.56727429
H   -5.49815173   -0.83308487   -2.15839638
H   -5.61152061   -2.35706896   -2.06567317
O   -2.26229100   6.53977145   -1.93359201
H   -1.79979808   -6.05508750   -1.97076075
H   -2.81158921   6.46573256   -2.70605978
O   7.97312038   4.83837354   -1.65635386
H   8.74002743   4.43487569   -1.12910146
H   7.34768910   4.14511552   -1.80366913
O   -7.19590247   4.54349056   0.13610060
H   -6.91074100   4.30780820   -0.74932513
H   -14.75513277   -5.12235226   2.55802531
O   10.82131190   4.12080412   -0.49827593
H   11.08256506   3.74722439   -1.35634391
H   11.26159063   5.02273485   -0.56179541
O   9.26540145   0.15113144   0.31479324
H   9.71218683   -3.17674664   -0.91868143
H   9.41639461   -0.77008332   -0.09814718
O   -14.00298751   0.05549617   -0.10993683
H   -13.79546778   -0.19917155   0.77909677
H   -15.00701707   0.02982434   -0.23940782
O   -13.00136562   6.27608720   1.57309757
H   -13.72543187   -6.59952471   1.97367784
H   -12.30991402   -6.45310957   1.65368870
O   -13.55020309   -4.06908850   3.49401870
H   -12.84721509   -4.72788843   3.63883406
H   -13.34561092   -3.38280899   4.12375646
O   10.27905101   -1.26846585   -3.19796863
H   10.40524783   -2.21671252   -3.12329119
H   9.49551048   -1.11675770   -3.77851663
O   13.36878830   2.98550671   2.74355768
H   14.22871914   3.41627303   2.65763025
H   13.46290288   2.68064961   3.70976216
O   6.96673123   0.59360000   -1.19697267
H   6.89110231   -0.15316522   -1.87817219
H   6.12973480   0.55655793   -0.64139324
O   8.33599431   -5.98381201   -0.47830887
H   8.17525491   6.49411269   -0.74851336
H   8.85414510   -5.59449143   -1.16087257
O   -7.61878646   -0.24193177   0.82228673
H   -7.62830488   -0.97732805   0.20851758
O   -9.33917793   3.74256339   2.38111143
H   -9.35857597   4.49326232   1.74399644
