844

C   -10.71333000   -5.92690000   -7.35910000
C   -8.17482000   -5.93982000   -7.30496000
C   -9.43022000   -5.19173000   -7.81526000
H   -8.19783000   -5.96086000   -6.18993000
H   -8.12246000   -2.97832000   -8.86002000
C   -8.14962000   -2.99993000   -7.74505000
C   -9.43478000   -3.73497000   -7.29340000
H   -9.40547000   -5.17227000   -8.93030000
C   -10.68712000   -2.98651000   -7.80971000
C   -11.97425000   -3.71856000   -7.35734000
C   -11.96934000   -5.18169000   -7.87336000
H   -11.94199000   -5.16590000   -8.98841000
H   -10.73840000   -5.94452000   -6.24413000
H   -9.46227000   -3.75447000   -6.17847000
H   -10.65852000   -2.96853000   -8.92462000
H   -12.00140000   -3.73444000   -6.24231000
C   -10.68919000   -1.52940000   -7.28845000
C   -8.15295000   -1.54416000   -7.21965000
C   -9.40184000   -0.79472000   -7.73700000
C   -11.93595000   -0.77895000   -7.80972000
H   -10.72095000   -1.54759000   -6.17361000
H   -8.18264000   -1.56563000   -6.10478000
H   -11.90194000   -0.76228000   -8.92482000
H   -9.37051000   -0.77515000   -8.85206000
C   -13.23147000   -1.50623000   -7.36368000
C   -13.23028000   -2.96893000   -7.87364000
C   -13.25689000   -5.91796000   -7.41929000
C   -14.45943000   -0.73497000   -7.88555000
C   -14.49942000   -3.71526000   -7.42109000
C   -14.49435000   -5.15859000   -7.93376000
H   -14.47293000   -0.73387000   -8.99771000
H   -13.27314000   -1.51852000   -6.25017000
H   -13.21022000   -2.95651000   -8.98776000
H   -14.57524000   -3.71670000   -6.31151000
H   -14.51542000   -5.15672000   -9.04571000
H   -13.29166000   -5.93005000   -6.30559000
C   -14.45173000   0.71018000   -7.37499000
C   -13.16991000   1.43047000   -7.80653000
C   -11.93179000   0.68201000   -7.29095000
C   -10.64780000   1.40669000   -7.73004000
C   -9.40433000   0.66373000   -7.21484000
C   -8.12063000   1.39251000   -7.65204000
H   -14.53319000   0.71770000   -6.26679000
H   -11.96587000   0.67774000   -6.17800000
H   -9.43776000   0.65686000   -6.10197000
H   -13.14632000   1.50122000   -8.91644000
H   -10.61361000   1.47548000   -8.84086000
H   -8.08742000   1.46518000   -8.76258000
C   -8.16980000   5.86211000   -7.82953000
C   -9.44881000   5.12614000   -7.36989000
C   -10.70565000   5.87374000   -7.87963000
H   -8.14922000   5.88298000   -8.94466000
C   -9.44200000   3.66718000   -7.89069000
H   -9.46989000   5.10750000   -6.25465000
C   -10.71624000   2.93781000   -7.43509000
C   -11.96970000   3.67532000   -7.93674000
C   -11.98396000   5.13671000   -7.41939000
H   -9.42303000   3.67310000   -9.00394000
H   -10.68365000   5.89146000   -8.99474000
H   -12.00457000   5.12063000   -6.30395000
H   -11.94925000   3.67892000   -9.05006000
H   -10.73635000   2.87010000   -6.32388000
C   -8.18756000   2.92587000   -7.39359000
H   -8.20524000   2.85504000   -6.28263000
C   -13.24837000   5.87714000   -7.92865000
C   -13.23938000   2.94026000   -7.48249000
C   -14.50853000   5.11906000   -7.46782000
C   -14.49074000   3.67352000   -7.97703000
H   -13.23515000   5.88914000   -9.04290000
H   -14.57686000   5.11892000   -6.35771000
H   -14.51749000   3.66596000   -9.08791000
H   -13.27121000   2.87025000   -6.37273000
C   -3.11433000   -5.92690000   -7.35910000
C   -0.57582000   -5.93982000   -7.30496000
C   -1.83122000   -5.19173000   -7.81526000
H   -0.59883000   -5.96086000   -6.18993000
H   -0.52346000   -2.97832000   -8.86002000
C   -0.55062000   -2.99993000   -7.74505000
C   -1.83578000   -3.73497000   -7.29340000
H   -1.80647000   -5.17227000   -8.93030000
C   -3.08812000   -2.98651000   -7.80971000
C   -4.37525000   -3.71856000   -7.35734000
C   -4.37034000   -5.18169000   -7.87336000
H   -4.34299000   -5.16590000   -8.98841000
H   -3.13940000   -5.94452000   -6.24413000
H   -1.86327000   -3.75447000   -6.17847000
H   -3.05952000   -2.96853000   -8.92462000
H   -4.40240000   -3.73444000   -6.24231000
C   -3.09019000   -1.52940000   -7.28845000
C   -0.55395000   -1.54416000   -7.21965000
C   -1.80284000   -0.79472000   -7.73700000
C   -4.33695000   -0.77895000   -7.80972000
H   -3.12195000   -1.54759000   -6.17361000
H   -0.58364000   -1.56563000   -6.10478000
H   -4.30294000   -0.76228000   -8.92482000
H   -1.77151000   -0.77515000   -8.85206000
C   -5.63247000   -1.50623000   -7.36368000
C   -5.63128000   -2.96893000   -7.87364000
C   -5.65789000   -5.91796000   -7.41929000
C   -6.86043000   -0.73497000   -7.88555000
C   -6.90042000   -3.71526000   -7.42109000
C   -6.89535000   -5.15859000   -7.93376000
H   -6.87393000   -0.73387000   -8.99771000
H   -5.67414000   -1.51852000   -6.25017000
H   -5.61122000   -2.95651000   -8.98776000
H   -6.97624000   -3.71670000   -6.31151000
H   -6.91642000   -5.15672000   -9.04571000
H   -5.69266000   -5.93005000   -6.30559000
C   -6.85273000   0.71018000   -7.37499000
C   -5.57091000   1.43047000   -7.80653000
C   -4.33279000   0.68201000   -7.29095000
C   -3.04880000   1.40669000   -7.73004000
C   -1.80533000   0.66373000   -7.21484000
C   -0.52163000   1.39251000   -7.65204000
H   -6.93419000   0.71770000   -6.26679000
H   -4.36687000   0.67774000   -6.17800000
H   -1.83876000   0.65686000   -6.10197000
H   -5.54732000   1.50122000   -8.91644000
H   -3.01461000   1.47548000   -8.84086000
H   -0.48842000   1.46518000   -8.76258000
C   -0.57080000   5.86211000   -7.82953000
C   -1.84981000   5.12614000   -7.36989000
C   -3.10665000   5.87374000   -7.87963000
H   -0.55022000   5.88298000   -8.94466000
C   -1.84300000   3.66718000   -7.89069000
H   -1.87089000   5.10750000   -6.25465000
C   -3.11724000   2.93781000   -7.43509000
C   -4.37070000   3.67532000   -7.93674000
C   -4.38496000   5.13671000   -7.41939000
H   -1.82403000   3.67310000   -9.00394000
H   -3.08465000   5.89146000   -8.99474000
H   -4.40557000   5.12063000   -6.30395000
H   -4.35025000   3.67892000   -9.05006000
H   -3.13735000   2.87010000   -6.32388000
C   -0.58856000   2.92587000   -7.39359000
H   -0.60624000   2.85504000   -6.28263000
C   -5.64937000   5.87714000   -7.92865000
C   -5.64038000   2.94026000   -7.48249000
C   -6.90953000   5.11906000   -7.46782000
C   -6.89174000   3.67352000   -7.97703000
H   -5.63615000   5.88914000   -9.04290000
H   -6.97786000   5.11892000   -6.35771000
H   -6.91849000   3.66596000   -9.08791000
H   -5.67221000   2.87025000   -6.37273000
C   4.48467000   -5.92690000   -7.35910000
C   7.02318000   -5.93982000   -7.30496000
C   5.76778000   -5.19173000   -7.81526000
H   7.00017000   -5.96086000   -6.18993000
H   7.07554000   -2.97832000   -8.86002000
C   7.04838000   -2.99993000   -7.74505000
C   5.76322000   -3.73497000   -7.29340000
H   5.79253000   -5.17227000   -8.93030000
C   4.51088000   -2.98651000   -7.80971000
C   3.22375000   -3.71856000   -7.35734000
C   3.22866000   -5.18169000   -7.87336000
H   3.25601000   -5.16590000   -8.98841000
H   4.45960000   -5.94452000   -6.24413000
H   5.73573000   -3.75447000   -6.17847000
H   4.53948000   -2.96853000   -8.92462000
H   3.19660000   -3.73444000   -6.24231000
C   4.50881000   -1.52940000   -7.28845000
C   7.04505000   -1.54416000   -7.21965000
C   5.79616000   -0.79472000   -7.73700000
C   3.26205000   -0.77895000   -7.80972000
H   4.47705000   -1.54759000   -6.17361000
H   7.01536000   -1.56563000   -6.10478000
H   3.29606000   -0.76228000   -8.92482000
H   5.82749000   -0.77515000   -8.85206000
C   1.96653000   -1.50623000   -7.36368000
C   1.96772000   -2.96893000   -7.87364000
C   1.94111000   -5.91796000   -7.41929000
C   0.73857000   -0.73497000   -7.88555000
C   0.69858000   -3.71526000   -7.42109000
C   0.70365000   -5.15859000   -7.93376000
H   0.72507000   -0.73387000   -8.99771000
H   1.92486000   -1.51852000   -6.25017000
H   1.98778000   -2.95651000   -8.98776000
H   0.62276000   -3.71670000   -6.31151000
H   0.68258000   -5.15672000   -9.04571000
H   1.90634000   -5.93005000   -6.30559000
C   0.74627000   0.71018000   -7.37499000
C   2.02809000   1.43047000   -7.80653000
C   3.26621000   0.68201000   -7.29095000
C   4.55020000   1.40669000   -7.73004000
C   5.79367000   0.66373000   -7.21484000
C   7.07737000   1.39251000   -7.65204000
H   0.66481000   0.71770000   -6.26679000
H   3.23213000   0.67774000   -6.17800000
H   5.76024000   0.65686000   -6.10197000
H   2.05168000   1.50122000   -8.91644000
H   4.58439000   1.47548000   -8.84086000
H   7.11058000   1.46518000   -8.76258000
C   7.02820000   5.86211000   -7.82953000
C   5.74919000   5.12614000   -7.36989000
C   4.49235000   5.87374000   -7.87963000
H   7.04878000   5.88298000   -8.94466000
C   5.75600000   3.66718000   -7.89069000
H   5.72811000   5.10750000   -6.25465000
C   4.48176000   2.93781000   -7.43509000
C   3.22830000   3.67532000   -7.93674000
C   3.21404000   5.13671000   -7.41939000
H   5.77497000   3.67310000   -9.00394000
H   4.51435000   5.89146000   -8.99474000
H   3.19343000   5.12063000   -6.30395000
H   3.24875000   3.67892000   -9.05006000
H   4.46165000   2.87010000   -6.32388000
C   7.01044000   2.92587000   -7.39359000
H   6.99276000   2.85504000   -6.28263000
C   1.94963000   5.87714000   -7.92865000
C   1.95862000   2.94026000   -7.48249000
C   0.68947000   5.11906000   -7.46782000
C   0.70726000   3.67352000   -7.97703000
H   1.96285000   5.88914000   -9.04290000
H   0.62114000   5.11892000   -6.35771000
H   0.68051000   3.66596000   -9.08791000
H   1.92679000   2.87025000   -6.37273000
C   12.08367000   -5.92690000   -7.35910000
C   14.62218000   -5.93982000   -7.30496000
C   13.36678000   -5.19173000   -7.81526000
H   14.59917000   -5.96086000   -6.18993000
H   14.67454000   -2.97832000   -8.86002000
C   14.64738000   -2.99993000   -7.74505000
C   13.36222000   -3.73497000   -7.29340000
H   13.39153000   -5.17227000   -8.93030000
C   12.10988000   -2.98651000   -7.80971000
C   10.82275000   -3.71856000   -7.35734000
C   10.82766000   -5.18169000   -7.87336000
H   10.85501000   -5.16590000   -8.98841000
H   12.05860000   -5.94452000   -6.24413000
H   13.33473000   -3.75447000   -6.17847000
H   12.13848000   -2.96853000   -8.92462000
H   10.79560000   -3.73444000   -6.24231000
C   12.10781000   -1.52940000   -7.28845000
C   14.64405000   -1.54416000   -7.21965000
C   13.39516000   -0.79472000   -7.73700000
C   10.86105000   -0.77895000   -7.80972000
H   12.07605000   -1.54759000   -6.17361000
H   14.61436000   -1.56563000   -6.10478000
H   10.89506000   -0.76228000   -8.92482000
H   13.42649000   -0.77515000   -8.85206000
C   9.56553000   -1.50623000   -7.36368000
C   9.56672000   -2.96893000   -7.87364000
C   9.54011000   -5.91796000   -7.41929000
C   8.33757000   -0.73497000   -7.88555000
C   8.29758000   -3.71526000   -7.42109000
C   8.30265000   -5.15859000   -7.93376000
H   8.32407000   -0.73387000   -8.99771000
H   9.52386000   -1.51852000   -6.25017000
H   9.58678000   -2.95651000   -8.98776000
H   8.22176000   -3.71670000   -6.31151000
H   8.28158000   -5.15672000   -9.04571000
H   9.50534000   -5.93005000   -6.30559000
C   8.34527000   0.71018000   -7.37499000
C   9.62709000   1.43047000   -7.80653000
C   10.86521000   0.68201000   -7.29095000
C   12.14920000   1.40669000   -7.73004000
C   13.39267000   0.66373000   -7.21484000
C   14.67637000   1.39251000   -7.65204000
H   8.26381000   0.71770000   -6.26679000
H   10.83113000   0.67774000   -6.17800000
H   13.35924000   0.65686000   -6.10197000
H   9.65068000   1.50122000   -8.91644000
H   12.18339000   1.47548000   -8.84086000
H   14.70958000   1.46518000   -8.76258000
C   14.62720000   5.86211000   -7.82953000
C   13.34819000   5.12614000   -7.36989000
C   12.09135000   5.87374000   -7.87963000
H   14.64778000   5.88298000   -8.94466000
C   13.35500000   3.66718000   -7.89069000
H   13.32711000   5.10750000   -6.25465000
C   12.08076000   2.93781000   -7.43509000
C   10.82730000   3.67532000   -7.93674000
C   10.81304000   5.13671000   -7.41939000
H   13.37397000   3.67310000   -9.00394000
H   12.11335000   5.89146000   -8.99474000
H   10.79243000   5.12063000   -6.30395000
H   10.84775000   3.67892000   -9.05006000
H   12.06065000   2.87010000   -6.32388000
C   14.60944000   2.92587000   -7.39359000
H   14.59176000   2.85504000   -6.28263000
C   9.54863000   5.87714000   -7.92865000
C   9.55762000   2.94026000   -7.48249000
C   8.28847000   5.11906000   -7.46782000
C   8.30626000   3.67352000   -7.97703000
H   9.56185000   5.88914000   -9.04290000
H   8.22014000   5.11892000   -6.35771000
H   8.27951000   3.66596000   -9.08791000
H   9.52579000   2.87025000   -6.37273000
C   -10.71333000   -5.92690000   7.64090000
C   -8.17482000   -5.93982000   7.69504000
C   -9.43022000   -5.19173000   7.18474000
H   -8.19783000   -5.96086000   8.81007000
H   -8.12246000   -2.97832000   6.13998000
C   -8.14962000   -2.99993000   7.25495000
C   -9.43478000   -3.73497000   7.70660000
H   -9.40547000   -5.17227000   6.06970000
C   -10.68712000   -2.98651000   7.19029000
C   -11.97425000   -3.71856000   7.64266000
C   -11.96934000   -5.18169000   7.12664000
H   -11.94199000   -5.16590000   6.01159000
H   -10.73840000   -5.94452000   8.75587000
H   -9.46227000   -3.75447000   8.82153000
H   -10.65852000   -2.96853000   6.07538000
H   -12.00140000   -3.73444000   8.75769000
C   -10.68919000   -1.52940000   7.71155000
C   -8.15295000   -1.54416000   7.78035000
C   -9.40184000   -0.79472000   7.26300000
C   -11.93595000   -0.77895000   7.19028000
H   -10.72095000   -1.54759000   8.82639000
H   -8.18264000   -1.56563000   8.89522000
H   -11.90194000   -0.76228000   6.07518000
H   -9.37051000   -0.77515000   6.14794000
C   -13.23147000   -1.50623000   7.63632000
C   -13.23028000   -2.96893000   7.12636000
C   -13.25689000   -5.91796000   7.58071000
C   -14.45943000   -0.73497000   7.11445000
C   -14.49942000   -3.71526000   7.57891000
C   -14.49435000   -5.15859000   7.06624000
H   -14.47293000   -0.73387000   6.00229000
H   -13.27314000   -1.51852000   8.74983000
H   -13.21022000   -2.95651000   6.01224000
H   -14.57524000   -3.71670000   8.68849000
H   -14.51542000   -5.15672000   5.95429000
H   -13.29166000   -5.93005000   8.69441000
C   -14.45173000   0.71018000   7.62501000
C   -13.16991000   1.43047000   7.19347000
C   -11.93179000   0.68201000   7.70905000
C   -10.64780000   1.40669000   7.26996000
C   -9.40433000   0.66373000   7.78516000
C   -8.12063000   1.39251000   7.34796000
H   -14.53319000   0.71770000   8.73321000
H   -11.96587000   0.67774000   8.82200000
H   -9.43776000   0.65686000   8.89803000
H   -13.14632000   1.50122000   6.08356000
H   -10.61361000   1.47548000   6.15914000
H   -8.08742000   1.46518000   6.23742000
C   -8.16980000   5.86211000   7.17047000
C   -9.44881000   5.12614000   7.63011000
C   -10.70565000   5.87374000   7.12037000
H   -8.14922000   5.88298000   6.05534000
C   -9.44200000   3.66718000   7.10931000
H   -9.46989000   5.10750000   8.74535000
C   -10.71624000   2.93781000   7.56491000
C   -11.96970000   3.67532000   7.06326000
C   -11.98396000   5.13671000   7.58061000
H   -9.42303000   3.67310000   5.99606000
H   -10.68365000   5.89146000   6.00526000
H   -12.00457000   5.12063000   8.69605000
H   -11.94925000   3.67892000   5.94994000
H   -10.73635000   2.87010000   8.67612000
C   -8.18756000   2.92587000   7.60641000
H   -8.20524000   2.85504000   8.71737000
C   -13.24837000   5.87714000   7.07135000
C   -13.23938000   2.94026000   7.51751000
C   -14.50853000   5.11906000   7.53218000
C   -14.49074000   3.67352000   7.02297000
H   -13.23515000   5.88914000   5.95710000
H   -14.57686000   5.11892000   8.64229000
H   -14.51749000   3.66596000   5.91209000
H   -13.27121000   2.87025000   8.62727000
C   -3.11433000   -5.92690000   7.64090000
C   -0.57582000   -5.93982000   7.69504000
C   -1.83122000   -5.19173000   7.18474000
H   -0.59883000   -5.96086000   8.81007000
H   -0.52346000   -2.97832000   6.13998000
C   -0.55062000   -2.99993000   7.25495000
C   -1.83578000   -3.73497000   7.70660000
H   -1.80647000   -5.17227000   6.06970000
C   -3.08812000   -2.98651000   7.19029000
C   -4.37525000   -3.71856000   7.64266000
C   -4.37034000   -5.18169000   7.12664000
H   -4.34299000   -5.16590000   6.01159000
H   -3.13940000   -5.94452000   8.75587000
H   -1.86327000   -3.75447000   8.82153000
H   -3.05952000   -2.96853000   6.07538000
H   -4.40240000   -3.73444000   8.75769000
C   -3.09019000   -1.52940000   7.71155000
C   -0.55395000   -1.54416000   7.78035000
C   -1.80284000   -0.79472000   7.26300000
C   -4.33695000   -0.77895000   7.19028000
H   -3.12195000   -1.54759000   8.82639000
H   -0.58364000   -1.56563000   8.89522000
H   -1.77151000   -0.77515000   6.14794000
C   -5.63247000   -1.50623000   7.63632000
C   -5.63128000   -2.96893000   7.12636000
C   -5.65789000   -5.91796000   7.58071000
C   -6.86043000   -0.73497000   7.11445000
C   -6.90042000   -3.71526000   7.57891000
C   -6.89535000   -5.15859000   7.06624000
H   -6.87393000   -0.73387000   6.00229000
H   -5.67414000   -1.51852000   8.74983000
H   -5.61122000   -2.95651000   6.01224000
H   -6.97624000   -3.71670000   8.68849000
H   -6.91642000   -5.15672000   5.95429000
H   -5.69266000   -5.93005000   8.69441000
C   -6.85273000   0.71018000   7.62501000
C   -5.57091000   1.43047000   7.19347000
C   -4.33279000   0.68201000   7.70905000
C   -3.04880000   1.40669000   7.26996000
C   -1.80533000   0.66373000   7.78516000
C   -0.52163000   1.39251000   7.34796000
H   -6.93419000   0.71770000   8.73321000
H   -4.36687000   0.67774000   8.82200000
H   -1.83876000   0.65686000   8.89803000
H   -5.54732000   1.50122000   6.08356000
H   -3.01461000   1.47548000   6.15914000
H   -0.48842000   1.46518000   6.23742000
C   -0.57080000   5.86211000   7.17047000
C   -1.84981000   5.12614000   7.63011000
C   -3.10665000   5.87374000   7.12037000
H   -0.55022000   5.88298000   6.05534000
C   -1.84300000   3.66718000   7.10931000
H   -1.87089000   5.10750000   8.74535000
C   -3.11724000   2.93781000   7.56491000
C   -4.37070000   3.67532000   7.06326000
C   -4.38496000   5.13671000   7.58061000
H   -1.82403000   3.67310000   5.99606000
H   -3.08465000   5.89146000   6.00526000
H   -4.40557000   5.12063000   8.69605000
H   -4.35025000   3.67892000   5.94994000
H   -3.13735000   2.87010000   8.67612000
C   -0.58856000   2.92587000   7.60641000
H   -0.60624000   2.85504000   8.71737000
C   -5.64937000   5.87714000   7.07135000
C   -5.64038000   2.94026000   7.51751000
C   -6.90953000   5.11906000   7.53218000
C   -6.89174000   3.67352000   7.02297000
H   -5.63615000   5.88914000   5.95710000
H   -6.97786000   5.11892000   8.64229000
H   -6.91849000   3.66596000   5.91209000
H   -5.67221000   2.87025000   8.62727000
C   4.48467000   -5.92690000   7.64090000
C   7.02318000   -5.93982000   7.69504000
C   5.76778000   -5.19173000   7.18474000
H   7.00017000   -5.96086000   8.81007000
H   7.07554000   -2.97832000   6.13998000
C   7.04838000   -2.99993000   7.25495000
C   5.76322000   -3.73497000   7.70660000
H   5.79253000   -5.17227000   6.06970000
C   4.51088000   -2.98651000   7.19029000
C   3.22375000   -3.71856000   7.64266000
C   3.22866000   -5.18169000   7.12664000
H   3.25601000   -5.16590000   6.01159000
H   4.45960000   -5.94452000   8.75587000
H   5.73573000   -3.75447000   8.82153000
H   4.53948000   -2.96853000   6.07538000
H   3.19660000   -3.73444000   8.75769000
C   4.50881000   -1.52940000   7.71155000
C   7.04505000   -1.54416000   7.78035000
C   5.79616000   -0.79472000   7.26300000
C   3.26205000   -0.77895000   7.19028000
H   4.47705000   -1.54759000   8.82639000
H   7.01536000   -1.56563000   8.89522000
H   3.29606000   -0.76228000   6.07518000
C   1.96653000   -1.50623000   7.63632000
C   1.96772000   -2.96893000   7.12636000
C   1.94111000   -5.91796000   7.58071000
C   0.73857000   -0.73497000   7.11445000
C   0.69858000   -3.71526000   7.57891000
C   0.70365000   -5.15859000   7.06624000
H   0.72507000   -0.73387000   6.00229000
H   1.92486000   -1.51852000   8.74983000
H   1.98778000   -2.95651000   6.01224000
H   0.62276000   -3.71670000   8.68849000
H   0.68258000   -5.15672000   5.95429000
H   1.90634000   -5.93005000   8.69441000
C   0.74627000   0.71018000   7.62501000
C   2.02809000   1.43047000   7.19347000
C   3.26621000   0.68201000   7.70905000
C   4.55020000   1.40669000   7.26996000
C   5.79367000   0.66373000   7.78516000
C   7.07737000   1.39251000   7.34796000
H   0.66481000   0.71770000   8.73321000
H   3.23213000   0.67774000   8.82200000
H   5.76024000   0.65686000   8.89803000
H   2.05168000   1.50122000   6.08356000
H   4.58439000   1.47548000   6.15914000
H   7.11058000   1.46518000   6.23742000
C   7.02820000   5.86211000   7.17047000
C   5.74919000   5.12614000   7.63011000
C   4.49235000   5.87374000   7.12037000
H   7.04878000   5.88298000   6.05534000
C   5.75600000   3.66718000   7.10931000
H   5.72811000   5.10750000   8.74535000
C   4.48176000   2.93781000   7.56491000
C   3.22830000   3.67532000   7.06326000
C   3.21404000   5.13671000   7.58061000
H   5.77497000   3.67310000   5.99606000
H   4.51435000   5.89146000   6.00526000
H   3.19343000   5.12063000   8.69605000
H   3.24875000   3.67892000   5.94994000
H   4.46165000   2.87010000   8.67612000
C   7.01044000   2.92587000   7.60641000
H   6.99276000   2.85504000   8.71737000
C   1.94963000   5.87714000   7.07135000
C   1.95862000   2.94026000   7.51751000
C   0.68947000   5.11906000   7.53218000
C   0.70726000   3.67352000   7.02297000
H   1.96285000   5.88914000   5.95710000
H   0.62114000   5.11892000   8.64229000
H   0.68051000   3.66596000   5.91209000
H   1.92679000   2.87025000   8.62727000
C   12.08367000   -5.92690000   7.64090000
C   14.62218000   -5.93982000   7.69504000
C   13.36678000   -5.19173000   7.18474000
H   14.59917000   -5.96086000   8.81007000
H   14.67454000   -2.97832000   6.13998000
C   14.64738000   -2.99993000   7.25495000
C   13.36222000   -3.73497000   7.70660000
H   13.39153000   -5.17227000   6.06970000
C   12.10988000   -2.98651000   7.19029000
C   10.82275000   -3.71856000   7.64266000
C   10.82766000   -5.18169000   7.12664000
H   10.85501000   -5.16590000   6.01159000
H   12.05860000   -5.94452000   8.75587000
H   13.33473000   -3.75447000   8.82153000
H   12.13848000   -2.96853000   6.07538000
H   10.79560000   -3.73444000   8.75769000
C   12.10781000   -1.52940000   7.71155000
C   14.64405000   -1.54416000   7.78035000
C   13.39516000   -0.79472000   7.26300000
C   10.86105000   -0.77895000   7.19028000
H   12.07605000   -1.54759000   8.82639000
H   14.61436000   -1.56563000   8.89522000
H   10.89506000   -0.76228000   6.07518000
H   13.42649000   -0.77515000   6.14794000
C   9.56553000   -1.50623000   7.63632000
C   9.56672000   -2.96893000   7.12636000
C   9.54011000   -5.91796000   7.58071000
C   8.33757000   -0.73497000   7.11445000
C   8.29758000   -3.71526000   7.57891000
C   8.30265000   -5.15859000   7.06624000
H   8.32407000   -0.73387000   6.00229000
H   9.52386000   -1.51852000   8.74983000
H   9.58678000   -2.95651000   6.01224000
H   8.22176000   -3.71670000   8.68849000
H   8.28158000   -5.15672000   5.95429000
H   9.50534000   -5.93005000   8.69441000
C   8.34527000   0.71018000   7.62501000
C   9.62709000   1.43047000   7.19347000
C   10.86521000   0.68201000   7.70905000
C   12.14920000   1.40669000   7.26996000
C   13.39267000   0.66373000   7.78516000
C   14.67637000   1.39251000   7.34796000
H   8.26381000   0.71770000   8.73321000
H   10.83113000   0.67774000   8.82200000
H   13.35924000   0.65686000   8.89803000
H   9.65068000   1.50122000   6.08356000
H   12.18339000   1.47548000   6.15914000
H   14.70958000   1.46518000   6.23742000
C   14.62720000   5.86211000   7.17047000
C   13.34819000   5.12614000   7.63011000
C   12.09135000   5.87374000   7.12037000
H   14.64778000   5.88298000   6.05534000
C   13.35500000   3.66718000   7.10931000
H   13.32711000   5.10750000   8.74535000
C   12.08076000   2.93781000   7.56491000
C   10.82730000   3.67532000   7.06326000
C   10.81304000   5.13671000   7.58061000
H   13.37397000   3.67310000   5.99606000
H   12.11335000   5.89146000   6.00526000
H   10.79243000   5.12063000   8.69605000
H   10.84775000   3.67892000   5.94994000
H   12.06065000   2.87010000   8.67612000
C   14.60944000   2.92587000   7.60641000
H   14.59176000   2.85504000   8.71737000
C   9.54863000   5.87714000   7.07135000
C   9.55762000   2.94026000   7.51751000
C   8.28847000   5.11906000   7.53218000
C   8.30626000   3.67352000   7.02297000
H   9.56185000   5.88914000   5.95710000
H   8.22014000   5.11892000   8.64229000
H   8.27951000   3.66596000   5.91209000
H   9.52579000   2.87025000   8.62727000
N   -4.11686422   -0.15576482   3.02125027
C   -3.93405629   0.22398476   4.46128478
H   -2.93706232   0.69098772   4.54759472
H   -4.62493015   1.07425264   4.63345088
C   -4.31474819   -0.86818946   5.47789746
H   -5.27287375   -1.21750996   5.11492999
H   -3.51170280   -1.61999977   5.26806413
C   -3.83753332   1.03315141   2.20287851
H   -2.83805038   1.42329886   2.53846791
H   -3.83869467   0.64489530   1.14919382
H   -4.51560256   1.80111758   2.51332570
C   -5.58735896   -0.58948135   2.83894104
H   -6.14477599   0.06028912   3.51179478
H   -5.91750969   -0.64356221   1.77615307
H   -5.64278872   -1.53287263   3.31368820
C   -3.25211518   -1.32063546   2.51838569
H   -3.47929223   -2.20845674   3.06601940
H   -3.36195097   -1.37633649   1.45436662
H   -2.21932948   -1.12889778   2.80373090
N   6.23898754   -1.21595418   3.16583892
C   6.31747842   -1.73507789   4.69268657
H   5.80659692   -2.68096184   4.73221052
H   7.43688198   -1.95062030   4.81146059
C   5.77000252   -0.66619424   5.66415293
H   6.33306099   0.21064586   5.34636268
H   4.75193111   -0.44277813   5.31089037
C   6.97044215   0.04480031   3.00344743
H   7.99829671   0.03763253   3.41898691
H   7.06208041   0.25475126   1.97809108
H   6.34077762   0.89595198   3.44218291
C   4.74991144   -0.96726803   2.73022456
H   4.43210751   -2.07488175   2.68757815
H   4.23034496   -0.42130335   3.45044317
H   4.72739197   -0.57153288   1.70103516
C   6.92741006   -2.18923049   2.23197407
H   7.95573889   -2.13299028   2.44880117
H   6.58065510   -3.21527624   2.42020269
H   6.74055804   -1.96295381   1.13436890
O   -14.25052183   -6.68375460   1.54021446
H   -14.70937988   -6.21000290   0.79089545
H   -14.43425140   5.75541090   1.48453362
O   8.98000906   -5.70568104   -0.54482161
H   8.13787920   -6.21893928   -0.70786612
H   3.05694316   2.39884183   -1.14541823
O   -10.27147539   6.29437966   3.11725761
H   -10.73433008   -6.40677261   2.66007637
H   -9.62384335   -6.66920077   3.72056857
O   2.45806034   4.40751612   0.31918036
H   2.28761968   4.50130156   -0.66257614
H   3.48314468   4.62558741   0.37154009
O   14.62331374   0.46675069   1.95216115
H   14.40814237   0.12394747   1.07912495
H   14.47955500   1.44891025   1.83534847
O   6.11414669   2.98680946   3.44875007
H   5.28563228   3.22037235   3.90209081
H   6.49117175   3.73009153   3.01441427
O   4.19838406   -4.89187345   3.09323496
H   2.55835000   3.09745390   4.37450232
H   4.81308779   -4.92877619   2.30166041
O   9.14558682   2.40388378   0.18323376
H   9.28426276   1.58899911   0.66963045
H   8.50382272   2.87176988   0.68555946
O   -10.91713892   0.98351733   2.65594840
H   -10.85735100   0.81236265   3.60183163
H   9.68293357   -6.33254352   -0.38229544
O   -4.47426444   -4.29399326   -4.16737520
H   -9.27353767   -4.61891164   0.80861329
H   -4.87573438   -4.76228442   -4.92301503
O   -2.86393895   -5.89680175   -0.44238064
H   -1.89845069   -5.98312407   -0.47917587
H   -3.03023806   -6.51407373   0.34716151
O   2.97761656   2.08514847   -2.05814198
H   2.92621659   2.79771632   -2.66436445
H   3.31298649   -5.20591511   2.92767170
O   2.43000336   -3.49829114   -2.38084956
H   -9.37878882   -5.87476427   -2.07487150
H   2.97849972   -4.30285157   -2.36403024
O   7.06197335   5.87831807   -1.40342299
H   6.61294973   5.39628451   -2.14939753
H   6.28576032   5.85470397   -0.69953571
O   -10.17748587   -1.34235429   -0.61095625
H   -11.10970573   -1.33285271   -0.41845429
H   -10.21918587   -1.73243048   -1.52019889
O   -9.82104654   3.36456676   -0.64678583
H   -9.55363419   4.24870531   -0.18249641
H   -9.28307849   3.39390081   -1.43900951
O   -8.43525436   -4.18896889   0.93912666
H   -7.87866668   -4.95029477   0.83518501
H   8.27134056   -0.00529759   0.17460161
O   -10.99720163   3.62622412   1.91538634
H   -10.88069283   4.42992653   2.42488389
H   -10.53775248   3.69074782   1.03324068
O   3.28657360   4.79197917   3.16935429
H   4.08491315   5.29652631   3.02874416
H   2.69701343   5.28592749   2.56761399
O   4.14342169   -1.05367483   -0.46922029
H   4.83049966   -1.29299136   -1.02389168
H   3.65743743   -0.43577037   -0.96057168
O   6.36206812   -5.56451099   0.60954406
H   6.77392414   -5.24620488   -0.17487598
H   5.73414196   -6.21672179   0.33556221
O   3.90502347   1.94512546   1.51621535
H   4.84705508   2.12296052   1.70942059
H   3.53900835   2.85307620   1.22433648
O   -3.17226310   -2.11491044   -2.60101001
H   -3.51765573   -2.21343702   -3.50289352
H   -3.24609135   -2.97918569   -2.14997525
O   -1.56878057   -6.32999376   2.79387351
H   -1.53722877   6.09738274   2.74557647
H   -2.43581410   -6.08814007   2.33597885
O   -2.66883175   -3.97442529   4.11187859
H   -2.70565245   -3.92436118   3.14963233
H   -2.13088613   -4.82294186   4.23674804
O   -7.06555690   -6.55679291   0.17882558
H   -7.84802553   6.22538246   0.23245490
H   -6.38202950   6.52453759   0.74308005
O   11.11821027   5.78773010   -0.01857990
H   11.38832369   6.47324002   -0.62673803
H   11.71194150   5.98385407   0.74527167
O   7.34302792   0.09338980   0.09991581
H   7.10704483   0.95052258   -0.20717509
H   -1.40138423   1.90159629   -0.15208662
O   4.49644711   -0.27504226   -2.95766461
H   3.99251474   -0.74538119   -3.62019936
H   4.56004515   0.65148300   -3.11718729
O   -6.50704795   4.21392611   1.21967050
H   -6.11028323   3.47288814   0.69141418
H   -7.49871033   4.22330236   1.11578676
O   0.25755333   -4.87260993   -1.01213504
H   0.79490873   -4.31473151   -1.59971502
H   -0.55271401   -4.41525858   -0.60488546
O   9.96947412   -3.31853734   -2.26888122
H   10.81088817   -2.84681332   -2.28757126
H   10.08171026   -4.21693614   -1.84181652
O   7.37775362   4.50996962   1.27933391
H   -12.36912788   4.88812733   -0.65230762
H   6.52534562   4.52320578   0.87832230
O   -12.36051317   -6.39168858   -2.27331382
H   -11.89592992   -6.07403438   -1.47907248
H   -13.22073799   6.68233310   -1.90694013
O   0.50712519   3.60296583   2.27901141
H   0.31183672   4.42707292   2.76213890
H   1.32408146   3.77019450   1.73458461
O   -14.00422138   3.21801220   -3.16658337
H   -13.52168518   3.27759783   -2.30484758
H   -13.46987569   3.69383531   -3.78608621
O   -9.98795617   -5.05613152   -4.26553566
H   -10.40162210   -4.49199486   -3.59278328
H   -10.63818803   -5.65720374   -4.54425531
O   -4.46594773   0.07659382   -0.53024970
H   -4.33183530   -0.41047757   -1.30639584
H   -4.39383695   1.01853129   -0.75864259
O   -11.38266462   -3.81800584   -0.20300918
H   -11.68391109   -4.76796380   -0.13996025
H   -10.50172132   -3.93830381   -0.61104924
O   4.01011332   4.76896507   -2.40383279
H   4.23912257   4.86072861   -1.48151485
H   3.93711336   5.59133480   -2.92075863
O   -8.41785518   3.54725596   3.91206206
H   -7.85566598   3.38749557   3.13485013
H   -9.33633138   3.56452467   3.59708988
O   1.65705200   -6.36677789   1.29254483
H   1.39274325   -5.71549353   0.60368808
H   2.01819674   6.29745654   0.74593140
O   -9.45581721   -5.51994927   -1.21371205
H   7.98685054   4.76207413   0.60730660
H   -9.53141433   -6.22981918   -0.55242600
O   9.85098944   -3.64424022   1.42490429
H   10.46751075   -3.45507693   0.70623165
H   9.19642375   -4.32320204   1.16751547
O   -6.92620031   2.33885222   -1.89440400
H   -6.73347364   2.03893512   -1.02017343
H   -7.07801068   1.52923287   -2.42572307
O   -3.32330522   2.93417093   -1.66343409
H   -3.40391351   3.92136811   -1.59305386
H   -3.61144225   2.74423090   -2.55805852
O   9.91561160   -1.82102542   3.85303780
H   9.97177712   -2.80082597   3.86057002
H   10.68961757   -1.47155033   3.39556963
O   13.52655546   4.30252606   -1.85610028
H   14.30840778   3.78195893   -1.98715725
H   12.86728763   3.66460767   -1.56321266
O   9.94771328   -0.79739319   -0.32864195
H   9.72035496   -1.64091647   -0.75952115
H   10.32477352   -0.10329989   -0.89182264
O   -14.26410822   3.59998767   1.76230839
H   -13.71616577   3.73072186   0.96933128
H   -13.68313122   3.62511667   2.53347664
O   -5.13368796   3.64516750   3.33909124
H   -5.19016024   4.30637286   4.03487796
H   -5.68482409   3.87173200   2.52242735
O   -4.82217026   -3.68164395   1.17091715
H   -5.75613016   -3.61169588   1.03786878
H   -4.62415820   -4.59566804   0.97356005
O   3.08538630   -5.93719392   -3.73832444
H   2.24040151   -5.68259680   -4.08449024
H   3.72962944   -5.98393795   -4.40889774
O   4.81933761   5.42883059   0.10648873
H   4.29372614   6.22866739   0.27725446
H   -4.91842620   -4.58291413   -3.31797200
O   -9.17486879   5.40322683   0.60901980
H   -9.42115771   5.74342681   1.48213432
H   2.90814109   -2.71764362   -2.13294290
O   6.37067941   -3.44613237   -2.42015326
H   7.32776058   -3.65751157   -2.39847423
H   6.23795221   -2.61303215   -2.89136755
O   -7.69750652   -0.37835354   -3.47654471
H   -6.91397013   -0.85324010   -3.78546446
H   -8.31580846   -1.12224888   -3.26202762
O   -12.24520203   -1.85516966   3.09117901
H   -12.50464477   -1.31354840   2.34625683
H   -12.78647893   -2.67299312   2.93828195
O   14.33275214   1.41639991   -2.87445284
H   14.97769931   1.96879153   -3.32465194
H   13.47773340   1.77246866   -3.10582025
O   -7.08341384   6.34131436   -2.46848689
H   -7.25989108   -6.62914636   -1.62037254
H   -6.96832774   5.36505814   -2.36638208
O   12.97409415   -4.22316547   -1.46168000
H   13.01779475   -4.83438372   -2.26009302
H   13.88001094   -4.24365038   -1.23237632
O   -11.74228582   6.66054853   0.31810883
H   -10.81782400   6.34789870   0.50567003
H   -12.20068736   6.59922208   1.18150637
O   -1.63012850   2.20550136   0.71939427
H   5.53481208   2.14524202   -1.20465007
H   -0.80564480   2.37983126   1.25004140
O   -4.03420386   5.73700666   -2.58998273
H   -3.39666112   6.17237847   -2.05925463
H   -4.82289538   6.24221703   -2.59120600
O   -1.21827267   5.20545256   0.65756062
H   -0.42766234   4.70203225   0.64127513
H   -1.91585156   4.56193410   0.45588372
O   -11.31272384   -4.68890707   2.55133057
H   -10.82393970   -4.25867221   3.23320658
H   -11.63904889   -4.08269517   1.89853218
O   -14.50823602   -2.52688838   -1.76082500
H   -13.71972486   -2.29525965   -1.27048044
H   -14.69583641   -3.44200456   -1.52313692
O   15.14018851   -4.21685747   0.37918853
H   -14.39884856   -3.84778058   0.21328760
H   14.45805533   -3.50055912   0.47988200
O   -12.63508438   3.97044232   -0.68675509
H   -11.77533758   3.55772973   -0.51495504
H   -10.93709653   1.93946482   2.40507058
O   -9.68812703   -2.70094427   4.06017799
H   -10.31022453   -1.98600686   3.83524565
H   -8.93860404   -2.59764125   3.39439819
O   -8.25663823   1.77715997   1.52206634
H   -8.39358305   2.29447443   0.74869100
H   -8.97500830   1.28277689   1.91201174
O   10.75692325   3.07703482   -2.35948566
H   10.08190678   2.50755811   -2.04528123
H   10.61874495   3.80256873   -1.74061953
O   -1.57795810   0.25861221   -2.73276855
H   -1.22035150   -0.63623495   -2.60666008
H   -2.49617401   0.07075619   -2.55546772
O   -7.62026977   -3.23156220   -2.84655743
H   -8.33539579   -3.86539087   -3.09557969
H   -7.00919019   -3.60772093   -2.21057355
O   -13.30988970   -0.83081285   0.52260748
H   -14.04794590   -0.18642661   0.65032818
H   -12.78695310   -0.48854740   -0.21983545
O   13.45536097   -6.61549809   -3.11944439
H   13.37764381   6.05140467   -2.45205348
H   14.04983493   6.45865105   -3.76797772
O   2.36649465   2.18516515   4.12298185
H   3.12498829   2.03314031   3.62657720
O   6.13387753   2.89209744   -0.87551696
H   5.71902905   3.77910327   -1.02125400
