844

C   -10.71333000   -5.92690000   -7.35910000
C   -8.17482000   -5.93982000   -7.30496000
C   -9.43022000   -5.19173000   -7.81526000
H   -8.19783000   -5.96086000   -6.18993000
H   -8.12246000   -2.97832000   -8.86002000
C   -8.14962000   -2.99993000   -7.74505000
C   -9.43478000   -3.73497000   -7.29340000
H   -9.40547000   -5.17227000   -8.93030000
C   -10.68712000   -2.98651000   -7.80971000
C   -11.97425000   -3.71856000   -7.35734000
C   -11.96934000   -5.18169000   -7.87336000
H   -11.94199000   -5.16590000   -8.98841000
H   -10.73840000   -5.94452000   -6.24413000
H   -9.46227000   -3.75447000   -6.17847000
H   -10.65852000   -2.96853000   -8.92462000
H   -12.00140000   -3.73444000   -6.24231000
C   -10.68919000   -1.52940000   -7.28845000
C   -8.15295000   -1.54416000   -7.21965000
C   -9.40184000   -0.79472000   -7.73700000
C   -11.93595000   -0.77895000   -7.80972000
H   -10.72095000   -1.54759000   -6.17361000
H   -8.18264000   -1.56563000   -6.10478000
H   -11.90194000   -0.76228000   -8.92482000
H   -9.37051000   -0.77515000   -8.85206000
C   -13.23147000   -1.50623000   -7.36368000
C   -13.23028000   -2.96893000   -7.87364000
C   -13.25689000   -5.91796000   -7.41929000
C   -14.45943000   -0.73497000   -7.88555000
C   -14.49942000   -3.71526000   -7.42109000
C   -14.49435000   -5.15859000   -7.93376000
H   -14.47293000   -0.73387000   -8.99771000
H   -13.27314000   -1.51852000   -6.25017000
H   -13.21022000   -2.95651000   -8.98776000
H   -14.57524000   -3.71670000   -6.31151000
H   -14.51542000   -5.15672000   -9.04571000
H   -13.29166000   -5.93005000   -6.30559000
C   -14.45173000   0.71018000   -7.37499000
C   -13.16991000   1.43047000   -7.80653000
C   -11.93179000   0.68201000   -7.29095000
C   -10.64780000   1.40669000   -7.73004000
C   -9.40433000   0.66373000   -7.21484000
C   -8.12063000   1.39251000   -7.65204000
H   -14.53319000   0.71770000   -6.26679000
H   -11.96587000   0.67774000   -6.17800000
H   -9.43776000   0.65686000   -6.10197000
H   -13.14632000   1.50122000   -8.91644000
H   -10.61361000   1.47548000   -8.84086000
H   -8.08742000   1.46518000   -8.76258000
C   -8.16980000   5.86211000   -7.82953000
C   -9.44881000   5.12614000   -7.36989000
C   -10.70565000   5.87374000   -7.87963000
H   -8.14922000   5.88298000   -8.94466000
C   -9.44200000   3.66718000   -7.89069000
H   -9.46989000   5.10750000   -6.25465000
C   -10.71624000   2.93781000   -7.43509000
C   -11.96970000   3.67532000   -7.93674000
C   -11.98396000   5.13671000   -7.41939000
H   -9.42303000   3.67310000   -9.00394000
H   -10.68365000   5.89146000   -8.99474000
H   -12.00457000   5.12063000   -6.30395000
H   -11.94925000   3.67892000   -9.05006000
H   -10.73635000   2.87010000   -6.32388000
C   -8.18756000   2.92587000   -7.39359000
H   -8.20524000   2.85504000   -6.28263000
C   -13.24837000   5.87714000   -7.92865000
C   -13.23938000   2.94026000   -7.48249000
C   -14.50853000   5.11906000   -7.46782000
C   -14.49074000   3.67352000   -7.97703000
H   -13.23515000   5.88914000   -9.04290000
H   -14.57686000   5.11892000   -6.35771000
H   -14.51749000   3.66596000   -9.08791000
H   -13.27121000   2.87025000   -6.37273000
C   -3.11433000   -5.92690000   -7.35910000
C   -0.57582000   -5.93982000   -7.30496000
C   -1.83122000   -5.19173000   -7.81526000
H   -0.59883000   -5.96086000   -6.18993000
H   -0.52346000   -2.97832000   -8.86002000
C   -0.55062000   -2.99993000   -7.74505000
C   -1.83578000   -3.73497000   -7.29340000
H   -1.80647000   -5.17227000   -8.93030000
C   -3.08812000   -2.98651000   -7.80971000
C   -4.37525000   -3.71856000   -7.35734000
C   -4.37034000   -5.18169000   -7.87336000
H   -4.34299000   -5.16590000   -8.98841000
H   -3.13940000   -5.94452000   -6.24413000
H   -1.86327000   -3.75447000   -6.17847000
H   -3.05952000   -2.96853000   -8.92462000
H   -4.40240000   -3.73444000   -6.24231000
C   -3.09019000   -1.52940000   -7.28845000
C   -0.55395000   -1.54416000   -7.21965000
C   -1.80284000   -0.79472000   -7.73700000
C   -4.33695000   -0.77895000   -7.80972000
H   -3.12195000   -1.54759000   -6.17361000
H   -0.58364000   -1.56563000   -6.10478000
H   -4.30294000   -0.76228000   -8.92482000
H   -1.77151000   -0.77515000   -8.85206000
C   -5.63247000   -1.50623000   -7.36368000
C   -5.63128000   -2.96893000   -7.87364000
C   -5.65789000   -5.91796000   -7.41929000
C   -6.86043000   -0.73497000   -7.88555000
C   -6.90042000   -3.71526000   -7.42109000
C   -6.89535000   -5.15859000   -7.93376000
H   -6.87393000   -0.73387000   -8.99771000
H   -5.67414000   -1.51852000   -6.25017000
H   -5.61122000   -2.95651000   -8.98776000
H   -6.97624000   -3.71670000   -6.31151000
H   -6.91642000   -5.15672000   -9.04571000
H   -5.69266000   -5.93005000   -6.30559000
C   -6.85273000   0.71018000   -7.37499000
C   -5.57091000   1.43047000   -7.80653000
C   -4.33279000   0.68201000   -7.29095000
C   -3.04880000   1.40669000   -7.73004000
C   -1.80533000   0.66373000   -7.21484000
C   -0.52163000   1.39251000   -7.65204000
H   -6.93419000   0.71770000   -6.26679000
H   -4.36687000   0.67774000   -6.17800000
H   -1.83876000   0.65686000   -6.10197000
H   -5.54732000   1.50122000   -8.91644000
H   -3.01461000   1.47548000   -8.84086000
H   -0.48842000   1.46518000   -8.76258000
C   -0.57080000   5.86211000   -7.82953000
C   -1.84981000   5.12614000   -7.36989000
C   -3.10665000   5.87374000   -7.87963000
H   -0.55022000   5.88298000   -8.94466000
C   -1.84300000   3.66718000   -7.89069000
H   -1.87089000   5.10750000   -6.25465000
C   -3.11724000   2.93781000   -7.43509000
C   -4.37070000   3.67532000   -7.93674000
C   -4.38496000   5.13671000   -7.41939000
H   -1.82403000   3.67310000   -9.00394000
H   -3.08465000   5.89146000   -8.99474000
H   -4.40557000   5.12063000   -6.30395000
H   -4.35025000   3.67892000   -9.05006000
H   -3.13735000   2.87010000   -6.32388000
C   -0.58856000   2.92587000   -7.39359000
H   -0.60624000   2.85504000   -6.28263000
C   -5.64937000   5.87714000   -7.92865000
C   -5.64038000   2.94026000   -7.48249000
C   -6.90953000   5.11906000   -7.46782000
C   -6.89174000   3.67352000   -7.97703000
H   -5.63615000   5.88914000   -9.04290000
H   -6.97786000   5.11892000   -6.35771000
H   -6.91849000   3.66596000   -9.08791000
H   -5.67221000   2.87025000   -6.37273000
C   4.48467000   -5.92690000   -7.35910000
C   7.02318000   -5.93982000   -7.30496000
C   5.76778000   -5.19173000   -7.81526000
H   7.00017000   -5.96086000   -6.18993000
H   7.07554000   -2.97832000   -8.86002000
C   7.04838000   -2.99993000   -7.74505000
C   5.76322000   -3.73497000   -7.29340000
H   5.79253000   -5.17227000   -8.93030000
C   4.51088000   -2.98651000   -7.80971000
C   3.22375000   -3.71856000   -7.35734000
C   3.22866000   -5.18169000   -7.87336000
H   3.25601000   -5.16590000   -8.98841000
H   4.45960000   -5.94452000   -6.24413000
H   5.73573000   -3.75447000   -6.17847000
H   4.53948000   -2.96853000   -8.92462000
H   3.19660000   -3.73444000   -6.24231000
C   4.50881000   -1.52940000   -7.28845000
C   7.04505000   -1.54416000   -7.21965000
C   5.79616000   -0.79472000   -7.73700000
C   3.26205000   -0.77895000   -7.80972000
H   4.47705000   -1.54759000   -6.17361000
H   7.01536000   -1.56563000   -6.10478000
H   3.29606000   -0.76228000   -8.92482000
H   5.82749000   -0.77515000   -8.85206000
C   1.96653000   -1.50623000   -7.36368000
C   1.96772000   -2.96893000   -7.87364000
C   1.94111000   -5.91796000   -7.41929000
C   0.73857000   -0.73497000   -7.88555000
C   0.69858000   -3.71526000   -7.42109000
C   0.70365000   -5.15859000   -7.93376000
H   0.72507000   -0.73387000   -8.99771000
H   1.92486000   -1.51852000   -6.25017000
H   1.98778000   -2.95651000   -8.98776000
H   0.62276000   -3.71670000   -6.31151000
H   0.68258000   -5.15672000   -9.04571000
H   1.90634000   -5.93005000   -6.30559000
C   0.74627000   0.71018000   -7.37499000
C   2.02809000   1.43047000   -7.80653000
C   3.26621000   0.68201000   -7.29095000
C   4.55020000   1.40669000   -7.73004000
C   5.79367000   0.66373000   -7.21484000
C   7.07737000   1.39251000   -7.65204000
H   0.66481000   0.71770000   -6.26679000
H   3.23213000   0.67774000   -6.17800000
H   5.76024000   0.65686000   -6.10197000
H   2.05168000   1.50122000   -8.91644000
H   4.58439000   1.47548000   -8.84086000
H   7.11058000   1.46518000   -8.76258000
C   7.02820000   5.86211000   -7.82953000
C   5.74919000   5.12614000   -7.36989000
C   4.49235000   5.87374000   -7.87963000
H   7.04878000   5.88298000   -8.94466000
C   5.75600000   3.66718000   -7.89069000
H   5.72811000   5.10750000   -6.25465000
C   4.48176000   2.93781000   -7.43509000
C   3.22830000   3.67532000   -7.93674000
C   3.21404000   5.13671000   -7.41939000
H   5.77497000   3.67310000   -9.00394000
H   4.51435000   5.89146000   -8.99474000
H   3.19343000   5.12063000   -6.30395000
H   3.24875000   3.67892000   -9.05006000
H   4.46165000   2.87010000   -6.32388000
C   7.01044000   2.92587000   -7.39359000
H   6.99276000   2.85504000   -6.28263000
C   1.94963000   5.87714000   -7.92865000
C   1.95862000   2.94026000   -7.48249000
C   0.68947000   5.11906000   -7.46782000
C   0.70726000   3.67352000   -7.97703000
H   1.96285000   5.88914000   -9.04290000
H   0.62114000   5.11892000   -6.35771000
H   0.68051000   3.66596000   -9.08791000
H   1.92679000   2.87025000   -6.37273000
C   12.08367000   -5.92690000   -7.35910000
C   14.62218000   -5.93982000   -7.30496000
C   13.36678000   -5.19173000   -7.81526000
H   14.59917000   -5.96086000   -6.18993000
H   14.67454000   -2.97832000   -8.86002000
C   14.64738000   -2.99993000   -7.74505000
C   13.36222000   -3.73497000   -7.29340000
H   13.39153000   -5.17227000   -8.93030000
C   12.10988000   -2.98651000   -7.80971000
C   10.82275000   -3.71856000   -7.35734000
C   10.82766000   -5.18169000   -7.87336000
H   10.85501000   -5.16590000   -8.98841000
H   12.05860000   -5.94452000   -6.24413000
H   13.33473000   -3.75447000   -6.17847000
H   12.13848000   -2.96853000   -8.92462000
H   10.79560000   -3.73444000   -6.24231000
C   12.10781000   -1.52940000   -7.28845000
C   14.64405000   -1.54416000   -7.21965000
C   13.39516000   -0.79472000   -7.73700000
C   10.86105000   -0.77895000   -7.80972000
H   12.07605000   -1.54759000   -6.17361000
H   14.61436000   -1.56563000   -6.10478000
H   10.89506000   -0.76228000   -8.92482000
H   13.42649000   -0.77515000   -8.85206000
C   9.56553000   -1.50623000   -7.36368000
C   9.56672000   -2.96893000   -7.87364000
C   9.54011000   -5.91796000   -7.41929000
C   8.33757000   -0.73497000   -7.88555000
C   8.29758000   -3.71526000   -7.42109000
C   8.30265000   -5.15859000   -7.93376000
H   8.32407000   -0.73387000   -8.99771000
H   9.52386000   -1.51852000   -6.25017000
H   9.58678000   -2.95651000   -8.98776000
H   8.22176000   -3.71670000   -6.31151000
H   8.28158000   -5.15672000   -9.04571000
H   9.50534000   -5.93005000   -6.30559000
C   8.34527000   0.71018000   -7.37499000
C   9.62709000   1.43047000   -7.80653000
C   10.86521000   0.68201000   -7.29095000
C   12.14920000   1.40669000   -7.73004000
C   13.39267000   0.66373000   -7.21484000
C   14.67637000   1.39251000   -7.65204000
H   8.26381000   0.71770000   -6.26679000
H   10.83113000   0.67774000   -6.17800000
H   13.35924000   0.65686000   -6.10197000
H   9.65068000   1.50122000   -8.91644000
H   12.18339000   1.47548000   -8.84086000
H   14.70958000   1.46518000   -8.76258000
C   14.62720000   5.86211000   -7.82953000
C   13.34819000   5.12614000   -7.36989000
C   12.09135000   5.87374000   -7.87963000
H   14.64778000   5.88298000   -8.94466000
C   13.35500000   3.66718000   -7.89069000
H   13.32711000   5.10750000   -6.25465000
C   12.08076000   2.93781000   -7.43509000
C   10.82730000   3.67532000   -7.93674000
C   10.81304000   5.13671000   -7.41939000
H   13.37397000   3.67310000   -9.00394000
H   12.11335000   5.89146000   -8.99474000
H   10.79243000   5.12063000   -6.30395000
H   10.84775000   3.67892000   -9.05006000
H   12.06065000   2.87010000   -6.32388000
C   14.60944000   2.92587000   -7.39359000
H   14.59176000   2.85504000   -6.28263000
C   9.54863000   5.87714000   -7.92865000
C   9.55762000   2.94026000   -7.48249000
C   8.28847000   5.11906000   -7.46782000
C   8.30626000   3.67352000   -7.97703000
H   9.56185000   5.88914000   -9.04290000
H   8.22014000   5.11892000   -6.35771000
H   8.27951000   3.66596000   -9.08791000
H   9.52579000   2.87025000   -6.37273000
C   -10.71333000   -5.92690000   7.64090000
C   -8.17482000   -5.93982000   7.69504000
C   -9.43022000   -5.19173000   7.18474000
H   -8.19783000   -5.96086000   8.81007000
H   -8.12246000   -2.97832000   6.13998000
C   -8.14962000   -2.99993000   7.25495000
C   -9.43478000   -3.73497000   7.70660000
H   -9.40547000   -5.17227000   6.06970000
C   -10.68712000   -2.98651000   7.19029000
C   -11.97425000   -3.71856000   7.64266000
C   -11.96934000   -5.18169000   7.12664000
H   -11.94199000   -5.16590000   6.01159000
H   -10.73840000   -5.94452000   8.75587000
H   -9.46227000   -3.75447000   8.82153000
H   -10.65852000   -2.96853000   6.07538000
H   -12.00140000   -3.73444000   8.75769000
C   -10.68919000   -1.52940000   7.71155000
C   -8.15295000   -1.54416000   7.78035000
C   -9.40184000   -0.79472000   7.26300000
C   -11.93595000   -0.77895000   7.19028000
H   -10.72095000   -1.54759000   8.82639000
H   -8.18264000   -1.56563000   8.89522000
H   -11.90194000   -0.76228000   6.07518000
H   -9.37051000   -0.77515000   6.14794000
C   -13.23147000   -1.50623000   7.63632000
C   -13.23028000   -2.96893000   7.12636000
C   -13.25689000   -5.91796000   7.58071000
C   -14.45943000   -0.73497000   7.11445000
C   -14.49942000   -3.71526000   7.57891000
C   -14.49435000   -5.15859000   7.06624000
H   -14.47293000   -0.73387000   6.00229000
H   -13.27314000   -1.51852000   8.74983000
H   -13.21022000   -2.95651000   6.01224000
H   -14.57524000   -3.71670000   8.68849000
H   -14.51542000   -5.15672000   5.95429000
H   -13.29166000   -5.93005000   8.69441000
C   -14.45173000   0.71018000   7.62501000
C   -13.16991000   1.43047000   7.19347000
C   -11.93179000   0.68201000   7.70905000
C   -10.64780000   1.40669000   7.26996000
C   -9.40433000   0.66373000   7.78516000
C   -8.12063000   1.39251000   7.34796000
H   -14.53319000   0.71770000   8.73321000
H   -11.96587000   0.67774000   8.82200000
H   -9.43776000   0.65686000   8.89803000
H   -13.14632000   1.50122000   6.08356000
H   -10.61361000   1.47548000   6.15914000
H   -8.08742000   1.46518000   6.23742000
C   -8.16980000   5.86211000   7.17047000
C   -9.44881000   5.12614000   7.63011000
C   -10.70565000   5.87374000   7.12037000
H   -8.14922000   5.88298000   6.05534000
C   -9.44200000   3.66718000   7.10931000
H   -9.46989000   5.10750000   8.74535000
C   -10.71624000   2.93781000   7.56491000
C   -11.96970000   3.67532000   7.06326000
C   -11.98396000   5.13671000   7.58061000
H   -9.42303000   3.67310000   5.99606000
H   -10.68365000   5.89146000   6.00526000
H   -12.00457000   5.12063000   8.69605000
H   -11.94925000   3.67892000   5.94994000
H   -10.73635000   2.87010000   8.67612000
C   -8.18756000   2.92587000   7.60641000
H   -8.20524000   2.85504000   8.71737000
C   -13.24837000   5.87714000   7.07135000
C   -13.23938000   2.94026000   7.51751000
C   -14.50853000   5.11906000   7.53218000
C   -14.49074000   3.67352000   7.02297000
H   -13.23515000   5.88914000   5.95710000
H   -14.57686000   5.11892000   8.64229000
H   -14.51749000   3.66596000   5.91209000
H   -13.27121000   2.87025000   8.62727000
C   -3.11433000   -5.92690000   7.64090000
C   -0.57582000   -5.93982000   7.69504000
C   -1.83122000   -5.19173000   7.18474000
H   -0.59883000   -5.96086000   8.81007000
H   -0.52346000   -2.97832000   6.13998000
C   -0.55062000   -2.99993000   7.25495000
C   -1.83578000   -3.73497000   7.70660000
H   -1.80647000   -5.17227000   6.06970000
C   -3.08812000   -2.98651000   7.19029000
C   -4.37525000   -3.71856000   7.64266000
C   -4.37034000   -5.18169000   7.12664000
H   -4.34299000   -5.16590000   6.01159000
H   -3.13940000   -5.94452000   8.75587000
H   -1.86327000   -3.75447000   8.82153000
H   -3.05952000   -2.96853000   6.07538000
H   -4.40240000   -3.73444000   8.75769000
C   -3.09019000   -1.52940000   7.71155000
C   -0.55395000   -1.54416000   7.78035000
C   -1.80284000   -0.79472000   7.26300000
C   -4.33695000   -0.77895000   7.19028000
H   -3.12195000   -1.54759000   8.82639000
H   -0.58364000   -1.56563000   8.89522000
H   -1.77151000   -0.77515000   6.14794000
C   -5.63247000   -1.50623000   7.63632000
C   -5.63128000   -2.96893000   7.12636000
C   -5.65789000   -5.91796000   7.58071000
C   -6.86043000   -0.73497000   7.11445000
C   -6.90042000   -3.71526000   7.57891000
C   -6.89535000   -5.15859000   7.06624000
H   -6.87393000   -0.73387000   6.00229000
H   -5.67414000   -1.51852000   8.74983000
H   -5.61122000   -2.95651000   6.01224000
H   -6.97624000   -3.71670000   8.68849000
H   -6.91642000   -5.15672000   5.95429000
H   -5.69266000   -5.93005000   8.69441000
C   -6.85273000   0.71018000   7.62501000
C   -5.57091000   1.43047000   7.19347000
C   -4.33279000   0.68201000   7.70905000
C   -3.04880000   1.40669000   7.26996000
C   -1.80533000   0.66373000   7.78516000
C   -0.52163000   1.39251000   7.34796000
H   -6.93419000   0.71770000   8.73321000
H   -4.36687000   0.67774000   8.82200000
H   -1.83876000   0.65686000   8.89803000
H   -5.54732000   1.50122000   6.08356000
H   -3.01461000   1.47548000   6.15914000
H   -0.48842000   1.46518000   6.23742000
C   -0.57080000   5.86211000   7.17047000
C   -1.84981000   5.12614000   7.63011000
C   -3.10665000   5.87374000   7.12037000
H   -0.55022000   5.88298000   6.05534000
C   -1.84300000   3.66718000   7.10931000
H   -1.87089000   5.10750000   8.74535000
C   -3.11724000   2.93781000   7.56491000
C   -4.37070000   3.67532000   7.06326000
C   -4.38496000   5.13671000   7.58061000
H   -1.82403000   3.67310000   5.99606000
H   -3.08465000   5.89146000   6.00526000
H   -4.40557000   5.12063000   8.69605000
H   -4.35025000   3.67892000   5.94994000
H   -3.13735000   2.87010000   8.67612000
C   -0.58856000   2.92587000   7.60641000
H   -0.60624000   2.85504000   8.71737000
C   -5.64937000   5.87714000   7.07135000
C   -5.64038000   2.94026000   7.51751000
C   -6.90953000   5.11906000   7.53218000
C   -6.89174000   3.67352000   7.02297000
H   -5.63615000   5.88914000   5.95710000
H   -6.97786000   5.11892000   8.64229000
H   -6.91849000   3.66596000   5.91209000
H   -5.67221000   2.87025000   8.62727000
C   4.48467000   -5.92690000   7.64090000
C   7.02318000   -5.93982000   7.69504000
C   5.76778000   -5.19173000   7.18474000
H   7.00017000   -5.96086000   8.81007000
H   7.07554000   -2.97832000   6.13998000
C   7.04838000   -2.99993000   7.25495000
C   5.76322000   -3.73497000   7.70660000
H   5.79253000   -5.17227000   6.06970000
C   4.51088000   -2.98651000   7.19029000
C   3.22375000   -3.71856000   7.64266000
C   3.22866000   -5.18169000   7.12664000
H   3.25601000   -5.16590000   6.01159000
H   4.45960000   -5.94452000   8.75587000
H   5.73573000   -3.75447000   8.82153000
H   4.53948000   -2.96853000   6.07538000
H   3.19660000   -3.73444000   8.75769000
C   4.50881000   -1.52940000   7.71155000
C   7.04505000   -1.54416000   7.78035000
C   5.79616000   -0.79472000   7.26300000
C   3.26205000   -0.77895000   7.19028000
H   4.47705000   -1.54759000   8.82639000
H   7.01536000   -1.56563000   8.89522000
H   3.29606000   -0.76228000   6.07518000
C   1.96653000   -1.50623000   7.63632000
C   1.96772000   -2.96893000   7.12636000
C   1.94111000   -5.91796000   7.58071000
C   0.73857000   -0.73497000   7.11445000
C   0.69858000   -3.71526000   7.57891000
C   0.70365000   -5.15859000   7.06624000
H   0.72507000   -0.73387000   6.00229000
H   1.92486000   -1.51852000   8.74983000
H   1.98778000   -2.95651000   6.01224000
H   0.62276000   -3.71670000   8.68849000
H   0.68258000   -5.15672000   5.95429000
H   1.90634000   -5.93005000   8.69441000
C   0.74627000   0.71018000   7.62501000
C   2.02809000   1.43047000   7.19347000
C   3.26621000   0.68201000   7.70905000
C   4.55020000   1.40669000   7.26996000
C   5.79367000   0.66373000   7.78516000
C   7.07737000   1.39251000   7.34796000
H   0.66481000   0.71770000   8.73321000
H   3.23213000   0.67774000   8.82200000
H   5.76024000   0.65686000   8.89803000
H   2.05168000   1.50122000   6.08356000
H   4.58439000   1.47548000   6.15914000
H   7.11058000   1.46518000   6.23742000
C   7.02820000   5.86211000   7.17047000
C   5.74919000   5.12614000   7.63011000
C   4.49235000   5.87374000   7.12037000
H   7.04878000   5.88298000   6.05534000
C   5.75600000   3.66718000   7.10931000
H   5.72811000   5.10750000   8.74535000
C   4.48176000   2.93781000   7.56491000
C   3.22830000   3.67532000   7.06326000
C   3.21404000   5.13671000   7.58061000
H   5.77497000   3.67310000   5.99606000
H   4.51435000   5.89146000   6.00526000
H   3.19343000   5.12063000   8.69605000
H   3.24875000   3.67892000   5.94994000
H   4.46165000   2.87010000   8.67612000
C   7.01044000   2.92587000   7.60641000
H   6.99276000   2.85504000   8.71737000
C   1.94963000   5.87714000   7.07135000
C   1.95862000   2.94026000   7.51751000
C   0.68947000   5.11906000   7.53218000
C   0.70726000   3.67352000   7.02297000
H   1.96285000   5.88914000   5.95710000
H   0.62114000   5.11892000   8.64229000
H   0.68051000   3.66596000   5.91209000
H   1.92679000   2.87025000   8.62727000
C   12.08367000   -5.92690000   7.64090000
C   14.62218000   -5.93982000   7.69504000
C   13.36678000   -5.19173000   7.18474000
H   14.59917000   -5.96086000   8.81007000
H   14.67454000   -2.97832000   6.13998000
C   14.64738000   -2.99993000   7.25495000
C   13.36222000   -3.73497000   7.70660000
H   13.39153000   -5.17227000   6.06970000
C   12.10988000   -2.98651000   7.19029000
C   10.82275000   -3.71856000   7.64266000
C   10.82766000   -5.18169000   7.12664000
H   10.85501000   -5.16590000   6.01159000
H   12.05860000   -5.94452000   8.75587000
H   13.33473000   -3.75447000   8.82153000
H   12.13848000   -2.96853000   6.07538000
H   10.79560000   -3.73444000   8.75769000
C   12.10781000   -1.52940000   7.71155000
C   14.64405000   -1.54416000   7.78035000
C   13.39516000   -0.79472000   7.26300000
C   10.86105000   -0.77895000   7.19028000
H   12.07605000   -1.54759000   8.82639000
H   14.61436000   -1.56563000   8.89522000
H   10.89506000   -0.76228000   6.07518000
H   13.42649000   -0.77515000   6.14794000
C   9.56553000   -1.50623000   7.63632000
C   9.56672000   -2.96893000   7.12636000
C   9.54011000   -5.91796000   7.58071000
C   8.33757000   -0.73497000   7.11445000
C   8.29758000   -3.71526000   7.57891000
C   8.30265000   -5.15859000   7.06624000
H   8.32407000   -0.73387000   6.00229000
H   9.52386000   -1.51852000   8.74983000
H   9.58678000   -2.95651000   6.01224000
H   8.22176000   -3.71670000   8.68849000
H   8.28158000   -5.15672000   5.95429000
H   9.50534000   -5.93005000   8.69441000
C   8.34527000   0.71018000   7.62501000
C   9.62709000   1.43047000   7.19347000
C   10.86521000   0.68201000   7.70905000
C   12.14920000   1.40669000   7.26996000
C   13.39267000   0.66373000   7.78516000
C   14.67637000   1.39251000   7.34796000
H   8.26381000   0.71770000   8.73321000
H   10.83113000   0.67774000   8.82200000
H   13.35924000   0.65686000   8.89803000
H   9.65068000   1.50122000   6.08356000
H   12.18339000   1.47548000   6.15914000
H   14.70958000   1.46518000   6.23742000
C   14.62720000   5.86211000   7.17047000
C   13.34819000   5.12614000   7.63011000
C   12.09135000   5.87374000   7.12037000
H   14.64778000   5.88298000   6.05534000
C   13.35500000   3.66718000   7.10931000
H   13.32711000   5.10750000   8.74535000
C   12.08076000   2.93781000   7.56491000
C   10.82730000   3.67532000   7.06326000
C   10.81304000   5.13671000   7.58061000
H   13.37397000   3.67310000   5.99606000
H   12.11335000   5.89146000   6.00526000
H   10.79243000   5.12063000   8.69605000
H   10.84775000   3.67892000   5.94994000
H   12.06065000   2.87010000   8.67612000
C   14.60944000   2.92587000   7.60641000
H   14.59176000   2.85504000   8.71737000
C   9.54863000   5.87714000   7.07135000
C   9.55762000   2.94026000   7.51751000
C   8.28847000   5.11906000   7.53218000
C   8.30626000   3.67352000   7.02297000
H   9.56185000   5.88914000   5.95710000
H   8.22014000   5.11892000   8.64229000
H   8.27951000   3.66596000   5.91209000
H   9.52579000   2.87025000   8.62727000
N   -4.42964835   -0.74586812   2.91790976
C   -5.14120304   -0.71384532   4.42935662
H   -5.74246376   0.21050230   4.35450622
H   -5.80314655   -1.56352093   4.39303775
C   -4.10657084   -0.82972366   5.51923348
H   -3.70578521   -1.82762627   5.31629373
H   -3.34070068   -0.06777878   5.31117106
C   -3.64845490   0.54542290   2.78787411
H   -4.21188952   1.35208334   3.44419141
H   -2.59537746   0.40119800   2.99895869
H   -3.72126128   0.96673430   1.79066461
C   -5.60253642   -0.81823102   1.88737546
H   -6.21407003   0.04159542   2.18766960
H   -5.11814201   -0.67017544   0.86945765
H   -5.96789104   -1.82369916   2.01563671
C   -3.57953134   -1.91141415   2.82546035
H   -2.64622526   -1.68711343   3.40721649
H   -3.94061948   -2.82579476   3.19592212
H   -3.30499090   -2.00960427   1.77710052
N   5.49779172   -0.13683857   3.15113683
C   4.87554870   -0.44912278   4.53252729
H   4.33257377   0.49744227   4.69322627
H   4.10898838   -1.18565274   4.40236739
C   5.94938740   -0.80960997   5.60622292
H   6.27512358   -1.83289256   5.35455852
H   6.78522105   -0.11524845   5.40730378
C   4.31537928   -0.09595028   2.25956154
H   3.93377181   -1.07371753   2.27738089
H   3.56331416   0.59575125   2.64670340
H   4.59531226   0.29783226   1.26790221
C   6.39012351   -1.28089732   2.69396883
H   5.87371583   -2.16009887   2.89284949
H   6.64812362   -1.23075169   1.62565114
H   7.27944482   -1.21438922   3.26671418
C   6.19400985   1.19412850   3.13722328
H   6.31469174   1.47263372   2.09117179
H   5.56507187   1.85552077   3.71543521
H   7.11034569   1.19573940   3.65769246
O   -0.74171745   -0.44929753   3.60644530
H   0.13906021   -0.05796284   3.83350834
H   -0.40442036   -1.02169090   2.97565882
O   -7.53810513   3.75067594   1.35992249
H   -7.21951637   3.08846509   0.70008737
H   7.46550054   5.49785781   0.59985283
O   10.35987524   5.77357623   -2.65181838
H   10.14752332   4.87227033   -2.87868046
H   9.89029979   6.00031014   -1.86600619
O   -9.41511925   4.92535047   3.53572472
H   -10.03525396   5.54368225   3.26263600
H   -9.58065571   4.07954434   3.12459706
O   -11.05676442   -5.63915968   -0.90552764
H   -10.51004200   -6.07807862   -0.29657125
H   -11.02730318   -4.67354511   -0.92634308
O   12.16251556   -1.45292354   3.25561548
H   12.80523615   -2.19873207   3.16579026
H   11.73505908   -1.55337022   2.38520433
O   12.53769304   5.46385462   3.92236168
H   12.22923103   4.94624659   -1.53029233
H   12.96418408   4.97873100   3.18952720
O   -2.30435474   -0.23138474   -0.28724033
H   -2.20620515   -1.03081513   -0.82977898
H   -3.20347735   0.14296673   -0.37163555
O   10.33169476   2.93611210   0.07858046
H   11.30750319   2.88917351   0.15462813
H   10.05405492   2.09420923   -0.36856418
O   5.44190066   5.37836187   1.88291863
H   6.12482822   6.03425891   2.03983994
H   5.96989571   4.61876549   1.65253773
O   3.00763087   -4.10432276   -2.18311856
H   3.96034167   -4.25829090   -2.46724000
H   3.04400330   -3.29525482   -1.64780977
O   7.84461531   6.04197390   -0.10180070
H   8.34077089   -6.69433419   0.39895555
H   11.80547118   5.80950729   3.39559799
O   10.06857264   0.43674640   -1.06275117
H   10.14661725   -0.44469533   -0.82658106
H   10.75487544   0.63069914   -1.72938699
O   4.11163064   -5.52448205   0.35381228
H   4.96817583   -5.29973472   0.72920109
H   4.05381932   -6.47808994   0.53166510
O   13.53305942   3.44691058   1.74705913
H   13.35582863   2.57790386   2.16598799
H   14.23579421   3.29432767   1.08843545
O   -9.06408258   -6.39737426   0.97122593
H   -8.84919129   6.15235377   1.39589126
H   -8.34417882   -5.83075773   1.19987401
O   3.78571231   2.63709527   0.80589935
H   4.02849533   2.52296398   -0.14554912
H   3.23088818   3.44350552   0.75429793
O   14.99233039   4.67308627   -0.57352837
H   -15.05053924   4.56298780   -1.46816391
H   15.13564031   5.55567163   -0.32126120
O   6.60741723   -4.87746937   1.37914814
H   6.80435086   -4.08490663   1.92876114
H   7.42388684   -4.98295668   0.78822730
O   14.04869234   -3.91432967   2.99316017
H   14.92615606   -3.57226164   3.27636794
H   13.97305307   -4.81445360   2.58859522
O   5.19989680   4.89606258   -2.18688848
H   5.24303727   5.53832040   -2.96478726
H   6.08783642   4.74285071   -1.84999136
O   2.32003913   6.31126585   -1.65296389
H   3.22764175   6.26576443   -1.31325236
H   2.27179691   -6.34093808   -2.31673818
O   -7.30666437   -3.47771685   0.18730155
H   -6.86998836   -2.83211689   -0.42047971
H   -8.23889276   -3.21924054   0.30096883
O   14.11488884   -1.77039208   -3.37185683
H   14.51586394   -2.55743922   -2.95162931
H   14.66223744   -1.11519690   -2.83749055
O   14.45617522   -5.97126046   -0.62095482
H   14.05158182   -5.59597630   -1.39419856
H   14.75530482   -5.24366002   -0.11394882
O   1.97783233   -1.52973265   -3.26595992
H   1.83794959   -2.29279677   -3.81054468
H   1.10103253   -1.27526868   -2.96000071
O   -5.10416256   -5.18205492   0.30125455
H   -6.00000463   -5.38728367   0.13970908
H   -4.95898576   -4.48605145   -0.39415880
O   12.38800580   0.83478128   0.44944623
H   13.04264732   0.45854630   1.03786850
H   -6.59188880   2.27457503   3.93155699
O   -3.75388709   3.73458783   1.53344247
H   -3.01830902   4.14777968   2.02815993
H   -4.42914045   4.44441583   1.54003325
O   -10.36059902   4.00480756   0.80272446
H   -10.55140977   4.02216459   -0.19840440
H   -11.13515076   3.57611441   1.10837424
O   -12.91348542   3.46864638   -2.58025290
H   -12.07914618   2.97055689   -2.27239148
H   -12.55625797   4.22750245   -2.96555183
O   -6.34195161   -5.64410014   -4.10002335
H   -6.50354810   -4.70866506   -4.30325126
H   -7.13040549   -5.74959783   -3.51360086
O   -7.03026369   -1.27648127   -1.85378309
H   -6.23851990   -0.62507023   -1.66907667
H   -7.50026587   -1.01639938   -2.61697430
O   13.44748448   -2.87045467   0.34647250
H   12.58578368   -3.35825835   0.26255805
H   13.74732631   -3.24351006   1.14944206
O   -13.52303946   5.58293807   1.66378122
H   -14.31495649   4.99219485   1.50489000
H   -13.79524415   6.51438881   1.53893632
O   9.58417933   -4.06369141   2.98801773
H   9.50440357   -4.38802925   2.11471085
H   10.53401370   -3.76418466   2.88496944
O   -6.46251622   5.01437578   3.87686115
H   -6.01641424   4.85270657   3.02381465
H   -7.40625883   4.82409181   3.70713908
O   9.02967613   -4.97342874   0.25046966
H   9.26350566   -5.03848391   -0.73221295
H   13.69137641   0.13775667   3.23379965
O   12.67579176   0.57520697   -2.80770820
H   12.41384757   -0.35352577   -2.67986426
H   13.07449669   0.90479324   -1.94839065
O   0.74365831   4.46854760   2.16865259
H   0.91082985   5.35657466   2.53694943
H   0.03086500   4.00667951   2.57320431
O   9.39497413   -0.58327524   3.99874258
H   9.77517630   0.06519819   3.40084308
H   9.90011633   -1.37246791   4.07691100
O   4.09265896   -5.63704106   3.38877876
H   4.05664919   -6.61685741   3.21594976
H   4.65936926   -5.24241020   2.70580683
O   14.57888199   -0.40540223   -0.95373360
H   15.10509293   0.12975109   -0.35059438
H   14.07131492   -1.13118979   -0.51258127
O   -13.45160333   0.07301236   3.65282226
H   -14.15605611   0.40823409   4.24177612
H   -12.62780012   0.16555612   4.23064029
O   1.57559215   1.97684260   3.20990930
H   1.90016976   2.64218998   3.84240388
H   1.79474885   2.35611109   2.32856319
O   14.28237890   -6.53960523   2.08450422
H   14.50133352   6.46745568   2.93774606
H   13.50834899   6.49329639   1.67671490
O   -10.63179548   -1.41974427   0.83415490
H   -11.27351279   -0.69657923   0.70965821
H   -9.77842044   -1.14799077   0.40059517
O   -2.33557881   1.99492554   -2.06939802
H   -3.27665299   1.79352978   -2.10137602
H   -1.97342710   1.45647605   -1.37024782
O   2.80538380   -2.80552061   3.55541346
H   2.14934977   -2.79528175   2.82427352
H   3.26999852   -3.61901732   3.49652086
O   -4.18010127   -2.56701206   -1.03694533
H   -3.73613619   -2.60994100   -1.92839324
H   -4.44752968   -1.60997792   -0.98432281
O   -11.04741061   6.49591520   -4.29341291
H   -11.90310030   6.56446008   -4.74598206
H   -11.10840967   -6.48762397   -3.37566893
O   12.81639918   -6.08754917   -2.92019267
H   12.83804807   -6.34840612   -3.82228463
H   11.94916417   -6.43732982   -2.58220719
O   14.17750130   0.90445663   3.44196019
H   -5.46281145   -4.14789933   2.15210813
H   13.77082700   1.47072119   4.13416049
O   1.25405675   1.14891951   -0.16162408
H   1.71442610   1.40186929   0.70349184
H   0.53968567   1.77056815   -0.11301198
O   -13.46409346   -2.81560786   3.50950929
H   -13.15889379   -2.98907241   2.59010105
H   -13.46605537   -1.84409299   3.68695382
O   6.63719367   0.00242254   -0.53595604
H   7.11229937   0.48751606   -1.23391546
H   6.67193130   -0.95752927   -0.68013209
O   7.91488505   -2.57933768   -0.31926896
H   8.55320036   -2.16663519   0.25389031
H   8.19442188   -3.55630178   -0.35921695
O   1.25643151   -4.45568039   0.35525946
H   2.23574455   -4.76012159   0.42517852
H   0.96464728   -5.11191422   -0.30408204
O   -10.45012925   2.19666902   2.96915119
H   -10.91930725   2.57799052   3.75064256
H   -9.96553446   1.40286383   3.08663623
O   9.15450661   6.09007593   3.02068183
H   9.87029885   6.35572193   2.41450088
H   8.82734302   -6.49158099   3.45646448
O   -6.02437294   -3.71043102   2.77638618
H   -6.90894342   -3.48278992   2.39788473
H   11.54350955   0.63450301   0.89967825
O   -1.41014611   2.17342943   1.20502943
H   -1.75810682   1.34236005   0.81493791
H   -1.96491224   2.77933818   0.61624096
O   -7.34420935   1.90032061   3.40470094
H   -0.66661963   -3.68892241   -0.99502450
H   -7.82756211   2.59257003   2.99862368
O   -8.27501017   2.63339670   -3.19595267
H   -7.70972412   2.43900182   -3.95228525
H   -8.39820180   3.56777509   -3.08339908
O   -13.59202918   1.07504104   0.89579406
H   -13.41212078   0.71983981   1.74350873
H   -14.30143295   1.72489442   1.07585397
O   10.67840110   -2.87464704   0.38184497
H   10.66780311   -2.52014487   -0.49963635
H   10.14553986   -3.74698522   0.27168345
O   10.98476233   -6.47587174   1.14239731
H   10.21384246   -5.97698798   0.79976883
H   11.23858692   6.12902077   0.59949521
O   3.75192312   -1.20811221   -0.76828332
H   3.36613312   -0.91141604   -1.61012250
H   4.59917828   -0.71409612   -0.69035073
O   -7.05619780   1.69169075   -0.53789325
H   -7.19275103   2.19438833   -1.36345921
H   -6.15352221   1.20946445   -0.70662897
O   -8.26925091   -0.40121134   0.35645427
H   -8.17568915   0.55085525   0.33039814
H   -7.82810835   -0.79061087   -0.47674753
O   10.17756987   1.74132863   3.03555551
H   10.22261262   2.26964454   2.19462226
H   9.85553125   2.24833744   3.79659075
O   8.04254101   3.49033221   1.67102320
H   8.76085444   3.25463433   1.04365865
H   8.43310851   4.24028214   2.11964595
O   -4.92452708   0.15281723   -1.28570692
H   -4.50436639   0.42362146   -2.19587361
H   -8.49005180   3.81374077   1.45927144
O   1.25434598   -1.56060638   1.11021892
H   1.82767872   -1.15948039   0.47175791
H   1.17515397   -2.48799211   0.87106160
O   11.41650574   -2.35261615   -2.35582812
H   10.84086953   -2.57350517   -3.09272924
H   12.36185495   -2.56693880   -2.69318713
O   -9.28207364   -0.31032318   3.10420289
H   -8.47522967   0.17778786   2.95303100
H   -9.47168700   -0.49145663   2.14901573
O   12.22898985   4.83928199   -0.55034471
H   12.95629678   4.35452754   -0.29418549
O   -1.23421598   -3.15612916   -1.62171549
H   -2.08143128   -3.07846550   -1.21043743
