305

C -3.18592 -5.89278 -9.75935
C -0.64741 -5.9057 -9.70521
C -1.90281 -5.15761 -10.21551
H -0.67042 -5.92674 -8.59018
H -0.59505 -2.9442 -11.26027
C -0.62221 -2.96581 -10.1453
C -1.90737 -3.70085 -9.69365
H -1.87806 -5.13815 -11.33055
C -3.15971 -2.95239 -10.20996
C -4.44684 -3.68444 -9.75759
C -4.44193 -5.14757 -10.27361
H -4.41458 -5.13178 -11.38866
H -3.21099 -5.9104 -8.64438
H -1.93486 -3.72035 -8.57872
H -3.13111 -2.93441 -11.32487
H -4.47399 -3.70032 -8.64256
C -3.16178 -1.49528 -9.6887
C -0.62554 -1.51004 -9.6199
C -1.87443 -0.7606 -10.13725
C -4.40854 -0.74483 -10.20997
H -3.19354 -1.51347 -8.57386
H -0.65523 -1.53151 -8.50503
H -4.37453 -0.72816 -11.32507
H -1.8431 -0.74103 -11.25231
C -5.70406 -1.47211 -9.76393
C -5.70287 -2.93481 -10.27389
C -5.72948 -5.88384 -9.81954
C -6.93202 -0.70085 -10.2858
C -6.97201 -3.68114 -9.82134
C -6.96694 -5.12447 -10.33401
H -6.94552 -0.69975 -11.39796
H -5.74573 -1.4844 -8.65042
H -5.68281 -2.92239 -11.38801
H -7.04783 -3.68258 -8.71176
H -6.98801 -5.1226 -11.44596
H -5.76425 -5.89593 -8.70584
C -6.92432 0.7443 -9.77524
C -5.6425 1.46459 -10.20678
C -4.40438 0.71613 -9.6912
C -3.12039 1.44081 -10.13029
C -1.87692 0.69785 -9.61509
C -0.59322 1.42663 -10.05229
H -7.00578 0.75182 -8.66704
H -4.43846 0.71186 -8.57825
H -1.91035 0.69098 -8.50222
H -5.61891 1.53534 -11.31669
H -3.0862 1.5096 -11.24111
H -0.56001 1.4993 -11.16283
C -0.64239 5.89623 -10.22978
C -1.9214 5.16026 -9.77014
C -3.17824 5.90786 -10.27988
H -0.62181 5.9171 -11.34491
C -1.91459 3.7013 -10.29094
H -1.94248 5.14162 -8.6549
C -3.18883 2.97193 -9.83534
C -4.44229 3.70944 -10.33699
C -4.45655 5.17083 -9.81964
H -1.89562 3.70722 -11.40419
H -3.15624 5.92558 -11.39499
H -4.47716 5.15475 -8.7042
H -4.42184 3.71304 -11.45031
H -3.20894 2.90422 -8.72413
C -0.66015 2.95999 -9.79384
H -0.67783 2.88916 -8.68288
C -5.72096 5.91126 -10.3289
C -5.71197 2.97438 -9.88274
C -6.98112 5.15318 -9.86807
C -6.96333 3.70764 -10.37728
H -5.70774 5.92326 -11.44315
H -7.04945 5.15304 -8.75796
H -6.99008 3.70008 -11.48816
H -5.7438 2.90437 -8.77298
C 4.41308 -5.89278 -9.75935
C 6.95159 -5.9057 -9.70521
C 5.69619 -5.15761 -10.21551
H 6.92858 -5.92674 -8.59018
H 7.00395 -2.9442 -11.26027
C 6.97679 -2.96581 -10.1453
C 5.69163 -3.70085 -9.69365
H 5.72094 -5.13815 -11.33055
C 4.43929 -2.95239 -10.20996
C 3.15216 -3.68444 -9.75759
C 3.15707 -5.14757 -10.27361
H 3.18442 -5.13178 -11.38866
H 4.38801 -5.9104 -8.64438
H 5.66414 -3.72035 -8.57872
H 4.46789 -2.93441 -11.32487
H 3.12501 -3.70032 -8.64256
C 4.43722 -1.49528 -9.6887
C 6.97346 -1.51004 -9.6199
C 5.72457 -0.7606 -10.13725
C 3.19046 -0.74483 -10.20997
H 4.40546 -1.51347 -8.57386
H 6.94377 -1.53151 -8.50503
H 3.22447 -0.72816 -11.32507
H 5.7559 -0.74103 -11.25231
C 1.89494 -1.47211 -9.76393
C 1.89613 -2.93481 -10.27389
C 1.86952 -5.88384 -9.81954
C 0.66698 -0.70085 -10.2858
C 0.62699 -3.68114 -9.82134
C 0.63206 -5.12447 -10.33401
H 0.65348 -0.69975 -11.39796
H 1.85327 -1.4844 -8.65042
H 1.91619 -2.92239 -11.38801
H 0.55117 -3.68258 -8.71176
H 0.61099 -5.1226 -11.44596
H 1.83475 -5.89593 -8.70584
C 0.67468 0.7443 -9.77524
C 1.9565 1.46459 -10.20678
C 3.19462 0.71613 -9.6912
C 4.47861 1.44081 -10.13029
C 5.72208 0.69785 -9.61509
C 7.00578 1.42663 -10.05229
H 0.59322 0.75182 -8.66704
H 3.16054 0.71186 -8.57825
H 5.68865 0.69098 -8.50222
H 1.98009 1.53534 -11.31669
H 4.5128 1.5096 -11.24111
H 7.03899 1.4993 -11.16283
C 6.95661 5.89623 -10.22978
C 5.6776 5.16026 -9.77014
C 4.42076 5.90786 -10.27988
H 6.97719 5.9171 -11.34491
C 5.68441 3.7013 -10.29094
H 5.65652 5.14162 -8.6549
C 4.41017 2.97193 -9.83534
C 3.15671 3.70944 -10.33699
C 3.14245 5.17083 -9.81964
H 5.70338 3.70722 -11.40419
H 4.44276 5.92558 -11.39499
H 3.12184 5.15475 -8.7042
H 3.17716 3.71304 -11.45031
H 4.39006 2.90422 -8.72413
C 6.93885 2.95999 -9.79384
H 6.92117 2.88916 -8.68288
C 1.87804 5.91126 -10.3289
C 1.88703 2.97438 -9.88274
C 0.61788 5.15318 -9.86807
C 0.63567 3.70764 -10.37728
H 1.89126 5.92326 -11.44315
H 0.54955 5.15304 -8.75796
H 0.60892 3.70008 -11.48816
H 1.8552 2.90437 -8.77298
C -3.18592 -5.89278 10.24065
C -0.64741 -5.9057 10.29479
C -1.90281 -5.15761 9.78449
H -0.67042 -5.92674 11.40982
H -0.59505 -2.9442 8.73973
C -0.62221 -2.96581 9.8547
C -1.90737 -3.70085 10.30635
H -1.87806 -5.13815 8.66945
C -3.15971 -2.95239 9.79004
C -4.44684 -3.68444 10.24241
C -4.44193 -5.14757 9.72639
H -4.41458 -5.13178 8.61134
H -3.21099 -5.9104 11.35562
H -1.93486 -3.72035 11.42128
H -3.13111 -2.93441 8.67513
H -4.47399 -3.70032 11.35744
C -3.16178 -1.49528 10.3113
C -0.62554 -1.51004 10.3801
C -1.87443 -0.7606 9.86275
C -4.40854 -0.74483 9.79003
H -3.19354 -1.51347 11.42614
H -0.65523 -1.53151 11.49497
H -4.37453 -0.72816 8.67493
H -1.8431 -0.74103 8.74769
C -5.70406 -1.47211 10.23607
C -5.70287 -2.93481 9.72611
C -5.72948 -5.88384 10.18046
C -6.93202 -0.70085 9.7142
C -6.97201 -3.68114 10.17866
C -6.96694 -5.12447 9.66599
H -6.94552 -0.69975 8.60204
H -5.74573 -1.4844 11.34958
H -5.68281 -2.92239 8.61199
H -7.04783 -3.68258 11.28824
H -6.98801 -5.1226 8.55404
H -5.76425 -5.89593 11.29416
C -6.92432 0.7443 10.22476
C -5.6425 1.46459 9.79322
C -4.40438 0.71613 10.3088
C -3.12039 1.44081 9.86971
C -1.87692 0.69785 10.38491
C -0.59322 1.42663 9.94771
H -7.00578 0.75182 11.33296
H -4.43846 0.71186 11.42175
H -1.91035 0.69098 11.49778
H -5.61891 1.53534 8.68331
H -3.0862 1.5096 8.75889
H -0.56001 1.4993 8.83717
C -0.64239 5.89623 9.77022
C -1.9214 5.16026 10.22986
C -3.17824 5.90786 9.72012
H -0.62181 5.9171 8.65509
C -1.91459 3.7013 9.70906
H -1.94248 5.14162 11.3451
C -3.18883 2.97193 10.16466
C -4.44229 3.70944 9.66301
C -4.45655 5.17083 10.18036
H -1.89562 3.70722 8.59581
H -3.15624 5.92558 8.60501
H -4.47716 5.15475 11.2958
H -4.42184 3.71304 8.54969
H -3.20894 2.90422 11.27587
C -0.66015 2.95999 10.20616
H -0.67783 2.88916 11.31712
C -5.72096 5.91126 9.6711
C -5.71197 2.97438 10.11726
C -6.98112 5.15318 10.13193
C -6.96333 3.70764 9.62272
H -5.70774 5.92326 8.55685
H -7.04945 5.15304 11.24204
H -6.99008 3.70008 8.51184
H -5.7438 2.90437 11.22702
C 4.41308 -5.89278 10.24065
C 6.95159 -5.9057 10.29479
C 5.69619 -5.15761 9.78449
H 6.92858 -5.92674 11.40982
H 7.00395 -2.9442 8.73973
C 6.97679 -2.96581 9.8547
C 5.69163 -3.70085 10.30635
H 5.72094 -5.13815 8.66945
C 4.43929 -2.95239 9.79004
C 3.15216 -3.68444 10.24241
C 3.15707 -5.14757 9.72639
H 3.18442 -5.13178 8.61134
H 4.38801 -5.9104 11.35562
H 5.66414 -3.72035 11.42128
H 4.46789 -2.93441 8.67513
H 3.12501 -3.70032 11.35744
C 4.43722 -1.49528 10.3113
C 6.97346 -1.51004 10.3801
C 5.72457 -0.7606 9.86275
C 3.19046 -0.74483 9.79003
H 4.40546 -1.51347 11.42614
H 6.94377 -1.53151 11.49497
H 3.22447 -0.72816 8.67493
H 5.7559 -0.74103 8.74769
C 1.89494 -1.47211 10.23607
C 1.89613 -2.93481 9.72611
C 1.86952 -5.88384 10.18046
C 0.66698 -0.70085 9.7142
C 0.62699 -3.68114 10.17866
C 0.63206 -5.12447 9.66599
H 1.85327 -1.4844 11.34958
H 1.91619 -2.92239 8.61199
H 0.55117 -3.68258 11.28824
H 0.61099 -5.1226 8.55404
H 1.83475 -5.89593 11.29416
C 0.67468 0.7443 10.22476
C 1.9565 1.46459 9.79322
C 3.19462 0.71613 10.3088
C 4.47861 1.44081 9.86971
C 5.72208 0.69785 10.38491
C 7.00578 1.42663 9.94771
H 0.59322 0.75182 11.33296
H 3.16054 0.71186 11.42175
H 5.68865 0.69098 11.49778
H 1.98009 1.53534 8.68331
H 4.5128 1.5096 8.75889
H 7.03899 1.4993 8.83717
C 6.95661 5.89623 9.77022
C 5.6776 5.16026 10.22986
C 4.42076 5.90786 9.72012
H 6.97719 5.9171 8.65509
C 5.68441 3.7013 9.70906
H 5.65652 5.14162 11.3451
C 4.41017 2.97193 10.16466
C 3.15671 3.70944 9.66301
C 3.14245 5.17083 10.18036
H 5.70338 3.70722 8.59581
H 4.44276 5.92558 8.60501
H 3.12184 5.15475 11.2958
H 3.17716 3.71304 8.54969
H 4.39006 2.90422 11.27587
C 6.93885 2.95999 10.20616
H 6.92117 2.88916 11.31712
C 1.87804 5.91126 9.6711
C 1.88703 2.97438 10.11726
C 0.61788 5.15318 10.13193
C 0.63567 3.70764 9.62272
H 1.89126 5.92326 8.55685
H 0.54955 5.15304 11.24204
H 0.60892 3.70008 8.51184
H 1.8552 2.90437 11.22702
N -0.54037 -1.50092 6.01461
C -0.59598 -1.32114 7.49912
H -0.77052 -2.30894 7.98558
H -1.46294 -0.67095 7.76081
C 0.66698 -0.70085 8.14320
H 1.55044 -1.34563 7.95792
H 0.85697 0.30970 7.72719
C -1.82055 -2.11274 5.58125
H -1.97711 -3.10253 6.06667
H -2.68553 -1.46265 5.84386
H -1.84112 -2.27159 4.47927
C 0.56427 -2.40716 5.61870
H 0.49166 -3.38163 6.15122
H 0.53982 -2.61122 4.52447
H 1.55824 -1.96131 5.83278
C -0.38798 -0.20139 5.31725
H -0.44079 -0.33301 4.21293
H -1.19072 0.50899 5.61641
H 0.59517 0.26744 5.53155
