450

C -6.98542 -5.89278 -5.75935
C -4.44691 -5.9057 -5.70521
C -5.70231 -5.15761 -6.21551
H -4.46992 -5.92674 -4.59018
H -4.39455 -2.9442 -7.26027
C -4.42171 -2.96581 -6.1453
C -5.70687 -3.70085 -5.69365
H -5.67756 -5.13815 -7.33055
C -6.95921 -2.95239 -6.20996
C -8.24634 -3.68444 -5.75759
C -8.24143 -5.14757 -6.27361
H -8.21408 -5.13178 -7.38866
H -7.01049 -5.9104 -4.64438
H -5.73436 -3.72035 -4.57872
H -6.93061 -2.93441 -7.32487
H -8.27349 -3.70032 -4.64256
C -6.96128 -1.49528 -5.6887
C -4.42504 -1.51004 -5.6199
C -5.67393 -0.7606 -6.13725
C -8.20804 -0.74483 -6.20997
H -6.99304 -1.51347 -4.57386
H -4.45473 -1.53151 -4.50503
H -8.17403 -0.72816 -7.32507
H -5.6426 -0.74103 -7.25231
C -9.50356 -1.47211 -5.76393
C -9.50237 -2.93481 -6.27389
C -9.52898 -5.88384 -5.81954
C -10.73152 -0.70085 -6.2858
C -10.77151 -3.68114 -5.82134
C -10.76644 -5.12447 -6.33401
H -10.74502 -0.69975 -7.39796
H -9.54523 -1.4844 -4.65042
H -9.48231 -2.92239 -7.38801
H -10.84733 -3.68258 -4.71176
H -10.78751 -5.1226 -7.44596
H -9.56375 -5.89593 -4.70584
C -10.72382 0.7443 -5.77524
C -9.442 1.46459 -6.20678
C -8.20388 0.71613 -5.6912
C -6.91989 1.44081 -6.13029
C -5.67642 0.69785 -5.61509
C -4.39272 1.42663 -6.05229
H -10.80528 0.75182 -4.66704
H -8.23796 0.71186 -4.57825
H -5.70985 0.69098 -4.50222
H -9.41841 1.53534 -7.31669
H -6.8857 1.5096 -7.24111
H -4.35951 1.4993 -7.16283
C -4.44189 5.89623 -6.22978
C -5.7209 5.16026 -5.77014
C -6.97774 5.90786 -6.27988
H -4.42131 5.9171 -7.34491
C -5.71409 3.7013 -6.29094
H -5.74198 5.14162 -4.6549
C -6.98833 2.97193 -5.83534
C -8.24179 3.70944 -6.33699
C -8.25605 5.17083 -5.81964
H -5.69512 3.70722 -7.40419
H -6.95574 5.92558 -7.39499
H -8.27666 5.15475 -4.7042
H -8.22134 3.71304 -7.45031
H -7.00844 2.90422 -4.72413
C -4.45965 2.95999 -5.79384
H -4.47733 2.88916 -4.68288
C -9.52046 5.91126 -6.3289
C -9.51147 2.97438 -5.88274
C -10.78062 5.15318 -5.86807
C -10.76283 3.70764 -6.37728
H -9.50724 5.92326 -7.44315
H -10.84895 5.15304 -4.75796
H -10.78958 3.70008 -7.48816
H -9.5433 2.90437 -4.77298
C 0.61358 -5.89278 -5.75935
C 3.15209 -5.9057 -5.70521
C 1.89669 -5.15761 -6.21551
H 3.12908 -5.92674 -4.59018
H 3.20445 -2.9442 -7.26027
C 3.17729 -2.96581 -6.1453
C 1.89213 -3.70085 -5.69365
H 1.92144 -5.13815 -7.33055
C 0.63979 -2.95239 -6.20996
C -0.64734 -3.68444 -5.75759
C -0.64243 -5.14757 -6.27361
H -0.61508 -5.13178 -7.38866
H 0.58851 -5.9104 -4.64438
H 1.86464 -3.72035 -4.57872
H 0.66839 -2.93441 -7.32487
H -0.67449 -3.70032 -4.64256
C 0.63772 -1.49528 -5.6887
C 3.17396 -1.51004 -5.6199
C 1.92507 -0.7606 -6.13725
C -0.60904 -0.74483 -6.20997
H 0.60596 -1.51347 -4.57386
H 3.14427 -1.53151 -4.50503
H -0.57503 -0.72816 -7.32507
H 1.9564 -0.74103 -7.25231
C -1.90456 -1.47211 -5.76393
C -1.90337 -2.93481 -6.27389
C -1.92998 -5.88384 -5.81954
C -3.13252 -0.70085 -6.2858
C -3.17251 -3.68114 -5.82134
C -3.16744 -5.12447 -6.33401
H -3.14602 -0.69975 -7.39796
H -1.94623 -1.4844 -4.65042
H -1.88331 -2.92239 -7.38801
H -3.24833 -3.68258 -4.71176
H -3.18851 -5.1226 -7.44596
H -1.96475 -5.89593 -4.70584
C -3.12482 0.7443 -5.77524
C -1.843 1.46459 -6.20678
C -0.60488 0.71613 -5.6912
C 0.67911 1.44081 -6.13029
C 1.92258 0.69785 -5.61509
C 3.20628 1.42663 -6.05229
H -3.20628 0.75182 -4.66704
H -0.63896 0.71186 -4.57825
H 1.88915 0.69098 -4.50222
H -1.81941 1.53534 -7.31669
H 0.7133 1.5096 -7.24111
H 3.23949 1.4993 -7.16283
C 3.15711 5.89623 -6.22978
C 1.8781 5.16026 -5.77014
C 0.62126 5.90786 -6.27988
H 3.17769 5.9171 -7.34491
C 1.88491 3.7013 -6.29094
H 1.85702 5.14162 -4.6549
C 0.61067 2.97193 -5.83534
C -0.64279 3.70944 -6.33699
C -0.65705 5.17083 -5.81964
H 1.90388 3.70722 -7.40419
H 0.64326 5.92558 -7.39499
H -0.67766 5.15475 -4.7042
H -0.62234 3.71304 -7.45031
H 0.59056 2.90422 -4.72413
C 3.13935 2.95999 -5.79384
H 3.12167 2.88916 -4.68288
C -1.92146 5.91126 -6.3289
C -1.91247 2.97438 -5.88274
C -3.18162 5.15318 -5.86807
C -3.16383 3.70764 -6.37728
H -1.90824 5.92326 -7.44315
H -3.24995 5.15304 -4.75796
H -3.19058 3.70008 -7.48816
H -1.9443 2.90437 -4.77298
C 8.21258 -5.89278 -5.75935
C 10.75109 -5.9057 -5.70521
C 9.49569 -5.15761 -6.21551
H 10.72808 -5.92674 -4.59018
H 10.80345 -2.9442 -7.26027
C 10.77629 -2.96581 -6.1453
C 9.49113 -3.70085 -5.69365
H 9.52044 -5.13815 -7.33055
C 8.23879 -2.95239 -6.20996
C 6.95166 -3.68444 -5.75759
C 6.95657 -5.14757 -6.27361
H 6.98392 -5.13178 -7.38866
H 8.18751 -5.9104 -4.64438
H 9.46364 -3.72035 -4.57872
H 8.26739 -2.93441 -7.32487
H 6.92451 -3.70032 -4.64256
C 8.23672 -1.49528 -5.6887
C 10.77296 -1.51004 -5.6199
C 9.52407 -0.7606 -6.13725
C 6.98996 -0.74483 -6.20997
H 8.20496 -1.51347 -4.57386
H 10.74327 -1.53151 -4.50503
H 7.02397 -0.72816 -7.32507
H 9.5554 -0.74103 -7.25231
C 5.69444 -1.47211 -5.76393
C 5.69563 -2.93481 -6.27389
C 5.66902 -5.88384 -5.81954
C 4.46648 -0.70085 -6.2858
C 4.42649 -3.68114 -5.82134
C 4.43156 -5.12447 -6.33401
H 4.45298 -0.69975 -7.39796
H 5.65277 -1.4844 -4.65042
H 5.71569 -2.92239 -7.38801
H 4.35067 -3.68258 -4.71176
H 4.41049 -5.1226 -7.44596
H 5.63425 -5.89593 -4.70584
C 4.47418 0.7443 -5.77524
C 5.756 1.46459 -6.20678
C 6.99412 0.71613 -5.6912
C 8.27811 1.44081 -6.13029
C 9.52158 0.69785 -5.61509
C 10.80528 1.42663 -6.05229
H 4.39272 0.75182 -4.66704
H 6.96004 0.71186 -4.57825
H 9.48815 0.69098 -4.50222
H 5.77959 1.53534 -7.31669
H 8.3123 1.5096 -7.24111
H 10.83849 1.4993 -7.16283
C 10.75611 5.89623 -6.22978
C 9.4771 5.16026 -5.77014
C 8.22026 5.90786 -6.27988
H 10.77669 5.9171 -7.34491
C 9.48391 3.7013 -6.29094
H 9.45602 5.14162 -4.6549
C 8.20967 2.97193 -5.83534
C 6.95621 3.70944 -6.33699
C 6.94195 5.17083 -5.81964
H 9.50288 3.70722 -7.40419
H 8.24226 5.92558 -7.39499
H 6.92134 5.15475 -4.7042
H 6.97666 3.71304 -7.45031
H 8.18956 2.90422 -4.72413
C 10.73835 2.95999 -5.79384
H 10.72067 2.88916 -4.68288
C 5.67754 5.91126 -6.3289
C 5.68653 2.97438 -5.88274
C 4.41738 5.15318 -5.86807
C 4.43517 3.70764 -6.37728
H 5.69076 5.92326 -7.44315
H 4.34905 5.15304 -4.75796
H 4.40842 3.70008 -7.48816
H 5.6547 2.90437 -4.77298
C -6.98542 -5.89278 6.24065
C -4.44691 -5.9057 6.29479
C -5.70231 -5.15761 5.78449
H -4.46992 -5.92674 7.40982
H -4.39455 -2.9442 4.73973
C -4.42171 -2.96581 5.8547
C -5.70687 -3.70085 6.30635
H -5.67756 -5.13815 4.66945
C -6.95921 -2.95239 5.79004
C -8.24634 -3.68444 6.24241
C -8.24143 -5.14757 5.72639
H -8.21408 -5.13178 4.61134
H -7.01049 -5.9104 7.35562
H -5.73436 -3.72035 7.42128
H -6.93061 -2.93441 4.67513
H -8.27349 -3.70032 7.35744
C -6.96128 -1.49528 6.3113
C -4.42504 -1.51004 6.3801
C -5.67393 -0.7606 5.86275
C -8.20804 -0.74483 5.79003
H -6.99304 -1.51347 7.42614
H -4.45473 -1.53151 7.49497
H -8.17403 -0.72816 4.67493
H -5.6426 -0.74103 4.74769
C -9.50356 -1.47211 6.23607
C -9.50237 -2.93481 5.72611
C -9.52898 -5.88384 6.18046
C -10.73152 -0.70085 5.7142
C -10.77151 -3.68114 6.17866
C -10.76644 -5.12447 5.66599
H -10.74502 -0.69975 4.60204
H -9.54523 -1.4844 7.34958
H -9.48231 -2.92239 4.61199
H -10.84733 -3.68258 7.28824
H -10.78751 -5.1226 4.55404
H -9.56375 -5.89593 7.29416
C -10.72382 0.7443 6.22476
C -9.442 1.46459 5.79322
C -8.20388 0.71613 6.3088
C -6.91989 1.44081 5.86971
C -5.67642 0.69785 6.38491
C -4.39272 1.42663 5.94771
H -10.80528 0.75182 7.33296
H -8.23796 0.71186 7.42175
H -5.70985 0.69098 7.49778
H -9.41841 1.53534 4.68331
H -6.8857 1.5096 4.75889
H -4.35951 1.4993 4.83717
C -4.44189 5.89623 5.77022
C -5.7209 5.16026 6.22986
C -6.97774 5.90786 5.72012
H -4.42131 5.9171 4.65509
C -5.71409 3.7013 5.70906
H -5.74198 5.14162 7.3451
C -6.98833 2.97193 6.16466
C -8.24179 3.70944 5.66301
C -8.25605 5.17083 6.18036
H -5.69512 3.70722 4.59581
H -6.95574 5.92558 4.60501
H -8.27666 5.15475 7.2958
H -8.22134 3.71304 4.54969
H -7.00844 2.90422 7.27587
C -4.45965 2.95999 6.20616
H -4.47733 2.88916 7.31712
C -9.52046 5.91126 5.6711
C -9.51147 2.97438 6.11726
C -10.78062 5.15318 6.13193
C -10.76283 3.70764 5.62272
H -9.50724 5.92326 4.55685
H -10.84895 5.15304 7.24204
H -10.78958 3.70008 4.51184
H -9.5433 2.90437 7.22702
C 0.61358 -5.89278 6.24065
C 3.15209 -5.9057 6.29479
C 1.89669 -5.15761 5.78449
H 3.12908 -5.92674 7.40982
H 3.20445 -2.9442 4.73973
C 3.17729 -2.96581 5.8547
C 1.89213 -3.70085 6.30635
H 1.92144 -5.13815 4.66945
C 0.63979 -2.95239 5.79004
C -0.64734 -3.68444 6.24241
C -0.64243 -5.14757 5.72639
H -0.61508 -5.13178 4.61134
H 0.58851 -5.9104 7.35562
H 1.86464 -3.72035 7.42128
H 0.66839 -2.93441 4.67513
H -0.67449 -3.70032 7.35744
C 0.63772 -1.49528 6.3113
C 3.17396 -1.51004 6.3801
C 1.92507 -0.7606 5.86275
C -0.60904 -0.74483 5.79003
H 0.60596 -1.51347 7.42614
H 3.14427 -1.53151 7.49497
H 1.9564 -0.74103 4.74769
C -1.90456 -1.47211 6.23607
C -1.90337 -2.93481 5.72611
C -1.92998 -5.88384 6.18046
C -3.13252 -0.70085 5.7142
C -3.17251 -3.68114 6.17866
C -3.16744 -5.12447 5.66599
H -3.14602 -0.69975 4.60204
H -1.94623 -1.4844 7.34958
H -1.88331 -2.92239 4.61199
H -3.24833 -3.68258 7.28824
H -3.18851 -5.1226 4.55404
H -1.96475 -5.89593 7.29416
C -3.12482 0.7443 6.22476
C -1.843 1.46459 5.79322
C -0.60488 0.71613 6.3088
C 0.67911 1.44081 5.86971
C 1.92258 0.69785 6.38491
C 3.20628 1.42663 5.94771
H -3.20628 0.75182 7.33296
H -0.63896 0.71186 7.42175
H 1.88915 0.69098 7.49778
H -1.81941 1.53534 4.68331
H 0.7133 1.5096 4.75889
H 3.23949 1.4993 4.83717
C 3.15711 5.89623 5.77022
C 1.8781 5.16026 6.22986
C 0.62126 5.90786 5.72012
H 3.17769 5.9171 4.65509
C 1.88491 3.7013 5.70906
H 1.85702 5.14162 7.3451
C 0.61067 2.97193 6.16466
C -0.64279 3.70944 5.66301
C -0.65705 5.17083 6.18036
H 1.90388 3.70722 4.59581
H 0.64326 5.92558 4.60501
H -0.67766 5.15475 7.2958
H -0.62234 3.71304 4.54969
H 0.59056 2.90422 7.27587
C 3.13935 2.95999 6.20616
H 3.12167 2.88916 7.31712
C -1.92146 5.91126 5.6711
C -1.91247 2.97438 6.11726
C -3.18162 5.15318 6.13193
C -3.16383 3.70764 5.62272
H -1.90824 5.92326 4.55685
H -3.24995 5.15304 7.24204
H -3.19058 3.70008 4.51184
H -1.9443 2.90437 7.22702
C 8.21258 -5.89278 6.24065
C 10.75109 -5.9057 6.29479
C 9.49569 -5.15761 5.78449
H 10.72808 -5.92674 7.40982
H 10.80345 -2.9442 4.73973
C 10.77629 -2.96581 5.8547
C 9.49113 -3.70085 6.30635
H 9.52044 -5.13815 4.66945
C 8.23879 -2.95239 5.79004
C 6.95166 -3.68444 6.24241
C 6.95657 -5.14757 5.72639
H 6.98392 -5.13178 4.61134
H 8.18751 -5.9104 7.35562
H 9.46364 -3.72035 7.42128
H 8.26739 -2.93441 4.67513
H 6.92451 -3.70032 7.35744
C 8.23672 -1.49528 6.3113
C 10.77296 -1.51004 6.3801
C 9.52407 -0.7606 5.86275
C 6.98996 -0.74483 5.79003
H 8.20496 -1.51347 7.42614
H 10.74327 -1.53151 7.49497
H 7.02397 -0.72816 4.67493
H 9.5554 -0.74103 4.74769
C 5.69444 -1.47211 6.23607
C 5.69563 -2.93481 5.72611
C 5.66902 -5.88384 6.18046
C 4.46648 -0.70085 5.7142
C 4.42649 -3.68114 6.17866
C 4.43156 -5.12447 5.66599
H 4.45298 -0.69975 4.60204
H 5.65277 -1.4844 7.34958
H 5.71569 -2.92239 4.61199
H 4.35067 -3.68258 7.28824
H 4.41049 -5.1226 4.55404
H 5.63425 -5.89593 7.29416
C 4.47418 0.7443 6.22476
C 5.756 1.46459 5.79322
C 6.99412 0.71613 6.3088
C 8.27811 1.44081 5.86971
C 9.52158 0.69785 6.38491
C 10.80528 1.42663 5.94771
H 4.39272 0.75182 7.33296
H 6.96004 0.71186 7.42175
H 9.48815 0.69098 7.49778
H 5.77959 1.53534 4.68331
H 8.3123 1.5096 4.75889
H 10.83849 1.4993 4.83717
C 10.75611 5.89623 5.77022
C 9.4771 5.16026 6.22986
C 8.22026 5.90786 5.72012
H 10.77669 5.9171 4.65509
C 9.48391 3.7013 5.70906
H 9.45602 5.14162 7.3451
C 8.20967 2.97193 6.16466
C 6.95621 3.70944 5.66301
C 6.94195 5.17083 6.18036
H 9.50288 3.70722 4.59581
H 8.24226 5.92558 4.60501
H 6.92134 5.15475 7.2958
H 6.97666 3.71304 4.54969
H 8.18956 2.90422 7.27587
C 10.73835 2.95999 6.20616
H 10.72067 2.88916 7.31712
C 5.67754 5.91126 5.6711
C 5.68653 2.97438 6.11726
C 4.41738 5.15318 6.13193
C 4.43517 3.70764 5.62272
H 5.69076 5.92326 4.55685
H 4.34905 5.15304 7.24204
H 4.40842 3.70008 4.51184
H 5.6547 2.90437 7.22702
N -1.81639 -1.54490 2.09044
C -1.87200 -1.36512 3.57495
H -2.04654 -2.35292 4.06141
H -2.73896 -0.71493 3.83664
C -0.60904 -0.74483 4.21903
H 0.27442 -1.38961 4.03375
H -0.41905 0.26572 3.80302
C -3.09657 -2.15672 1.65708
H -3.25313 -3.14651 2.14250
H -3.96155 -1.50663 1.91969
H -3.11714 -2.31557 0.55510
C -0.71175 -2.45114 1.69453
H -0.78436 -3.42561 2.22705
H -0.73620 -2.65520 0.60030
H 0.28222 -2.00529 1.90861
C -1.66400 -0.24537 1.39308
H -1.71681 -0.37699 0.28876
H -2.46674 0.46501 1.69224
H -0.68085 0.22346 1.60738
