210

C -1.91842 -5.89277 -5.75972
C -0.63531 -5.1576 -6.21588
C -0.63987 -3.70084 -5.69402
H -0.61056 -5.13814 -7.33092
C -1.89221 -2.95238 -6.21033
C -3.17934 -3.68443 -5.75796
C -3.17443 -5.14756 -6.27398
H -3.14708 -5.13177 -7.38903
H -1.94349 -5.91039 -4.64475
H -0.66736 -3.72034 -4.57909
H -1.86361 -2.9344 -7.32524
H -3.20649 -3.70031 -4.64293
C -1.89428 -1.49527 -5.68907
C -0.60693 -0.76059 -6.13762
C -3.14104 -0.74482 -6.21034
H -1.92604 -1.51346 -4.57423
H -3.10703 -0.72815 -7.32544
H -0.5756 -0.74102 -7.25268
C -4.43656 -1.4721 -5.7643
C -4.43537 -2.9348 -6.27426
C -4.46198 -5.88383 -5.81991
H -4.47823 -1.48439 -4.65079
H -4.41531 -2.92238 -7.38838
H -4.49675 -5.89592 -4.70621
C -4.375 1.4646 -6.20715
C -3.13688 0.71614 -5.69157
C -1.85289 1.44082 -6.13066
C -0.60942 0.69786 -5.61546
H -3.17096 0.71187 -4.57862
H -0.64285 0.69099 -4.50259
H -4.35141 1.53535 -7.31706
H -1.8187 1.50961 -7.24148
C -0.6539 5.16027 -5.77051
C -1.91074 5.90787 -6.28025
C -0.64709 3.70131 -6.29131
H -0.67498 5.14163 -4.65527
C -1.92133 2.97194 -5.83571
C -3.17479 3.70945 -6.33736
C -3.18905 5.17084 -5.82001
H -0.62812 3.70723 -7.40456
H -1.88874 5.92559 -7.39536
H -3.20966 5.15476 -4.70457
H -3.15434 3.71305 -7.45068
H -1.94144 2.90423 -4.7245
C -4.45346 5.91127 -6.32927
C -4.44447 2.97439 -5.88311
H -4.44024 5.92327 -7.44352
H -4.4763 2.90438 -4.77335
C 3.14758 -5.89277 -5.75972
C 4.43069 -5.1576 -6.21588
C 4.42613 -3.70084 -5.69402
H 4.45544 -5.13814 -7.33092
C 3.17379 -2.95238 -6.21033
C 1.88666 -3.68443 -5.75796
C 1.89157 -5.14756 -6.27398
H 1.91892 -5.13177 -7.38903
H 3.12251 -5.91039 -4.64475
H 4.39864 -3.72034 -4.57909
H 3.20239 -2.9344 -7.32524
H 1.85951 -3.70031 -4.64293
C 3.17172 -1.49527 -5.68907
C 4.45907 -0.76059 -6.13762
C 1.92496 -0.74482 -6.21034
H 3.13996 -1.51346 -4.57423
H 1.95897 -0.72815 -7.32544
H 4.4904 -0.74102 -7.25268
C 0.62944 -1.4721 -5.7643
C 0.63063 -2.9348 -6.27426
C 0.60402 -5.88383 -5.81991
H 0.58777 -1.48439 -4.65079
H 0.65069 -2.92238 -7.38838
H 0.56925 -5.89592 -4.70621
C 0.691 1.4646 -6.20715
C 1.92912 0.71614 -5.69157
C 3.21311 1.44082 -6.13066
C 4.45658 0.69786 -5.61546
H 1.89504 0.71187 -4.57862
H 4.42315 0.69099 -4.50259
H 0.71459 1.53535 -7.31706
H 3.2473 1.50961 -7.24148
C 4.4121 5.16027 -5.77051
C 3.15526 5.90787 -6.28025
C 4.41891 3.70131 -6.29131
H 4.39102 5.14163 -4.65527
C 3.14467 2.97194 -5.83571
C 1.89121 3.70945 -6.33736
C 1.87695 5.17084 -5.82001
H 4.43788 3.70723 -7.40456
H 3.17726 5.92559 -7.39536
H 1.85634 5.15476 -4.70457
H 1.91166 3.71305 -7.45068
H 3.12456 2.90423 -4.7245
C 0.61254 5.91127 -6.32927
C 0.62153 2.97439 -5.88311
H 0.62576 5.92327 -7.44352
H 0.5897 2.90438 -4.77335
C -1.91842 -5.89277 6.24028
C -0.63531 -5.1576 5.78412
C -0.63987 -3.70084 6.30598
H -0.61056 -5.13814 4.66908
C -1.89221 -2.95238 5.78967
C -3.17934 -3.68443 6.24204
C -3.17443 -5.14756 5.72602
H -3.14708 -5.13177 4.61097
H -1.94349 -5.91039 7.35525
H -0.66736 -3.72034 7.42091
H -1.86361 -2.9344 4.67476
H -3.20649 -3.70031 7.35707
C -1.89428 -1.49527 6.31093
C -0.60693 -0.76059 5.86238
C -3.14104 -0.74482 5.78966
H -1.92604 -1.51346 7.42577
H -3.10703 -0.72815 4.67456
C -4.43656 -1.4721 6.2357
C -4.43537 -2.9348 5.72574
C -4.46198 -5.88383 6.18009
H -4.47823 -1.48439 7.34921
H -4.41531 -2.92238 4.61162
H -4.49675 -5.89592 7.29379
C -4.375 1.4646 5.79285
C -3.13688 0.71614 6.30843
C -1.85289 1.44082 5.86934
C -0.60942 0.69786 6.38454
H -3.17096 0.71187 7.42138
H -0.64285 0.69099 7.49741
H -4.35141 1.53535 4.68294
H -1.8187 1.50961 4.75852
C -0.6539 5.16027 6.22949
C -1.91074 5.90787 5.71975
C -0.64709 3.70131 5.70869
H -0.67498 5.14163 7.34473
C -1.92133 2.97194 6.16429
C -3.17479 3.70945 5.66264
C -3.18905 5.17084 6.17999
H -0.62812 3.70723 4.59544
H -1.88874 5.92559 4.60464
H -3.20966 5.15476 7.29543
H -3.15434 3.71305 4.54932
H -1.94144 2.90423 7.2755
C -4.45346 5.91127 5.67073
C -4.44447 2.97439 6.11689
H -4.44024 5.92327 4.55648
H -4.4763 2.90438 7.22665
C 3.14758 -5.89277 6.24028
C 4.43069 -5.1576 5.78412
C 4.42613 -3.70084 6.30598
H 4.45544 -5.13814 4.66908
C 3.17379 -2.95238 5.78967
C 1.88666 -3.68443 6.24204
C 1.89157 -5.14756 5.72602
H 1.91892 -5.13177 4.61097
H 3.12251 -5.91039 7.35525
H 4.39864 -3.72034 7.42091
H 3.20239 -2.9344 4.67476
H 1.85951 -3.70031 7.35707
C 3.17172 -1.49527 6.31093
C 4.45907 -0.76059 5.86238
C 1.92496 -0.74482 5.78966
H 3.13996 -1.51346 7.42577
H 1.95897 -0.72815 4.67456
H 4.4904 -0.74102 4.74732
C 0.62944 -1.4721 6.2357
C 0.63063 -2.9348 5.72574
C 0.60402 -5.88383 6.18009
H 0.58777 -1.48439 7.34921
H 0.65069 -2.92238 4.61162
H 0.56925 -5.89592 7.29379
C 0.691 1.4646 5.79285
C 1.92912 0.71614 6.30843
C 3.21311 1.44082 5.86934
C 4.45658 0.69786 6.38454
H 1.89504 0.71187 7.42138
H 4.42315 0.69099 7.49741
H 0.71459 1.53535 4.68294
H 3.2473 1.50961 4.75852
C 4.4121 5.16027 6.22949
C 3.15526 5.90787 5.71975
C 4.41891 3.70131 5.70869
H 4.39102 5.14163 7.34473
C 3.14467 2.97194 6.16429
C 1.89121 3.70945 5.66264
C 1.87695 5.17084 6.17999
H 4.43788 3.70723 4.59544
H 3.17726 5.92559 4.60464
H 1.85634 5.15476 7.29543
H 1.91166 3.71305 4.54932
H 3.12456 2.90423 7.2755
C 0.61254 5.91127 5.67073
C 0.62153 2.97439 6.11689
H 0.62576 5.92327 4.55648
H 0.5897 2.90438 7.22665
N -1.81428 -1.56066 2.16279
C -1.86989 -1.38088 3.64730
H -2.04443 -2.36868 4.13376
H -2.73685 -0.73069 3.90899
C -0.60693 -0.76059 4.29138
H 0.27653 -1.40537 4.10610
H -0.41694 0.24996 3.87537
C -3.09446 -2.17248 1.72943
H -3.25102 -3.16227 2.21485
H -3.95944 -1.52239 1.99204
H -3.11503 -2.33133 0.62745
C -0.70964 -2.46690 1.76688
H -0.78225 -3.44137 2.29940
H -0.73409 -2.67096 0.67265
H 0.28433 -2.02105 1.98096
C -1.66189 -0.26113 1.46543
H -1.71470 -0.39275 0.36111
H -2.46463 0.44925 1.76459
H -0.67874 0.20770 1.67973
