306

C -3.18592 -5.89278 -5.75935
C -0.64741 -5.9057 -5.70521
C -1.90281 -5.15761 -6.21551
H -0.67042 -5.92674 -4.59018
H -0.59505 -2.9442 -7.26027
C -0.62221 -2.96581 -6.1453
C -1.90737 -3.70085 -5.69365
H -1.87806 -5.13815 -7.33055
C -3.15971 -2.95239 -6.20996
C -4.44684 -3.68444 -5.75759
C -4.44193 -5.14757 -6.27361
H -4.41458 -5.13178 -7.38866
H -3.21099 -5.9104 -4.64438
H -1.93486 -3.72035 -4.57872
H -3.13111 -2.93441 -7.32487
H -4.47399 -3.70032 -4.64256
C -3.16178 -1.49528 -5.6887
C -0.62554 -1.51004 -5.6199
C -1.87443 -0.7606 -6.13725
C -4.40854 -0.74483 -6.20997
H -3.19354 -1.51347 -4.57386
H -0.65523 -1.53151 -4.50503
H -4.37453 -0.72816 -7.32507
H -1.8431 -0.74103 -7.25231
C -5.70406 -1.47211 -5.76393
C -5.70287 -2.93481 -6.27389
C -5.72948 -5.88384 -5.81954
C -6.93202 -0.70085 -6.2858
C -6.97201 -3.68114 -5.82134
C -6.96694 -5.12447 -6.33401
H -6.94552 -0.69975 -7.39796
H -5.74573 -1.4844 -4.65042
H -5.68281 -2.92239 -7.38801
H -7.04783 -3.68258 -4.71176
H -6.98801 -5.1226 -7.44596
H -5.76425 -5.89593 -4.70584
C -6.92432 0.7443 -5.77524
C -5.6425 1.46459 -6.20678
C -4.40438 0.71613 -5.6912
C -3.12039 1.44081 -6.13029
C -1.87692 0.69785 -5.61509
C -0.59322 1.42663 -6.05229
H -7.00578 0.75182 -4.66704
H -4.43846 0.71186 -4.57825
H -1.91035 0.69098 -4.50222
H -5.61891 1.53534 -7.31669
H -3.0862 1.5096 -7.24111
H -0.56001 1.4993 -7.16283
C -0.64239 5.89623 -6.22978
C -1.9214 5.16026 -5.77014
C -3.17824 5.90786 -6.27988
H -0.62181 5.9171 -7.34491
C -1.91459 3.7013 -6.29094
H -1.94248 5.14162 -4.6549
C -3.18883 2.97193 -5.83534
C -4.44229 3.70944 -6.33699
C -4.45655 5.17083 -5.81964
H -1.89562 3.70722 -7.40419
H -3.15624 5.92558 -7.39499
H -4.47716 5.15475 -4.7042
H -4.42184 3.71304 -7.45031
H -3.20894 2.90422 -4.72413
C -0.66015 2.95999 -5.79384
H -0.67783 2.88916 -4.68288
C -5.72096 5.91126 -6.3289
C -5.71197 2.97438 -5.88274
C -6.98112 5.15318 -5.86807
C -6.96333 3.70764 -6.37728
H -5.70774 5.92326 -7.44315
H -7.04945 5.15304 -4.75796
H -6.99008 3.70008 -7.48816
H -5.7438 2.90437 -4.77298
C 4.41308 -5.89278 -5.75935
C 6.95159 -5.9057 -5.70521
C 5.69619 -5.15761 -6.21551
H 6.92858 -5.92674 -4.59018
H 7.00395 -2.9442 -7.26027
C 6.97679 -2.96581 -6.1453
C 5.69163 -3.70085 -5.69365
H 5.72094 -5.13815 -7.33055
C 4.43929 -2.95239 -6.20996
C 3.15216 -3.68444 -5.75759
C 3.15707 -5.14757 -6.27361
H 3.18442 -5.13178 -7.38866
H 4.38801 -5.9104 -4.64438
H 5.66414 -3.72035 -4.57872
H 4.46789 -2.93441 -7.32487
H 3.12501 -3.70032 -4.64256
C 4.43722 -1.49528 -5.6887
C 6.97346 -1.51004 -5.6199
C 5.72457 -0.7606 -6.13725
C 3.19046 -0.74483 -6.20997
H 4.40546 -1.51347 -4.57386
H 6.94377 -1.53151 -4.50503
H 3.22447 -0.72816 -7.32507
H 5.7559 -0.74103 -7.25231
C 1.89494 -1.47211 -5.76393
C 1.89613 -2.93481 -6.27389
C 1.86952 -5.88384 -5.81954
C 0.66698 -0.70085 -6.2858
C 0.62699 -3.68114 -5.82134
C 0.63206 -5.12447 -6.33401
H 0.65348 -0.69975 -7.39796
H 1.85327 -1.4844 -4.65042
H 1.91619 -2.92239 -7.38801
H 0.55117 -3.68258 -4.71176
H 0.61099 -5.1226 -7.44596
H 1.83475 -5.89593 -4.70584
C 0.67468 0.7443 -5.77524
C 1.9565 1.46459 -6.20678
C 3.19462 0.71613 -5.6912
C 4.47861 1.44081 -6.13029
C 5.72208 0.69785 -5.61509
C 7.00578 1.42663 -6.05229
H 0.59322 0.75182 -4.66704
H 3.16054 0.71186 -4.57825
H 5.68865 0.69098 -4.50222
H 1.98009 1.53534 -7.31669
H 4.5128 1.5096 -7.24111
H 7.03899 1.4993 -7.16283
C 6.95661 5.89623 -6.22978
C 5.6776 5.16026 -5.77014
C 4.42076 5.90786 -6.27988
H 6.97719 5.9171 -7.34491
C 5.68441 3.7013 -6.29094
H 5.65652 5.14162 -4.6549
C 4.41017 2.97193 -5.83534
C 3.15671 3.70944 -6.33699
C 3.14245 5.17083 -5.81964
H 5.70338 3.70722 -7.40419
H 4.44276 5.92558 -7.39499
H 3.12184 5.15475 -4.7042
H 3.17716 3.71304 -7.45031
H 4.39006 2.90422 -4.72413
C 6.93885 2.95999 -5.79384
H 6.92117 2.88916 -4.68288
C 1.87804 5.91126 -6.3289
C 1.88703 2.97438 -5.88274
C 0.61788 5.15318 -5.86807
C 0.63567 3.70764 -6.37728
H 1.89126 5.92326 -7.44315
H 0.54955 5.15304 -4.75796
H 0.60892 3.70008 -7.48816
H 1.8552 2.90437 -4.77298
C -3.18592 -5.89278 6.24065
C -0.64741 -5.9057 6.29479
C -1.90281 -5.15761 5.78449
H -0.67042 -5.92674 7.40982
H -0.59505 -2.9442 4.73973
C -0.62221 -2.96581 5.8547
C -1.90737 -3.70085 6.30635
H -1.87806 -5.13815 4.66945
C -3.15971 -2.95239 5.79004
C -4.44684 -3.68444 6.24241
C -4.44193 -5.14757 5.72639
H -4.41458 -5.13178 4.61134
H -3.21099 -5.9104 7.35562
H -1.93486 -3.72035 7.42128
H -3.13111 -2.93441 4.67513
H -4.47399 -3.70032 7.35744
C -3.16178 -1.49528 6.3113
C -0.62554 -1.51004 6.3801
C -1.87443 -0.7606 5.86275
C -4.40854 -0.74483 5.79003
H -3.19354 -1.51347 7.42614
H -0.65523 -1.53151 7.49497
H -4.37453 -0.72816 4.67493
H -1.8431 -0.74103 4.74769
C -5.70406 -1.47211 6.23607
C -5.70287 -2.93481 5.72611
C -5.72948 -5.88384 6.18046
C -6.93202 -0.70085 5.7142
C -6.97201 -3.68114 6.17866
C -6.96694 -5.12447 5.66599
H -6.94552 -0.69975 4.60204
H -5.74573 -1.4844 7.34958
H -5.68281 -2.92239 4.61199
H -7.04783 -3.68258 7.28824
H -6.98801 -5.1226 4.55404
H -5.76425 -5.89593 7.29416
C -6.92432 0.7443 6.22476
C -5.6425 1.46459 5.79322
C -4.40438 0.71613 6.3088
C -3.12039 1.44081 5.86971
C -1.87692 0.69785 6.38491
C -0.59322 1.42663 5.94771
H -7.00578 0.75182 7.33296
H -4.43846 0.71186 7.42175
H -1.91035 0.69098 7.49778
H -5.61891 1.53534 4.68331
H -3.0862 1.5096 4.75889
H -0.56001 1.4993 4.83717
C -0.64239 5.89623 5.77022
C -1.9214 5.16026 6.22986
C -3.17824 5.90786 5.72012
H -0.62181 5.9171 4.65509
C -1.91459 3.7013 5.70906
H -1.94248 5.14162 7.3451
C -3.18883 2.97193 6.16466
C -4.44229 3.70944 5.66301
C -4.45655 5.17083 6.18036
H -1.89562 3.70722 4.59581
H -3.15624 5.92558 4.60501
H -4.47716 5.15475 7.2958
H -4.42184 3.71304 4.54969
H -3.20894 2.90422 7.27587
C -0.66015 2.95999 6.20616
H -0.67783 2.88916 7.31712
C -5.72096 5.91126 5.6711
C -5.71197 2.97438 6.11726
C -6.98112 5.15318 6.13193
C -6.96333 3.70764 5.62272
H -5.70774 5.92326 4.55685
H -7.04945 5.15304 7.24204
H -6.99008 3.70008 4.51184
H -5.7438 2.90437 7.22702
C 4.41308 -5.89278 6.24065
C 6.95159 -5.9057 6.29479
C 5.69619 -5.15761 5.78449
H 6.92858 -5.92674 7.40982
H 7.00395 -2.9442 4.73973
C 6.97679 -2.96581 5.8547
C 5.69163 -3.70085 6.30635
H 5.72094 -5.13815 4.66945
C 4.43929 -2.95239 5.79004
C 3.15216 -3.68444 6.24241
C 3.15707 -5.14757 5.72639
H 3.18442 -5.13178 4.61134
H 4.38801 -5.9104 7.35562
H 5.66414 -3.72035 7.42128
H 4.46789 -2.93441 4.67513
H 3.12501 -3.70032 7.35744
C 4.43722 -1.49528 6.3113
C 6.97346 -1.51004 6.3801
C 5.72457 -0.7606 5.86275
C 3.19046 -0.74483 5.79003
H 4.40546 -1.51347 7.42614
H 6.94377 -1.53151 7.49497
H 3.22447 -0.72816 4.67493
H 5.7559 -0.74103 4.74769
C 1.89494 -1.47211 6.23607
C 1.89613 -2.93481 5.72611
C 1.86952 -5.88384 6.18046
C 0.66698 -0.70085 5.7142
C 0.62699 -3.68114 6.17866
C 0.63206 -5.12447 5.66599
H 1.85327 -1.4844 7.34958
H 1.91619 -2.92239 4.61199
H 0.55117 -3.68258 7.28824
H 0.61099 -5.1226 4.55404
H 1.83475 -5.89593 7.29416
C 0.67468 0.7443 6.22476
C 1.9565 1.46459 5.79322
C 3.19462 0.71613 6.3088
C 4.47861 1.44081 5.86971
C 5.72208 0.69785 6.38491
C 7.00578 1.42663 5.94771
H 0.59322 0.75182 7.33296
H 3.16054 0.71186 7.42175
H 5.68865 0.69098 7.49778
H 1.98009 1.53534 4.68331
H 4.5128 1.5096 4.75889
H 7.03899 1.4993 4.83717
C 6.95661 5.89623 5.77022
C 5.6776 5.16026 6.22986
C 4.42076 5.90786 5.72012
H 6.97719 5.9171 4.65509
C 5.68441 3.7013 5.70906
H 5.65652 5.14162 7.3451
C 4.41017 2.97193 6.16466
C 3.15671 3.70944 5.66301
C 3.14245 5.17083 6.18036
H 5.70338 3.70722 4.59581
H 4.44276 5.92558 4.60501
H 3.12184 5.15475 7.2958
H 3.17716 3.71304 4.54969
H 4.39006 2.90422 7.27587
C 6.93885 2.95999 6.20616
H 6.92117 2.88916 7.31712
C 1.87804 5.91126 5.6711
C 1.88703 2.97438 6.11726
C 0.61788 5.15318 6.13193
C 0.63567 3.70764 5.62272
H 1.89126 5.92326 4.55685
H 0.54955 5.15304 7.24204
H 0.60892 3.70008 4.51184
H 1.8552 2.90437 7.22702
N -0.54037 -1.50092 2.01461
C -0.59598 -1.32114 3.49912
H -0.77052 -2.30894 3.98558
H -1.46294 -0.67095 3.76081
C 0.66698 -0.70085 4.14320
H 1.55044 -1.34563 3.95792
H 0.85697 0.30970 3.72719
C -1.82055 -2.11274 1.58125
H -1.97711 -3.10253 2.06667
H -2.68553 -1.46265 1.84386
H -1.84112 -2.27159 0.47927
C 0.56427 -2.40716 1.61870
H 0.49166 -3.38163 2.15122
H 0.53982 -2.61122 0.52447
H 1.55824 -1.96131 1.83278
C -0.38798 -0.20139 1.31725
H -0.44079 -0.33301 0.21293
H -1.19072 0.50899 1.61641
H 0.59517 0.26744 1.53155
