162

C 0.61358 -5.89278 -5.75935
C 3.15209 -5.9057 -5.70521
C 1.89669 -5.15761 -6.21551
H 3.12908 -5.92674 -4.59018
H 3.20445 -2.9442 -7.26027
C 3.17729 -2.96581 -6.1453
C 1.89213 -3.70085 -5.69365
H 1.92144 -5.13815 -7.33055
C 0.63979 -2.95239 -6.20996
C -0.64734 -3.68444 -5.75759
C -0.64243 -5.14757 -6.27361
H -0.61508 -5.13178 -7.38866
H 0.58851 -5.9104 -4.64438
H 1.86464 -3.72035 -4.57872
H 0.66839 -2.93441 -7.32487
H -0.67449 -3.70032 -4.64256
C 0.63772 -1.49528 -5.6887
C 3.17396 -1.51004 -5.6199
C 1.92507 -0.7606 -6.13725
C -0.60904 -0.74483 -6.20997
H 0.60596 -1.51347 -4.57386
H 3.14427 -1.53151 -4.50503
H -0.57503 -0.72816 -7.32507
H 1.9564 -0.74103 -7.25231
C -1.90456 -1.47211 -5.76393
C -1.90337 -2.93481 -6.27389
C -1.92998 -5.88384 -5.81954
C -3.13252 -0.70085 -6.2858
C -3.17251 -3.68114 -5.82134
C -3.16744 -5.12447 -6.33401
H -3.14602 -0.69975 -7.39796
H -1.94623 -1.4844 -4.65042
H -1.88331 -2.92239 -7.38801
H -3.24833 -3.68258 -4.71176
H -3.18851 -5.1226 -7.44596
H -1.96475 -5.89593 -4.70584
C -3.12482 0.7443 -5.77524
C -1.843 1.46459 -6.20678
C -0.60488 0.71613 -5.6912
C 0.67911 1.44081 -6.13029
C 1.92258 0.69785 -5.61509
C 3.20628 1.42663 -6.05229
H -3.20628 0.75182 -4.66704
H -0.63896 0.71186 -4.57825
H 1.88915 0.69098 -4.50222
H -1.81941 1.53534 -7.31669
H 0.7133 1.5096 -7.24111
H 3.23949 1.4993 -7.16283
C 3.15711 5.89623 -6.22978
C 1.8781 5.16026 -5.77014
C 0.62126 5.90786 -6.27988
H 3.17769 5.9171 -7.34491
C 1.88491 3.7013 -6.29094
H 1.85702 5.14162 -4.6549
C 0.61067 2.97193 -5.83534
C -0.64279 3.70944 -6.33699
C -0.65705 5.17083 -5.81964
H 1.90388 3.70722 -7.40419
H 0.64326 5.92558 -7.39499
H -0.67766 5.15475 -4.7042
H -0.62234 3.71304 -7.45031
H 0.59056 2.90422 -4.72413
C 3.13935 2.95999 -5.79384
H 3.12167 2.88916 -4.68288
C -1.92146 5.91126 -6.3289
C -1.91247 2.97438 -5.88274
C -3.18162 5.15318 -5.86807
C -3.16383 3.70764 -6.37728
H -1.90824 5.92326 -7.44315
H -3.24995 5.15304 -4.75796
H -3.19058 3.70008 -7.48816
H -1.9443 2.90437 -4.77298
C 0.61358 -5.89278 6.24065
C 3.15209 -5.9057 6.29479
C 1.89669 -5.15761 5.78449
H 3.12908 -5.92674 7.40982
H 3.20445 -2.9442 4.73973
C 3.17729 -2.96581 5.8547
C 1.89213 -3.70085 6.30635
H 1.92144 -5.13815 4.66945
C 0.63979 -2.95239 5.79004
C -0.64734 -3.68444 6.24241
C -0.64243 -5.14757 5.72639
H -0.61508 -5.13178 4.61134
H 0.58851 -5.9104 7.35562
H 1.86464 -3.72035 7.42128
H 0.66839 -2.93441 4.67513
H -0.67449 -3.70032 7.35744
C 0.63772 -1.49528 6.3113
C 3.17396 -1.51004 6.3801
C 1.92507 -0.7606 5.86275
C -0.60904 -0.74483 5.79003
H 0.60596 -1.51347 7.42614
H 3.14427 -1.53151 7.49497
H -0.57503 -0.72816 4.67493
H 1.9564 -0.74103 4.74769
C -1.90456 -1.47211 6.23607
C -1.90337 -2.93481 5.72611
C -1.92998 -5.88384 6.18046
C -3.13252 -0.70085 5.7142
C -3.17251 -3.68114 6.17866
C -3.16744 -5.12447 5.66599
H -3.14602 -0.69975 4.60204
H -1.94623 -1.4844 7.34958
H -1.88331 -2.92239 4.61199
H -3.24833 -3.68258 7.28824
H -3.18851 -5.1226 4.55404
H -1.96475 -5.89593 7.29416
C -3.12482 0.7443 6.22476
C -1.843 1.46459 5.79322
C -0.60488 0.71613 6.3088
C 0.67911 1.44081 5.86971
C 1.92258 0.69785 6.38491
C 3.20628 1.42663 5.94771
H -3.20628 0.75182 7.33296
H -0.63896 0.71186 7.42175
H 1.88915 0.69098 7.49778
H -1.81941 1.53534 4.68331
H 3.23949 1.4993 4.83717
C 3.15711 5.89623 5.77022
C 1.8781 5.16026 6.22986
C 0.62126 5.90786 5.72012
H 3.17769 5.9171 4.65509
C 1.88491 3.7013 5.70906
H 1.85702 5.14162 7.3451
C 0.61067 2.97193 6.16466
C -0.64279 3.70944 5.66301
C -0.65705 5.17083 6.18036
H 1.90388 3.70722 4.59581
H 0.64326 5.92558 4.60501
H -0.67766 5.15475 7.2958
H -0.62234 3.71304 4.54969
H 0.59056 2.90422 7.27587
C 3.13935 2.95999 6.20616
H 3.12167 2.88916 7.31712
C -1.92146 5.91126 5.6711
C -1.91247 2.97438 6.11726
C -3.18162 5.15318 6.13193
C -3.16383 3.70764 5.62272
H -1.90824 5.92326 4.55685
H -3.24995 5.15304 7.24204
H -3.19058 3.70008 4.51184
H -1.9443 2.90437 7.22702
N -0.52824 0.64074 2.17012
C -0.58385 0.82052 3.65463
H -0.75839 -0.16728 4.14109
H -1.45081 1.47071 3.91632
C 0.67911 1.44081 4.29871
H 1.56257 0.79603 4.11343
H 0.86910 2.45136 3.88270
C -1.80842 0.02892 1.73676
H -1.96498 -0.96087 2.22218
H -2.67340 0.67901 1.99937
H -1.82899 -0.12993 0.63478
C 0.57640 -0.26550 1.77421
H 0.50379 -1.23997 2.30673
H 0.55195 -0.46956 0.67998
H 1.57037 0.18035 1.98829
C -0.37585 1.94027 1.47276
H -0.42866 1.80865 0.36844
H -1.17859 2.65065 1.77192
H 0.60730 2.40910 1.68706
