769 

C      -10.784920     -5.892780     -5.759350
C       -8.246410     -5.905700     -5.705210
C       -9.501810     -5.157610     -6.215510
H       -8.269420     -5.926740     -4.590180
H       -8.194050     -2.944200     -7.260270
C       -8.221210     -2.965810     -6.145300
C       -9.506370     -3.700850     -5.693650
H       -9.477060     -5.138150     -7.330550
C      -10.758710     -2.952390     -6.209960
C      -12.045840     -3.684440     -5.757590
C      -12.040930     -5.147570     -6.273610
H      -12.013580     -5.131780     -7.388660
H      -10.809990     -5.910400     -4.644380
H       -9.533860     -3.720350     -4.578720
H      -10.730110     -2.934410     -7.324870
H      -12.072990     -3.700320     -4.642560
C      -10.760780     -1.495280     -5.688700
C       -8.224540     -1.510040     -5.619900
C       -9.473430     -0.760600     -6.137250
C      -12.007540     -0.744830     -6.209970
H      -10.792540     -1.513470     -4.573860
H       -8.254230     -1.531510     -4.505030
H      -11.973530     -0.728160     -7.325070
H       -9.442100     -0.741030     -7.252310
C      -13.303060     -1.472110     -5.763930
C      -13.301870     -2.934810     -6.273890
C      -13.328480     -5.883840     -5.819540
C      -14.531020     -0.700850     -6.285800
C      -14.571010     -3.681140     -5.821340
C      -14.565940     -5.124470     -6.334010
H      -14.544520     -0.699750     -7.397960
H      -13.344730     -1.484400     -4.650420
H      -13.281810     -2.922390     -7.388010
H      -14.646830     -3.682580     -4.711760
H      -14.587010     -5.122600     -7.445960
H      -13.363250     -5.895930     -4.705840
C      -14.523320      0.744300     -5.775240
C      -13.241500      1.464590     -6.206780
C      -12.003380      0.716130     -5.691200
C      -10.719390      1.440810     -6.130290
C       -9.475920      0.697850     -5.615090
C       -8.192220      1.426630     -6.052290
H      -14.604780      0.751820     -4.667040
H      -12.037460      0.711860     -4.578250
H       -9.509350      0.690980     -4.502220
H      -13.217910      1.535340     -7.316690
H      -10.685200      1.509600     -7.241110
H       -8.159010      1.499300     -7.162830
C       -8.241390      5.896230     -6.229780
C       -9.520400      5.160260     -5.770140
C      -10.777240      5.907860     -6.279880
H       -8.220810      5.917100     -7.344910
C       -9.513590      3.701300     -6.290940
H       -9.541480      5.141620     -4.654900
C      -10.787830      2.971930     -5.835340
C      -12.041290      3.709440     -6.336990
C      -12.055550      5.170830     -5.819640
H       -9.494620      3.707220     -7.404190
H      -10.755240      5.925580     -7.394990
H      -12.076160      5.154750     -4.704200
H      -12.020840      3.713040     -7.450310
H      -10.807940      2.904220     -4.724130
C       -8.259150      2.959990     -5.793840
H       -8.276830      2.889160     -4.682880
C      -13.319960      5.911260     -6.328900
C      -13.310970      2.974380     -5.882740
C      -14.580120      5.153180     -5.868070
C      -14.562330      3.707640     -6.377280
H      -13.306740      5.923260     -7.443150
H      -14.648450      5.153040     -4.757960
H      -14.589080      3.700080     -7.488160
H      -13.342800      2.904370     -4.772980
C       -3.185920     -5.892780     -5.759350
C       -0.647410     -5.905700     -5.705210
C       -1.902810     -5.157610     -6.215510
H       -0.670420     -5.926740     -4.590180
H       -0.595050     -2.944200     -7.260270
C       -0.622210     -2.965810     -6.145300
C       -1.907370     -3.700850     -5.693650
H       -1.878060     -5.138150     -7.330550
C       -3.159710     -2.952390     -6.209960
C       -4.446840     -3.684440     -5.757590
C       -4.441930     -5.147570     -6.273610
H       -4.414580     -5.131780     -7.388660
H       -3.210990     -5.910400     -4.644380
H       -1.934860     -3.720350     -4.578720
H       -3.131110     -2.934410     -7.324870
H       -4.473990     -3.700320     -4.642560
C       -3.161780     -1.495280     -5.688700
C       -0.625540     -1.510040     -5.619900
C       -1.874430     -0.760600     -6.137250
C       -4.408540     -0.744830     -6.209970
H       -3.193540     -1.513470     -4.573860
H       -0.655230     -1.531510     -4.505030
H       -4.374530     -0.728160     -7.325070
H       -1.843100     -0.741030     -7.252310
C       -5.704060     -1.472110     -5.763930
C       -5.702870     -2.934810     -6.273890
C       -5.729480     -5.883840     -5.819540
C       -6.932020     -0.700850     -6.285800
C       -6.972010     -3.681140     -5.821340
C       -6.966940     -5.124470     -6.334010
H       -6.945520     -0.699750     -7.397960
H       -5.745730     -1.484400     -4.650420
H       -5.682810     -2.922390     -7.388010
H       -7.047830     -3.682580     -4.711760
H       -6.988010     -5.122600     -7.445960
H       -5.764250     -5.895930     -4.705840
C       -6.924320      0.744300     -5.775240
C       -5.642500      1.464590     -6.206780
C       -4.404380      0.716130     -5.691200
C       -3.120390      1.440810     -6.130290
C       -1.876920      0.697850     -5.615090
C       -0.593220      1.426630     -6.052290
H       -7.005780      0.751820     -4.667040
H       -4.438460      0.711860     -4.578250
H       -1.910350      0.690980     -4.502220
H       -5.618910      1.535340     -7.316690
H       -3.086200      1.509600     -7.241110
H       -0.560010      1.499300     -7.162830
C       -0.642390      5.896230     -6.229780
C       -1.921400      5.160260     -5.770140
C       -3.178240      5.907860     -6.279880
H       -0.621810      5.917100     -7.344910
C       -1.914590      3.701300     -6.290940
H       -1.942480      5.141620     -4.654900
C       -3.188830      2.971930     -5.835340
C       -4.442290      3.709440     -6.336990
C       -4.456550      5.170830     -5.819640
H       -1.895620      3.707220     -7.404190
H       -3.156240      5.925580     -7.394990
H       -4.477160      5.154750     -4.704200
H       -4.421840      3.713040     -7.450310
H       -3.208940      2.904220     -4.724130
C       -0.660150      2.959990     -5.793840
H       -0.677830      2.889160     -4.682880
C       -5.720960      5.911260     -6.328900
C       -5.711970      2.974380     -5.882740
C       -6.981120      5.153180     -5.868070
C       -6.963330      3.707640     -6.377280
H       -5.707740      5.923260     -7.443150
H       -7.049450      5.153040     -4.757960
H       -6.990080      3.700080     -7.488160
H       -5.743800      2.904370     -4.772980
C        4.413080     -5.892780     -5.759350
C        6.951590     -5.905700     -5.705210
C        5.696190     -5.157610     -6.215510
H        6.928580     -5.926740     -4.590180
H        7.003950     -2.944200     -7.260270
C        6.976790     -2.965810     -6.145300
C        5.691630     -3.700850     -5.693650
H        5.720940     -5.138150     -7.330550
C        4.439290     -2.952390     -6.209960
C        3.152160     -3.684440     -5.757590
C        3.157070     -5.147570     -6.273610
H        3.184420     -5.131780     -7.388660
H        4.388010     -5.910400     -4.644380
H        5.664140     -3.720350     -4.578720
H        4.467890     -2.934410     -7.324870
H        3.125010     -3.700320     -4.642560
C        4.437220     -1.495280     -5.688700
C        6.973460     -1.510040     -5.619900
C        5.724570     -0.760600     -6.137250
C        3.190460     -0.744830     -6.209970
H        4.405460     -1.513470     -4.573860
H        6.943770     -1.531510     -4.505030
H        3.224470     -0.728160     -7.325070
H        5.755900     -0.741030     -7.252310
C        1.894940     -1.472110     -5.763930
C        1.896130     -2.934810     -6.273890
C        1.869520     -5.883840     -5.819540
C        0.666980     -0.700850     -6.285800
C        0.626990     -3.681140     -5.821340
C        0.632060     -5.124470     -6.334010
H        0.653480     -0.699750     -7.397960
H        1.853270     -1.484400     -4.650420
H        1.916190     -2.922390     -7.388010
H        0.551170     -3.682580     -4.711760
H        0.610990     -5.122600     -7.445960
H        1.834750     -5.895930     -4.705840
C        0.674680      0.744300     -5.775240
C        1.956500      1.464590     -6.206780
C        3.194620      0.716130     -5.691200
C        4.478610      1.440810     -6.130290
C        5.722080      0.697850     -5.615090
C        7.005780      1.426630     -6.052290
H        0.593220      0.751820     -4.667040
H        3.160540      0.711860     -4.578250
H        5.688650      0.690980     -4.502220
H        1.980090      1.535340     -7.316690
H        4.512800      1.509600     -7.241110
H        7.038990      1.499300     -7.162830
C        6.956610      5.896230     -6.229780
C        5.677600      5.160260     -5.770140
C        4.420760      5.907860     -6.279880
H        6.977190      5.917100     -7.344910
C        5.684410      3.701300     -6.290940
H        5.656520      5.141620     -4.654900
C        4.410170      2.971930     -5.835340
C        3.156710      3.709440     -6.336990
C        3.142450      5.170830     -5.819640
H        5.703380      3.707220     -7.404190
H        4.442760      5.925580     -7.394990
H        3.121840      5.154750     -4.704200
H        3.177160      3.713040     -7.450310
H        4.390060      2.904220     -4.724130
C        6.938850      2.959990     -5.793840
H        6.921170      2.889160     -4.682880
C        1.878040      5.911260     -6.328900
C        1.887030      2.974380     -5.882740
C        0.617880      5.153180     -5.868070
C        0.635670      3.707640     -6.377280
H        1.891260      5.923260     -7.443150
H        0.549550      5.153040     -4.757960
H        0.608920      3.700080     -7.488160
H        1.855200      2.904370     -4.772980
C       12.012080     -5.892780     -5.759350
C       14.550590     -5.905700     -5.705210
C       13.295190     -5.157610     -6.215510
H       14.527580     -5.926740     -4.590180
H       14.602950     -2.944200     -7.260270
C       14.575790     -2.965810     -6.145300
C       13.290630     -3.700850     -5.693650
H       13.319940     -5.138150     -7.330550
C       12.038290     -2.952390     -6.209960
C       10.751160     -3.684440     -5.757590
C       10.756070     -5.147570     -6.273610
H       10.783420     -5.131780     -7.388660
H       11.987010     -5.910400     -4.644380
H       13.263140     -3.720350     -4.578720
H       12.066890     -2.934410     -7.324870
H       10.724010     -3.700320     -4.642560
C       12.036220     -1.495280     -5.688700
C       14.572460     -1.510040     -5.619900
C       13.323570     -0.760600     -6.137250
C       10.789460     -0.744830     -6.209970
H       12.004460     -1.513470     -4.573860
H       14.542770     -1.531510     -4.505030
H       10.823470     -0.728160     -7.325070
H       13.354900     -0.741030     -7.252310
C        9.493940     -1.472110     -5.763930
C        9.495130     -2.934810     -6.273890
C        9.468520     -5.883840     -5.819540
C        8.265980     -0.700850     -6.285800
C        8.225990     -3.681140     -5.821340
C        8.231060     -5.124470     -6.334010
H        8.252480     -0.699750     -7.397960
H        9.452270     -1.484400     -4.650420
H        9.515190     -2.922390     -7.388010
H        8.150170     -3.682580     -4.711760
H        8.209990     -5.122600     -7.445960
H        9.433750     -5.895930     -4.705840
C        8.273680      0.744300     -5.775240
C        9.555500      1.464590     -6.206780
C       10.793620      0.716130     -5.691200
C       12.077610      1.440810     -6.130290
C       13.321080      0.697850     -5.615090
C       14.604780      1.426630     -6.052290
H        8.192220      0.751820     -4.667040
H       10.759540      0.711860     -4.578250
H       13.287650      0.690980     -4.502220
H        9.579090      1.535340     -7.316690
H       12.111800      1.509600     -7.241110
H       14.637990      1.499300     -7.162830
C       14.555610      5.896230     -6.229780
C       13.276600      5.160260     -5.770140
C       12.019760      5.907860     -6.279880
H       14.576190      5.917100     -7.344910
C       13.283410      3.701300     -6.290940
H       13.255520      5.141620     -4.654900
C       12.009170      2.971930     -5.835340
C       10.755710      3.709440     -6.336990
C       10.741450      5.170830     -5.819640
H       13.302380      3.707220     -7.404190
H       12.041760      5.925580     -7.394990
H       10.720840      5.154750     -4.704200
H       10.776160      3.713040     -7.450310
H       11.989060      2.904220     -4.724130
C       14.537850      2.959990     -5.793840
H       14.520170      2.889160     -4.682880
C        9.477040      5.911260     -6.328900
C        9.486030      2.974380     -5.882740
C        8.216880      5.153180     -5.868070
C        8.234670      3.707640     -6.377280
H        9.490260      5.923260     -7.443150
H        8.148550      5.153040     -4.757960
H        8.207920      3.700080     -7.488160
H        9.454200      2.904370     -4.772980
C      -10.784920     -5.892780      6.240650
C       -8.246410     -5.905700      6.294790
C       -9.501810     -5.157610      5.784490
H       -8.269420     -5.926740      7.409820
H       -8.194050     -2.944200      4.739730
C       -8.221210     -2.965810      5.854700
C       -9.506370     -3.700850      6.306350
H       -9.477060     -5.138150      4.669450
C      -10.758710     -2.952390      5.790040
C      -12.045840     -3.684440      6.242410
C      -12.040930     -5.147570      5.726390
H      -12.013580     -5.131780      4.611340
H      -10.809990     -5.910400      7.355620
H       -9.533860     -3.720350      7.421280
H      -10.730110     -2.934410      4.675130
H      -12.072990     -3.700320      7.357440
C      -10.760780     -1.495280      6.311300
C       -8.224540     -1.510040      6.380100
C       -9.473430     -0.760600      5.862750
C      -12.007540     -0.744830      5.790030
H      -10.792540     -1.513470      7.426140
H       -8.254230     -1.531510      7.494970
H      -11.973530     -0.728160      4.674930
H       -9.442100     -0.741030      4.747690
C      -13.303060     -1.472110      6.236070
C      -13.301870     -2.934810      5.726110
C      -13.328480     -5.883840      6.180460
C      -14.531020     -0.700850      5.714200
C      -14.571010     -3.681140      6.178660
C      -14.565940     -5.124470      5.665990
H      -14.544520     -0.699750      4.602040
H      -13.344730     -1.484400      7.349580
H      -13.281810     -2.922390      4.611990
H      -14.646830     -3.682580      7.288240
H      -14.587010     -5.122600      4.554040
H      -13.363250     -5.895930      7.294160
C      -14.523320      0.744300      6.224760
C      -13.241500      1.464590      5.793220
C      -12.003380      0.716130      6.308800
C      -10.719390      1.440810      5.869710
C       -9.475920      0.697850      6.384910
C       -8.192220      1.426630      5.947710
H      -14.604780      0.751820      7.332960
H      -12.037460      0.711860      7.421750
H       -9.509350      0.690980      7.497780
H      -13.217910      1.535340      4.683310
H      -10.685200      1.509600      4.758890
H       -8.159010      1.499300      4.837170
C       -8.241390      5.896230      5.770220
C       -9.520400      5.160260      6.229860
C      -10.777240      5.907860      5.720120
H       -8.220810      5.917100      4.655090
C       -9.513590      3.701300      5.709060
H       -9.541480      5.141620      7.345100
C      -10.787830      2.971930      6.164660
C      -12.041290      3.709440      5.663010
C      -12.055550      5.170830      6.180360
H       -9.494620      3.707220      4.595810
H      -10.755240      5.925580      4.605010
H      -12.076160      5.154750      7.295800
H      -12.020840      3.713040      4.549690
H      -10.807940      2.904220      7.275870
C       -8.259150      2.959990      6.206160
H       -8.276830      2.889160      7.317120
C      -13.319960      5.911260      5.671100
C      -13.310970      2.974380      6.117260
C      -14.580120      5.153180      6.131930
C      -14.562330      3.707640      5.622720
H      -13.306740      5.923260      4.556850
H      -14.648450      5.153040      7.242040
H      -14.589080      3.700080      4.511840
H      -13.342800      2.904370      7.227020
C       -3.185920     -5.892780      6.240650
C       -0.647410     -5.905700      6.294790
C       -1.902810     -5.157610      5.784490
H       -0.670420     -5.926740      7.409820
H       -0.595050     -2.944200      4.739730
C       -0.622210     -2.965810      5.854700
C       -1.907370     -3.700850      6.306350
H       -1.878060     -5.138150      4.669450
C       -3.159710     -2.952390      5.790040
C       -4.446840     -3.684440      6.242410
C       -4.441930     -5.147570      5.726390
H       -4.414580     -5.131780      4.611340
H       -3.210990     -5.910400      7.355620
H       -1.934860     -3.720350      7.421280
H       -3.131110     -2.934410      4.675130
H       -4.473990     -3.700320      7.357440
C       -3.161780     -1.495280      6.311300
C       -0.625540     -1.510040      6.380100
C       -1.874430     -0.760600      5.862750
C       -4.408540     -0.744830      5.790030
H       -3.193540     -1.513470      7.426140
H       -0.655230     -1.531510      7.494970
H       -4.374530     -0.728160      4.674930
H       -1.843100     -0.741030      4.747690
C       -5.704060     -1.472110      6.236070
C       -5.702870     -2.934810      5.726110
C       -5.729480     -5.883840      6.180460
C       -6.932020     -0.700850      5.714200
C       -6.972010     -3.681140      6.178660
C       -6.966940     -5.124470      5.665990
H       -5.745730     -1.484400      7.349580
H       -5.682810     -2.922390      4.611990
H       -7.047830     -3.682580      7.288240
H       -6.988010     -5.122600      4.554040
H       -5.764250     -5.895930      7.294160
C       -6.924320      0.744300      6.224760
C       -5.642500      1.464590      5.793220
C       -4.404380      0.716130      6.308800
C       -3.120390      1.440810      5.869710
C       -1.876920      0.697850      6.384910
C       -0.593220      1.426630      5.947710
H       -7.005780      0.751820      7.332960
H       -4.438460      0.711860      7.421750
H       -1.910350      0.690980      7.497780
H       -5.618910      1.535340      4.683310
H       -3.086200      1.509600      4.758890
H       -0.560010      1.499300      4.837170
C       -0.642390      5.896230      5.770220
C       -1.921400      5.160260      6.229860
C       -3.178240      5.907860      5.720120
H       -0.621810      5.917100      4.655090
C       -1.914590      3.701300      5.709060
H       -1.942480      5.141620      7.345100
C       -3.188830      2.971930      6.164660
C       -4.442290      3.709440      5.663010
C       -4.456550      5.170830      6.180360
H       -1.895620      3.707220      4.595810
H       -3.156240      5.925580      4.605010
H       -4.477160      5.154750      7.295800
H       -4.421840      3.713040      4.549690
H       -3.208940      2.904220      7.275870
C       -0.660150      2.959990      6.206160
H       -0.677830      2.889160      7.317120
C       -5.720960      5.911260      5.671100
C       -5.711970      2.974380      6.117260
C       -6.981120      5.153180      6.131930
C       -6.963330      3.707640      5.622720
H       -5.707740      5.923260      4.556850
H       -7.049450      5.153040      7.242040
H       -6.990080      3.700080      4.511840
H       -5.743800      2.904370      7.227020
C        4.413080     -5.892780      6.240650
C        6.951590     -5.905700      6.294790
C        5.696190     -5.157610      5.784490
H        6.928580     -5.926740      7.409820
H        7.003950     -2.944200      4.739730
C        6.976790     -2.965810      5.854700
C        5.691630     -3.700850      6.306350
H        5.720940     -5.138150      4.669450
C        4.439290     -2.952390      5.790040
C        3.152160     -3.684440      6.242410
C        3.157070     -5.147570      5.726390
H        3.184420     -5.131780      4.611340
H        4.388010     -5.910400      7.355620
H        5.664140     -3.720350      7.421280
H        4.467890     -2.934410      4.675130
H        3.125010     -3.700320      7.357440
C        4.437220     -1.495280      6.311300
C        6.973460     -1.510040      6.380100
C        5.724570     -0.760600      5.862750
C        3.190460     -0.744830      5.790030
H        4.405460     -1.513470      7.426140
H        6.943770     -1.531510      7.494970
H        3.224470     -0.728160      4.674930
H        5.755900     -0.741030      4.747690
C        1.894940     -1.472110      6.236070
C        1.896130     -2.934810      5.726110
C        1.869520     -5.883840      6.180460
C        0.666980     -0.700850      5.714200
C        0.626990     -3.681140      6.178660
C        0.632060     -5.124470      5.665990
H        0.653480     -0.699750      4.602040
H        1.853270     -1.484400      7.349580
H        1.916190     -2.922390      4.611990
H        0.551170     -3.682580      7.288240
H        0.610990     -5.122600      4.554040
H        1.834750     -5.895930      7.294160
C        0.674680      0.744300      6.224760
C        1.956500      1.464590      5.793220
C        3.194620      0.716130      6.308800
C        4.478610      1.440810      5.869710
C        5.722080      0.697850      6.384910
C        7.005780      1.426630      5.947710
H        0.593220      0.751820      7.332960
H        3.160540      0.711860      7.421750
H        5.688650      0.690980      7.497780
H        1.980090      1.535340      4.683310
H        4.512800      1.509600      4.758890
H        7.038990      1.499300      4.837170
C        6.956610      5.896230      5.770220
C        5.677600      5.160260      6.229860
C        4.420760      5.907860      5.720120
H        6.977190      5.917100      4.655090
C        5.684410      3.701300      5.709060
H        5.656520      5.141620      7.345100
C        4.410170      2.971930      6.164660
C        3.156710      3.709440      5.663010
C        3.142450      5.170830      6.180360
H        5.703380      3.707220      4.595810
H        4.442760      5.925580      4.605010
H        3.121840      5.154750      7.295800
H        3.177160      3.713040      4.549690
H        4.390060      2.904220      7.275870
C        6.938850      2.959990      6.206160
H        6.921170      2.889160      7.317120
C        1.878040      5.911260      5.671100
C        1.887030      2.974380      6.117260
C        0.617880      5.153180      6.131930
C        0.635670      3.707640      5.622720
H        1.891260      5.923260      4.556850
H        0.549550      5.153040      7.242040
H        0.608920      3.700080      4.511840
H        1.855200      2.904370      7.227020
C       12.012080     -5.892780      6.240650
C       14.550590     -5.905700      6.294790
C       13.295190     -5.157610      5.784490
H       14.527580     -5.926740      7.409820
H       14.602950     -2.944200      4.739730
C       14.575790     -2.965810      5.854700
C       13.290630     -3.700850      6.306350
H       13.319940     -5.138150      4.669450
C       12.038290     -2.952390      5.790040
C       10.751160     -3.684440      6.242410
C       10.756070     -5.147570      5.726390
H       10.783420     -5.131780      4.611340
H       11.987010     -5.910400      7.355620
H       13.263140     -3.720350      7.421280
H       12.066890     -2.934410      4.675130
H       10.724010     -3.700320      7.357440
C       12.036220     -1.495280      6.311300
C       14.572460     -1.510040      6.380100
C       13.323570     -0.760600      5.862750
C       10.789460     -0.744830      5.790030
H       12.004460     -1.513470      7.426140
H       14.542770     -1.531510      7.494970
H       10.823470     -0.728160      4.674930
H       13.354900     -0.741030      4.747690
C        9.493940     -1.472110      6.236070
C        9.495130     -2.934810      5.726110
C        9.468520     -5.883840      6.180460
C        8.265980     -0.700850      5.714200
C        8.225990     -3.681140      6.178660
C        8.231060     -5.124470      5.665990
H        9.452270     -1.484400      7.349580
H        9.515190     -2.922390      4.611990
H        8.150170     -3.682580      7.288240
H        8.209990     -5.122600      4.554040
H        9.433750     -5.895930      7.294160
C        8.273680      0.744300      6.224760
C        9.555500      1.464590      5.793220
C       10.793620      0.716130      6.308800
C       12.077610      1.440810      5.869710
C       13.321080      0.697850      6.384910
C       14.604780      1.426630      5.947710
H        8.192220      0.751820      7.332960
H       10.759540      0.711860      7.421750
H       13.287650      0.690980      7.497780
H        9.579090      1.535340      4.683310
H       12.111800      1.509600      4.758890
H       14.637990      1.499300      4.837170
C       14.555610      5.896230      5.770220
C       13.276600      5.160260      6.229860
C       12.019760      5.907860      5.720120
H       14.576190      5.917100      4.655090
C       13.283410      3.701300      5.709060
H       13.255520      5.141620      7.345100
C       12.009170      2.971930      6.164660
C       10.755710      3.709440      5.663010
C       10.741450      5.170830      6.180360
H       13.302380      3.707220      4.595810
H       12.041760      5.925580      4.605010
H       10.720840      5.154750      7.295800
H       10.776160      3.713040      4.549690
H       11.989060      2.904220      7.275870
C       14.537850      2.959990      6.206160
H       14.520170      2.889160      7.317120
C        9.477040      5.911260      5.671100
C        9.486030      2.974380      6.117260
C        8.216880      5.153180      6.131930
C        8.234670      3.707640      5.622720
H        9.490260      5.923260      4.556850
H        8.148550      5.153040      7.242040
H        8.207920      3.700080      4.511840
H        9.454200      2.904370      7.227020
N       -8.139370     -1.500920      1.965610
C       -8.194980     -1.321140      3.450120
H       -8.369520     -2.308940      3.936580
H       -9.061940     -0.670950      3.711810
C       -6.932020     -0.700850      4.094200
H       -6.048560     -1.345630      3.908920
H       -6.742030      0.309700      3.678190
C       -9.419550     -2.112740      1.532250
H       -9.576110     -3.102530      2.017670
H      -10.284530     -1.462650      1.794860
H       -9.440120     -2.271590      0.430270
C       -7.034730     -2.407160      1.569700
H       -7.107340     -3.381630      2.102220
H       -7.059180     -2.611220      0.475470
H       -6.040760     -1.961310      1.783780
C       -7.986980     -0.201390      1.268250
H       -8.039790     -0.333010      0.163930
H       -8.789720      0.508990      1.567410
H       -7.003830      0.267440      1.482550
N        7.058630     -1.500920      1.965610
C        7.003020     -1.321140      3.450120
H        6.828480     -2.308940      3.936580
H        6.136060     -0.670950      3.711810
C        8.265980     -0.700850      4.094200
H        9.149440     -1.345630      3.908920
H        8.455970      0.309700      3.678190
C        5.778450     -2.112740      1.532250
H        5.621890     -3.102530      2.017670
H        4.913470     -1.462650      1.794860
H        5.757880     -2.271590      0.430270
C        8.163270     -2.407160      1.569700
H        8.090660     -3.381630      2.102220
H        8.138820     -2.611220      0.475470
H        9.157240     -1.961310      1.783780
C        7.211020     -0.201390      1.268250
H        7.158210     -0.333010      0.163930
H        6.408280      0.508990      1.567410
H        8.194170      0.267440      1.482550
O       -5.848620      0.105710     -0.927120
H       -5.858600      1.031000     -0.679120
H       -5.837170      0.105870     -1.885050
O        7.527290      1.912940     -1.867880
H        7.996660      2.728440     -2.047930
H        7.619510      1.392220     -2.666700
O       -6.028480      3.328860     -2.136110
H       -5.099740      3.563370     -2.121890
H       -6.491440      4.157360     -2.266550
O        6.395480      4.700840      1.193100
H        6.385500      5.626130      1.441100
H        6.406930      4.701000      0.235170
O        5.865130      4.443520     -1.798960
H        5.855150      5.368810     -1.550960
H        5.876580      4.443680     -2.756890
O        4.176860      3.072890      0.325320
H        4.166880      3.998180      0.573320
H        4.188310      3.073050     -0.632610
O        2.661600      2.039920     -1.933300
H        2.651620      2.965210     -1.685300
H        2.673050      2.040080     -2.891230
O        0.745060      0.546930     -0.851580
H        0.735080      1.472220     -0.603580
H        0.756510      0.547090     -1.809510
O       -1.258390     -1.119770      2.518430
H       -1.268370     -0.194480      2.766430
H       -1.246940     -1.119610      1.560500
O       -1.376050     -1.075100     -0.294920
H       -1.386030     -0.149810     -0.046920
H       -1.364600     -1.074940     -1.252850
O      -10.891870     -4.061780      1.339250
H      -10.901850     -3.136490      1.587250
H      -10.880420     -4.061620      0.381320
O       -6.898870     -3.475880     -0.827970
H       -7.749910     -3.915350     -0.846790
H       -6.256040     -4.174790     -0.954670
O       -9.722690     -2.989280     -1.620280
H      -10.636040     -2.739660     -1.766010
H       -9.246140     -2.160590     -1.557610
O       -3.732870     -4.667530     -0.784360
H       -3.742850     -3.742240     -0.536360
H       -3.721420     -4.667370     -1.742290
O       -5.563390      3.017090     -0.344720
H       -6.235250      3.434420     -0.885290
H       -5.055990      3.741550      0.023350
O       13.137630     -2.038370     -0.326240
H       13.127650     -1.113080     -0.078240
H       13.149080     -2.038210     -1.284170
O       11.197860     -1.548280     -1.752230
H       11.187880     -0.622990     -1.504230
H       11.209310     -1.548120     -2.710160
O       -2.824100      1.641780     -1.981180
H       -2.834080      2.567070     -1.733180
H       -2.812650      1.641940     -2.939110
O        1.233930      0.583790      1.937080
H        1.223950      1.509080      2.185080
H        1.245380      0.583950      0.979150
O       -9.699940      3.071660      1.748180
H       -9.709920      3.996950      1.996180
H       -9.688490      3.071820      0.790250
O      -11.550400      3.298240     -1.993750
H      -12.207350      3.984990     -2.114420
H      -10.707020      3.741890     -2.091960
O        4.456480     -2.198020     -1.976510
H        4.440370     -1.400820     -1.445500
H        5.385580     -2.404320     -2.085910
O       -4.756110      4.654330      2.599520
H       -4.766090      5.579620      2.847520
H       -4.744660      4.654490      1.641590
O        1.089050     -4.297570     -1.058550
H        1.079070     -3.372280     -0.810550
H        1.100500     -4.297410     -2.016480
O        2.421130     -1.114830     -2.031110
H        2.411150     -0.189540     -1.783110
H        2.432580     -1.114670     -2.989040
O       -6.497560      4.823980      0.750450
H       -6.697180      5.561740      0.172850
H       -7.316510      4.331140      0.815230
O       -6.755990     -2.558190     -2.516040
H       -6.112560     -1.853370     -2.432330
H       -6.301510     -3.253400     -2.993410
O        8.406850      1.565210      0.465760
H        8.039530      2.406870      0.192900
H        9.248280      1.503110      0.011990
O       -2.479290      4.348740      0.842130
H       -2.489270      5.274030      1.090130
H       -2.467840      4.348900     -0.115800
O      -12.557350      0.158530      2.540250
H      -11.930310     -0.556990      2.652570
H      -13.417060     -0.241440      2.676940
O       -1.444050      4.263960     -2.225410
H       -1.454030      5.189250     -1.977410
H       -1.432600      4.264120     -3.183340
O      -11.605890      1.185840      0.472300
H      -12.426300      1.314060     -0.005450
H      -11.258710      2.068020      0.610070
O        5.722910      1.149780      0.031020
H        5.712930      2.075070      0.279020
H        5.734360      1.149940     -0.926910
O       -1.358310      1.945980      0.609060
H       -2.291380      1.847620      0.415490
H       -1.228020      2.887370      0.729800
O        8.603040     -4.924980      0.332990
H        8.593060     -3.999690      0.580990
H        8.614490     -4.924820     -0.624940
O        6.447700     -3.311750     -0.836900
H        6.437720     -2.386460     -0.588900
H        6.459150     -3.311590     -1.794830
O       12.900030      1.806270      1.765060
H       13.675760      2.366990      1.725070
H       13.242210      0.914560      1.839370
O       -0.277160      2.701840      2.987040
H       -1.230800      2.704720      2.895690
H        0.052390      3.050870      2.157990
O        3.390520      0.651230     -0.723290
H        3.380540      1.576520     -0.475290
H        3.401970      0.651390     -1.681220
O        4.793980      2.157600      2.570000
H        4.784000      3.082890      2.818000
H        4.805430      2.157760      1.612070
O        9.449573      1.079236     -2.374904
H        9.624447      0.310067     -2.918560
H        9.411734      1.813522     -2.989033
O       -8.059849      2.627815      2.614833
H       -7.601067      1.820406      2.850148
H       -7.810022      2.799082      1.705980
O      -12.195901      2.582198      1.900439
H      -12.205881      3.507488      2.148439
H      -12.184451      2.582358      0.942509
O       -5.986786     -4.643257      3.022067
H       -5.918305     -3.697400      2.886307
H       -6.919477     -4.840447      2.927395
O       10.122498      3.467756     -1.143225
H       10.911912      3.385855     -1.679772
H       10.026292      4.407780     -0.985555
O       10.954069      4.049475      1.940646
H       10.041584      3.990715      1.654842
H       11.343044      3.206837      1.703115
O        9.519681      5.169525      0.205881
H       10.054136      5.633140      0.851779
H        8.840310      5.795122     -0.048764
O       12.092482      3.048232     -0.332356
H       13.002358      2.893365     -0.075634
H       11.999909      2.623212     -1.185907
O      -12.090724     -1.650685     -1.448819
H      -12.100704     -0.725395     -1.200819
H      -12.079274     -1.650525     -2.406749
O       -9.397460      1.980382     -0.548085
H       -8.578421      2.448383     -0.715159
H       -9.139520      1.066411     -0.422051
O       -3.820953      0.608956      0.488767
H       -3.621792     -0.312896      0.320526
H       -3.759838      0.706254      1.439844
O       -9.446310     -0.344860     -2.123590
H       -9.456300      0.580430     -1.875590
O       11.097750     -4.788150      2.398110
H       11.087770     -3.862860      2.646110

