318

C -3.18592 -5.89278 -10.75935
C -0.64741 -5.9057 -10.70521
C -1.90281 -5.15761 -11.21551
H -0.67042 -5.92674 -9.59018
H -0.59505 -2.9442 -12.26027
C -0.62221 -2.96581 -11.1453
C -1.90737 -3.70085 -10.69365
H -1.87806 -5.13815 -12.33055
C -3.15971 -2.95239 -11.20996
C -4.44684 -3.68444 -10.75759
C -4.44193 -5.14757 -11.27361
H -4.41458 -5.13178 -12.38866
H -3.21099 -5.9104 -9.64438
H -1.93486 -3.72035 -9.57872
H -3.13111 -2.93441 -12.32487
H -4.47399 -3.70032 -9.64256
C -3.16178 -1.49528 -10.6887
C -0.62554 -1.51004 -10.6199
C -1.87443 -0.7606 -11.13725
C -4.40854 -0.74483 -11.20997
H -3.19354 -1.51347 -9.57386
H -0.65523 -1.53151 -9.50503
H -4.37453 -0.72816 -12.32507
H -1.8431 -0.74103 -12.25231
C -5.70406 -1.47211 -10.76393
C -5.70287 -2.93481 -11.27389
C -5.72948 -5.88384 -10.81954
C -6.93202 -0.70085 -11.2858
C -6.97201 -3.68114 -10.82134
C -6.96694 -5.12447 -11.33401
H -6.94552 -0.69975 -12.39796
H -5.74573 -1.4844 -9.65042
H -5.68281 -2.92239 -12.38801
H -7.04783 -3.68258 -9.71176
H -6.98801 -5.1226 -12.44596
H -5.76425 -5.89593 -9.70584
C -6.92432 0.7443 -10.77524
C -5.6425 1.46459 -11.20678
C -4.40438 0.71613 -10.6912
C -3.12039 1.44081 -11.13029
C -1.87692 0.69785 -10.61509
C -0.59322 1.42663 -11.05229
H -7.00578 0.75182 -9.66704
H -4.43846 0.71186 -9.57825
H -1.91035 0.69098 -9.50222
H -5.61891 1.53534 -12.31669
H -3.0862 1.5096 -12.24111
H -0.56001 1.4993 -12.16283
C -0.64239 5.89623 -11.22978
C -1.9214 5.16026 -10.77014
C -3.17824 5.90786 -11.27988
H -0.62181 5.9171 -12.34491
C -1.91459 3.7013 -11.29094
H -1.94248 5.14162 -9.6549
C -3.18883 2.97193 -10.83534
C -4.44229 3.70944 -11.33699
C -4.45655 5.17083 -10.81964
H -1.89562 3.70722 -12.40419
H -3.15624 5.92558 -12.39499
H -4.47716 5.15475 -9.7042
H -4.42184 3.71304 -12.45031
H -3.20894 2.90422 -9.72413
C -0.66015 2.95999 -10.79384
H -0.67783 2.88916 -9.68288
C -5.72096 5.91126 -11.3289
C -5.71197 2.97438 -10.88274
C -6.98112 5.15318 -10.86807
C -6.96333 3.70764 -11.37728
H -5.70774 5.92326 -12.44315
H -7.04945 5.15304 -9.75796
H -6.99008 3.70008 -12.48816
H -5.7438 2.90437 -9.77298
C 4.41308 -5.89278 -10.75935
C 6.95159 -5.9057 -10.70521
C 5.69619 -5.15761 -11.21551
H 6.92858 -5.92674 -9.59018
H 7.00395 -2.9442 -12.26027
C 6.97679 -2.96581 -11.1453
C 5.69163 -3.70085 -10.69365
H 5.72094 -5.13815 -12.33055
C 4.43929 -2.95239 -11.20996
C 3.15216 -3.68444 -10.75759
C 3.15707 -5.14757 -11.27361
H 3.18442 -5.13178 -12.38866
H 4.38801 -5.9104 -9.64438
H 5.66414 -3.72035 -9.57872
H 4.46789 -2.93441 -12.32487
H 3.12501 -3.70032 -9.64256
C 4.43722 -1.49528 -10.6887
C 6.97346 -1.51004 -10.6199
C 5.72457 -0.7606 -11.13725
C 3.19046 -0.74483 -11.20997
H 4.40546 -1.51347 -9.57386
H 6.94377 -1.53151 -9.50503
H 3.22447 -0.72816 -12.32507
H 5.7559 -0.74103 -12.25231
C 1.89494 -1.47211 -10.76393
C 1.89613 -2.93481 -11.27389
C 1.86952 -5.88384 -10.81954
C 0.66698 -0.70085 -11.2858
C 0.62699 -3.68114 -10.82134
C 0.63206 -5.12447 -11.33401
H 0.65348 -0.69975 -12.39796
H 1.85327 -1.4844 -9.65042
H 1.91619 -2.92239 -12.38801
H 0.55117 -3.68258 -9.71176
H 0.61099 -5.1226 -12.44596
H 1.83475 -5.89593 -9.70584
C 0.67468 0.7443 -10.77524
C 1.9565 1.46459 -11.20678
C 3.19462 0.71613 -10.6912
C 4.47861 1.44081 -11.13029
C 5.72208 0.69785 -10.61509
C 7.00578 1.42663 -11.05229
H 0.59322 0.75182 -9.66704
H 3.16054 0.71186 -9.57825
H 5.68865 0.69098 -9.50222
H 1.98009 1.53534 -12.31669
H 4.5128 1.5096 -12.24111
H 7.03899 1.4993 -12.16283
C 6.95661 5.89623 -11.22978
C 5.6776 5.16026 -10.77014
C 4.42076 5.90786 -11.27988
H 6.97719 5.9171 -12.34491
C 5.68441 3.7013 -11.29094
H 5.65652 5.14162 -9.6549
C 4.41017 2.97193 -10.83534
C 3.15671 3.70944 -11.33699
C 3.14245 5.17083 -10.81964
H 5.70338 3.70722 -12.40419
H 4.44276 5.92558 -12.39499
H 3.12184 5.15475 -9.7042
H 3.17716 3.71304 -12.45031
H 4.39006 2.90422 -9.72413
C 6.93885 2.95999 -10.79384
H 6.92117 2.88916 -9.68288
C 1.87804 5.91126 -11.3289
C 1.88703 2.97438 -10.88274
C 0.61788 5.15318 -10.86807
C 0.63567 3.70764 -11.37728
H 1.89126 5.92326 -12.44315
H 0.54955 5.15304 -9.75796
H 0.60892 3.70008 -12.48816
H 1.8552 2.90437 -9.77298
C -3.18592 -5.89278 11.24065
C -0.64741 -5.9057 11.29479
C -1.90281 -5.15761 10.78449
H -0.67042 -5.92674 12.40982
H -0.59505 -2.9442 9.73973
C -0.62221 -2.96581 10.8547
C -1.90737 -3.70085 11.30635
H -1.87806 -5.13815 9.66945
C -3.15971 -2.95239 10.79004
C -4.44684 -3.68444 11.24241
C -4.44193 -5.14757 10.72639
H -4.41458 -5.13178 9.61134
H -3.21099 -5.9104 12.35562
H -1.93486 -3.72035 12.42128
H -3.13111 -2.93441 9.67513
H -4.47399 -3.70032 12.35744
C -3.16178 -1.49528 11.3113
C -0.62554 -1.51004 11.3801
C -1.87443 -0.7606 10.86275
C -4.40854 -0.74483 10.79003
H -3.19354 -1.51347 12.42614
H -0.65523 -1.53151 12.49497
H -4.37453 -0.72816 9.67493
H -1.8431 -0.74103 9.74769
C -5.70406 -1.47211 11.23607
C -5.70287 -2.93481 10.72611
C -5.72948 -5.88384 11.18046
C -6.93202 -0.70085 10.7142
C -6.97201 -3.68114 11.17866
C -6.96694 -5.12447 10.66599
H -6.94552 -0.69975 9.60204
H -5.74573 -1.4844 12.34958
H -5.68281 -2.92239 9.61199
H -7.04783 -3.68258 12.28824
H -6.98801 -5.1226 9.55404
H -5.76425 -5.89593 12.29416
C -6.92432 0.7443 11.22476
C -5.6425 1.46459 10.79322
C -4.40438 0.71613 11.3088
C -3.12039 1.44081 10.86971
C -1.87692 0.69785 11.38491
C -0.59322 1.42663 10.94771
H -7.00578 0.75182 12.33296
H -4.43846 0.71186 12.42175
H -1.91035 0.69098 12.49778
H -5.61891 1.53534 9.68331
H -3.0862 1.5096 9.75889
H -0.56001 1.4993 9.83717
C -0.64239 5.89623 10.77022
C -1.9214 5.16026 11.22986
C -3.17824 5.90786 10.72012
H -0.62181 5.9171 9.65509
C -1.91459 3.7013 10.70906
H -1.94248 5.14162 12.3451
C -3.18883 2.97193 11.16466
C -4.44229 3.70944 10.66301
C -4.45655 5.17083 11.18036
H -1.89562 3.70722 9.59581
H -3.15624 5.92558 9.60501
H -4.47716 5.15475 12.2958
H -4.42184 3.71304 9.54969
H -3.20894 2.90422 12.27587
C -0.66015 2.95999 11.20616
H -0.67783 2.88916 12.31712
C -5.72096 5.91126 10.6711
C -5.71197 2.97438 11.11726
C -6.98112 5.15318 11.13193
C -6.96333 3.70764 10.62272
H -5.70774 5.92326 9.55685
H -7.04945 5.15304 12.24204
H -6.99008 3.70008 9.51184
H -5.7438 2.90437 12.22702
C 4.41308 -5.89278 11.24065
C 6.95159 -5.9057 11.29479
C 5.69619 -5.15761 10.78449
H 6.92858 -5.92674 12.40982
H 7.00395 -2.9442 9.73973
C 6.97679 -2.96581 10.8547
C 5.69163 -3.70085 11.30635
H 5.72094 -5.13815 9.66945
C 4.43929 -2.95239 10.79004
C 3.15216 -3.68444 11.24241
C 3.15707 -5.14757 10.72639
H 3.18442 -5.13178 9.61134
H 4.38801 -5.9104 12.35562
H 5.66414 -3.72035 12.42128
H 4.46789 -2.93441 9.67513
H 3.12501 -3.70032 12.35744
C 4.43722 -1.49528 11.3113
C 6.97346 -1.51004 11.3801
C 5.72457 -0.7606 10.86275
C 3.19046 -0.74483 10.79003
H 4.40546 -1.51347 12.42614
H 6.94377 -1.53151 12.49497
H 3.22447 -0.72816 9.67493
H 5.7559 -0.74103 9.74769
C 1.89494 -1.47211 11.23607
C 1.89613 -2.93481 10.72611
C 1.86952 -5.88384 11.18046
C 0.66698 -0.70085 10.7142
C 0.62699 -3.68114 11.17866
C 0.63206 -5.12447 10.66599
H 1.85327 -1.4844 12.34958
H 1.91619 -2.92239 9.61199
H 0.55117 -3.68258 12.28824
H 0.61099 -5.1226 9.55404
H 1.83475 -5.89593 12.29416
C 0.67468 0.7443 11.22476
C 1.9565 1.46459 10.79322
C 3.19462 0.71613 11.3088
C 4.47861 1.44081 10.86971
C 5.72208 0.69785 11.38491
C 7.00578 1.42663 10.94771
H 0.59322 0.75182 12.33296
H 3.16054 0.71186 12.42175
H 5.68865 0.69098 12.49778
H 1.98009 1.53534 9.68331
H 4.5128 1.5096 9.75889
H 7.03899 1.4993 9.83717
C 6.95661 5.89623 10.77022
C 5.6776 5.16026 11.22986
C 4.42076 5.90786 10.72012
H 6.97719 5.9171 9.65509
C 5.68441 3.7013 10.70906
H 5.65652 5.14162 12.3451
C 4.41017 2.97193 11.16466
C 3.15671 3.70944 10.66301
C 3.14245 5.17083 11.18036
H 5.70338 3.70722 9.59581
H 4.44276 5.92558 9.60501
H 3.12184 5.15475 12.2958
H 3.17716 3.71304 9.54969
H 4.39006 2.90422 12.27587
C 6.93885 2.95999 11.20616
H 6.92117 2.88916 12.31712
C 1.87804 5.91126 10.6711
C 1.88703 2.97438 11.11726
C 0.61788 5.15318 11.13193
C 0.63567 3.70764 10.62272
H 1.89126 5.92326 9.55685
H 0.54955 5.15304 12.24204
H 0.60892 3.70008 9.51184
H 1.8552 2.90437 12.22702
N -2.84265 -2.83521 2.86990
C -2.86014 -2.64259 4.32813
H -3.69122 -1.98159 4.59940
H -2.98777 -3.61203 4.82321
C -1.53903 -2.01121 4.77534
H -0.78504 -2.62977 4.50511
H -1.43502 -1.12421 4.29936
C -1.59464 -1.83143 6.25985
H -1.76918 -2.81923 6.74631
H -2.46160 -1.18124 6.52154
C -0.33168 -1.21114 6.90393
H 0.55178 -1.85592 6.71865
H -0.14169 -0.20059 6.48792
C -0.51228 -1.07546 8.42148
H -0.68400 -2.12956 8.72890
H -1.39980 -0.41004 8.48998
C 0.72507 -0.47015 9.07397
H 1.61295 -1.11651 8.90678
H 0.92225 0.54726 8.67398
C -4.11200 -3.44181 2.44021
H -4.09896 -3.58535 1.35372
H -4.94306 -2.78078 2.71145
H -4.23966 -4.41124 2.93531
C -1.72719 -3.72238 2.50586
H -0.78146 -3.27041 2.82608
H -1.71414 -3.86587 1.41938
H -1.85491 -4.69182 3.00092
C -2.67128 -1.53405 2.20548
H -1.72553 -1.08211 2.52568
H -3.50238 -0.87307 2.47676
H -2.65825 -1.67756 1.11900
