636

C -10.78492 -5.89278 -10.75935
C -8.24641 -5.9057 -10.70521
C -9.50181 -5.15761 -11.21551
H -8.26942 -5.92674 -9.59018
H -8.19405 -2.9442 -12.26027
C -8.22121 -2.96581 -11.1453
C -9.50637 -3.70085 -10.69365
H -9.47706 -5.13815 -12.33055
C -10.75871 -2.95239 -11.20996
C -12.04584 -3.68444 -10.75759
C -12.04093 -5.14757 -11.27361
H -12.01358 -5.13178 -12.38866
H -10.80999 -5.9104 -9.64438
H -9.53386 -3.72035 -9.57872
H -10.73011 -2.93441 -12.32487
H -12.07299 -3.70032 -9.64256
C -10.76078 -1.49528 -10.6887
C -8.22454 -1.51004 -10.6199
C -9.47343 -0.7606 -11.13725
C -12.00754 -0.74483 -11.20997
H -10.79254 -1.51347 -9.57386
H -8.25423 -1.53151 -9.50503
H -11.97353 -0.72816 -12.32507
H -9.4421 -0.74103 -12.25231
C -13.30306 -1.47211 -10.76393
C -13.30187 -2.93481 -11.27389
C -13.32848 -5.88384 -10.81954
C -14.53102 -0.70085 -11.2858
C -14.57101 -3.68114 -10.82134
C -14.56594 -5.12447 -11.33401
H -14.54452 -0.69975 -12.39796
H -13.34473 -1.4844 -9.65042
H -13.28181 -2.92239 -12.38801
H -14.64683 -3.68258 -9.71176
H -14.58701 -5.1226 -12.44596
H -13.36325 -5.89593 -9.70584
C -14.52332 0.7443 -10.77524
C -13.2415 1.46459 -11.20678
C -12.00338 0.71613 -10.6912
C -10.71939 1.44081 -11.13029
C -9.47592 0.69785 -10.61509
C -8.19222 1.42663 -11.05229
H -14.60478 0.75182 -9.66704
H -12.03746 0.71186 -9.57825
H -9.50935 0.69098 -9.50222
H -13.21791 1.53534 -12.31669
H -10.6852 1.5096 -12.24111
H -8.15901 1.4993 -12.16283
C -8.24139 5.89623 -11.22978
C -9.5204 5.16026 -10.77014
C -10.77724 5.90786 -11.27988
H -8.22081 5.9171 -12.34491
C -9.51359 3.7013 -11.29094
H -9.54148 5.14162 -9.6549
C -10.78783 2.97193 -10.83534
C -12.04129 3.70944 -11.33699
C -12.05555 5.17083 -10.81964
H -9.49462 3.70722 -12.40419
H -10.75524 5.92558 -12.39499
H -12.07616 5.15475 -9.7042
H -12.02084 3.71304 -12.45031
H -10.80794 2.90422 -9.72413
C -8.25915 2.95999 -10.79384
H -8.27683 2.88916 -9.68288
C -13.31996 5.91126 -11.3289
C -13.31097 2.97438 -10.88274
C -14.58012 5.15318 -10.86807
C -14.56233 3.70764 -11.37728
H -13.30674 5.92326 -12.44315
H -14.64845 5.15304 -9.75796
H -14.58908 3.70008 -12.48816
H -13.3428 2.90437 -9.77298
C -3.18592 -5.89278 -10.75935
C -0.64741 -5.9057 -10.70521
C -1.90281 -5.15761 -11.21551
H -0.67042 -5.92674 -9.59018
H -0.59505 -2.9442 -12.26027
C -0.62221 -2.96581 -11.1453
C -1.90737 -3.70085 -10.69365
H -1.87806 -5.13815 -12.33055
C -3.15971 -2.95239 -11.20996
C -4.44684 -3.68444 -10.75759
C -4.44193 -5.14757 -11.27361
H -4.41458 -5.13178 -12.38866
H -3.21099 -5.9104 -9.64438
H -1.93486 -3.72035 -9.57872
H -3.13111 -2.93441 -12.32487
H -4.47399 -3.70032 -9.64256
C -3.16178 -1.49528 -10.6887
C -0.62554 -1.51004 -10.6199
C -1.87443 -0.7606 -11.13725
C -4.40854 -0.74483 -11.20997
H -3.19354 -1.51347 -9.57386
H -0.65523 -1.53151 -9.50503
H -4.37453 -0.72816 -12.32507
H -1.8431 -0.74103 -12.25231
C -5.70406 -1.47211 -10.76393
C -5.70287 -2.93481 -11.27389
C -5.72948 -5.88384 -10.81954
C -6.93202 -0.70085 -11.2858
C -6.97201 -3.68114 -10.82134
C -6.96694 -5.12447 -11.33401
H -6.94552 -0.69975 -12.39796
H -5.74573 -1.4844 -9.65042
H -5.68281 -2.92239 -12.38801
H -7.04783 -3.68258 -9.71176
H -6.98801 -5.1226 -12.44596
H -5.76425 -5.89593 -9.70584
C -6.92432 0.7443 -10.77524
C -5.6425 1.46459 -11.20678
C -4.40438 0.71613 -10.6912
C -3.12039 1.44081 -11.13029
C -1.87692 0.69785 -10.61509
C -0.59322 1.42663 -11.05229
H -7.00578 0.75182 -9.66704
H -4.43846 0.71186 -9.57825
H -1.91035 0.69098 -9.50222
H -5.61891 1.53534 -12.31669
H -3.0862 1.5096 -12.24111
H -0.56001 1.4993 -12.16283
C -0.64239 5.89623 -11.22978
C -1.9214 5.16026 -10.77014
C -3.17824 5.90786 -11.27988
H -0.62181 5.9171 -12.34491
C -1.91459 3.7013 -11.29094
H -1.94248 5.14162 -9.6549
C -3.18883 2.97193 -10.83534
C -4.44229 3.70944 -11.33699
C -4.45655 5.17083 -10.81964
H -1.89562 3.70722 -12.40419
H -3.15624 5.92558 -12.39499
H -4.47716 5.15475 -9.7042
H -4.42184 3.71304 -12.45031
H -3.20894 2.90422 -9.72413
C -0.66015 2.95999 -10.79384
H -0.67783 2.88916 -9.68288
C -5.72096 5.91126 -11.3289
C -5.71197 2.97438 -10.88274
C -6.98112 5.15318 -10.86807
C -6.96333 3.70764 -11.37728
H -5.70774 5.92326 -12.44315
H -7.04945 5.15304 -9.75796
H -6.99008 3.70008 -12.48816
H -5.7438 2.90437 -9.77298
C 4.41308 -5.89278 -10.75935
C 6.95159 -5.9057 -10.70521
C 5.69619 -5.15761 -11.21551
H 6.92858 -5.92674 -9.59018
H 7.00395 -2.9442 -12.26027
C 6.97679 -2.96581 -11.1453
C 5.69163 -3.70085 -10.69365
H 5.72094 -5.13815 -12.33055
C 4.43929 -2.95239 -11.20996
C 3.15216 -3.68444 -10.75759
C 3.15707 -5.14757 -11.27361
H 3.18442 -5.13178 -12.38866
H 4.38801 -5.9104 -9.64438
H 5.66414 -3.72035 -9.57872
H 4.46789 -2.93441 -12.32487
H 3.12501 -3.70032 -9.64256
C 4.43722 -1.49528 -10.6887
C 6.97346 -1.51004 -10.6199
C 5.72457 -0.7606 -11.13725
C 3.19046 -0.74483 -11.20997
H 4.40546 -1.51347 -9.57386
H 6.94377 -1.53151 -9.50503
H 3.22447 -0.72816 -12.32507
H 5.7559 -0.74103 -12.25231
C 1.89494 -1.47211 -10.76393
C 1.89613 -2.93481 -11.27389
C 1.86952 -5.88384 -10.81954
C 0.66698 -0.70085 -11.2858
C 0.62699 -3.68114 -10.82134
C 0.63206 -5.12447 -11.33401
H 0.65348 -0.69975 -12.39796
H 1.85327 -1.4844 -9.65042
H 1.91619 -2.92239 -12.38801
H 0.55117 -3.68258 -9.71176
H 0.61099 -5.1226 -12.44596
H 1.83475 -5.89593 -9.70584
C 0.67468 0.7443 -10.77524
C 1.9565 1.46459 -11.20678
C 3.19462 0.71613 -10.6912
C 4.47861 1.44081 -11.13029
C 5.72208 0.69785 -10.61509
C 7.00578 1.42663 -11.05229
H 0.59322 0.75182 -9.66704
H 3.16054 0.71186 -9.57825
H 5.68865 0.69098 -9.50222
H 1.98009 1.53534 -12.31669
H 4.5128 1.5096 -12.24111
H 7.03899 1.4993 -12.16283
C 6.95661 5.89623 -11.22978
C 5.6776 5.16026 -10.77014
C 4.42076 5.90786 -11.27988
H 6.97719 5.9171 -12.34491
C 5.68441 3.7013 -11.29094
H 5.65652 5.14162 -9.6549
C 4.41017 2.97193 -10.83534
C 3.15671 3.70944 -11.33699
C 3.14245 5.17083 -10.81964
H 5.70338 3.70722 -12.40419
H 4.44276 5.92558 -12.39499
H 3.12184 5.15475 -9.7042
H 3.17716 3.71304 -12.45031
H 4.39006 2.90422 -9.72413
C 6.93885 2.95999 -10.79384
H 6.92117 2.88916 -9.68288
C 1.87804 5.91126 -11.3289
C 1.88703 2.97438 -10.88274
C 0.61788 5.15318 -10.86807
C 0.63567 3.70764 -11.37728
H 1.89126 5.92326 -12.44315
H 0.54955 5.15304 -9.75796
H 0.60892 3.70008 -12.48816
H 1.8552 2.90437 -9.77298
C 12.01208 -5.89278 -10.75935
C 14.55059 -5.9057 -10.70521
C 13.29519 -5.15761 -11.21551
H 14.52758 -5.92674 -9.59018
H 14.60295 -2.9442 -12.26027
C 14.57579 -2.96581 -11.1453
C 13.29063 -3.70085 -10.69365
H 13.31994 -5.13815 -12.33055
C 12.03829 -2.95239 -11.20996
C 10.75116 -3.68444 -10.75759
C 10.75607 -5.14757 -11.27361
H 10.78342 -5.13178 -12.38866
H 11.98701 -5.9104 -9.64438
H 13.26314 -3.72035 -9.57872
H 12.06689 -2.93441 -12.32487
H 10.72401 -3.70032 -9.64256
C 12.03622 -1.49528 -10.6887
C 14.57246 -1.51004 -10.6199
C 13.32357 -0.7606 -11.13725
C 10.78946 -0.74483 -11.20997
H 12.00446 -1.51347 -9.57386
H 14.54277 -1.53151 -9.50503
H 10.82347 -0.72816 -12.32507
H 13.3549 -0.74103 -12.25231
C 9.49394 -1.47211 -10.76393
C 9.49513 -2.93481 -11.27389
C 9.46852 -5.88384 -10.81954
C 8.26598 -0.70085 -11.2858
C 8.22599 -3.68114 -10.82134
C 8.23106 -5.12447 -11.33401
H 8.25248 -0.69975 -12.39796
H 9.45227 -1.4844 -9.65042
H 9.51519 -2.92239 -12.38801
H 8.15017 -3.68258 -9.71176
H 8.20999 -5.1226 -12.44596
H 9.43375 -5.89593 -9.70584
C 8.27368 0.7443 -10.77524
C 9.5555 1.46459 -11.20678
C 10.79362 0.71613 -10.6912
C 12.07761 1.44081 -11.13029
C 13.32108 0.69785 -10.61509
C 14.60478 1.42663 -11.05229
H 8.19222 0.75182 -9.66704
H 10.75954 0.71186 -9.57825
H 13.28765 0.69098 -9.50222
H 9.57909 1.53534 -12.31669
H 12.1118 1.5096 -12.24111
H 14.63799 1.4993 -12.16283
C 14.55561 5.89623 -11.22978
C 13.2766 5.16026 -10.77014
C 12.01976 5.90786 -11.27988
H 14.57619 5.9171 -12.34491
C 13.28341 3.7013 -11.29094
H 13.25552 5.14162 -9.6549
C 12.00917 2.97193 -10.83534
C 10.75571 3.70944 -11.33699
C 10.74145 5.17083 -10.81964
H 13.30238 3.70722 -12.40419
H 12.04176 5.92558 -12.39499
H 10.72084 5.15475 -9.7042
H 10.77616 3.71304 -12.45031
H 11.98906 2.90422 -9.72413
C 14.53785 2.95999 -10.79384
H 14.52017 2.88916 -9.68288
C 9.47704 5.91126 -11.3289
C 9.48603 2.97438 -10.88274
C 8.21688 5.15318 -10.86807
C 8.23467 3.70764 -11.37728
H 9.49026 5.92326 -12.44315
H 8.14855 5.15304 -9.75796
H 8.20792 3.70008 -12.48816
H 9.4542 2.90437 -9.77298
C -10.78492 -5.89278 11.24065
C -8.24641 -5.9057 11.29479
C -9.50181 -5.15761 10.78449
H -8.26942 -5.92674 12.40982
H -8.19405 -2.9442 9.73973
C -8.22121 -2.96581 10.8547
C -9.50637 -3.70085 11.30635
H -9.47706 -5.13815 9.66945
C -10.75871 -2.95239 10.79004
C -12.04584 -3.68444 11.24241
C -12.04093 -5.14757 10.72639
H -12.01358 -5.13178 9.61134
H -10.80999 -5.9104 12.35562
H -9.53386 -3.72035 12.42128
H -10.73011 -2.93441 9.67513
H -12.07299 -3.70032 12.35744
C -10.76078 -1.49528 11.3113
C -8.22454 -1.51004 11.3801
C -9.47343 -0.7606 10.86275
C -12.00754 -0.74483 10.79003
H -10.79254 -1.51347 12.42614
H -8.25423 -1.53151 12.49497
H -11.97353 -0.72816 9.67493
H -9.4421 -0.74103 9.74769
C -13.30306 -1.47211 11.23607
C -13.30187 -2.93481 10.72611
C -13.32848 -5.88384 11.18046
C -14.53102 -0.70085 10.7142
C -14.57101 -3.68114 11.17866
C -14.56594 -5.12447 10.66599
H -14.54452 -0.69975 9.60204
H -13.34473 -1.4844 12.34958
H -13.28181 -2.92239 9.61199
H -14.64683 -3.68258 12.28824
H -14.58701 -5.1226 9.55404
H -13.36325 -5.89593 12.29416
C -14.52332 0.7443 11.22476
C -13.2415 1.46459 10.79322
C -12.00338 0.71613 11.3088
C -10.71939 1.44081 10.86971
C -9.47592 0.69785 11.38491
C -8.19222 1.42663 10.94771
H -14.60478 0.75182 12.33296
H -12.03746 0.71186 12.42175
H -9.50935 0.69098 12.49778
H -13.21791 1.53534 9.68331
H -10.6852 1.5096 9.75889
H -8.15901 1.4993 9.83717
C -8.24139 5.89623 10.77022
C -9.5204 5.16026 11.22986
C -10.77724 5.90786 10.72012
H -8.22081 5.9171 9.65509
C -9.51359 3.7013 10.70906
H -9.54148 5.14162 12.3451
C -10.78783 2.97193 11.16466
C -12.04129 3.70944 10.66301
C -12.05555 5.17083 11.18036
H -9.49462 3.70722 9.59581
H -10.75524 5.92558 9.60501
H -12.07616 5.15475 12.2958
H -12.02084 3.71304 9.54969
H -10.80794 2.90422 12.27587
C -8.25915 2.95999 11.20616
H -8.27683 2.88916 12.31712
C -13.31996 5.91126 10.6711
C -13.31097 2.97438 11.11726
C -14.58012 5.15318 11.13193
C -14.56233 3.70764 10.62272
H -13.30674 5.92326 9.55685
H -14.64845 5.15304 12.24204
H -14.58908 3.70008 9.51184
H -13.3428 2.90437 12.22702
C -3.18592 -5.89278 11.24065
C -0.64741 -5.9057 11.29479
C -1.90281 -5.15761 10.78449
H -0.67042 -5.92674 12.40982
H -0.59505 -2.9442 9.73973
C -0.62221 -2.96581 10.8547
C -1.90737 -3.70085 11.30635
H -1.87806 -5.13815 9.66945
C -3.15971 -2.95239 10.79004
C -4.44684 -3.68444 11.24241
C -4.44193 -5.14757 10.72639
H -4.41458 -5.13178 9.61134
H -3.21099 -5.9104 12.35562
H -1.93486 -3.72035 12.42128
H -3.13111 -2.93441 9.67513
H -4.47399 -3.70032 12.35744
C -3.16178 -1.49528 11.3113
C -0.62554 -1.51004 11.3801
C -1.87443 -0.7606 10.86275
C -4.40854 -0.74483 10.79003
H -3.19354 -1.51347 12.42614
H -0.65523 -1.53151 12.49497
H -1.8431 -0.74103 9.74769
C -5.70406 -1.47211 11.23607
C -5.70287 -2.93481 10.72611
C -5.72948 -5.88384 11.18046
C -6.93202 -0.70085 10.7142
C -6.97201 -3.68114 11.17866
C -6.96694 -5.12447 10.66599
H -6.94552 -0.69975 9.60204
H -5.74573 -1.4844 12.34958
H -5.68281 -2.92239 9.61199
H -7.04783 -3.68258 12.28824
H -6.98801 -5.1226 9.55404
H -5.76425 -5.89593 12.29416
C -6.92432 0.7443 11.22476
C -5.6425 1.46459 10.79322
C -4.40438 0.71613 11.3088
C -3.12039 1.44081 10.86971
C -1.87692 0.69785 11.38491
C -0.59322 1.42663 10.94771
H -7.00578 0.75182 12.33296
H -4.43846 0.71186 12.42175
H -1.91035 0.69098 12.49778
H -5.61891 1.53534 9.68331
H -3.0862 1.5096 9.75889
H -0.56001 1.4993 9.83717
C -0.64239 5.89623 10.77022
C -1.9214 5.16026 11.22986
C -3.17824 5.90786 10.72012
H -0.62181 5.9171 9.65509
C -1.91459 3.7013 10.70906
H -1.94248 5.14162 12.3451
C -3.18883 2.97193 11.16466
C -4.44229 3.70944 10.66301
C -4.45655 5.17083 11.18036
H -1.89562 3.70722 9.59581
H -3.15624 5.92558 9.60501
H -4.47716 5.15475 12.2958
H -4.42184 3.71304 9.54969
H -3.20894 2.90422 12.27587
C -0.66015 2.95999 11.20616
H -0.67783 2.88916 12.31712
C -5.72096 5.91126 10.6711
C -5.71197 2.97438 11.11726
C -6.98112 5.15318 11.13193
C -6.96333 3.70764 10.62272
H -5.70774 5.92326 9.55685
H -7.04945 5.15304 12.24204
H -6.99008 3.70008 9.51184
H -5.7438 2.90437 12.22702
C 4.41308 -5.89278 11.24065
C 6.95159 -5.9057 11.29479
C 5.69619 -5.15761 10.78449
H 6.92858 -5.92674 12.40982
H 7.00395 -2.9442 9.73973
C 6.97679 -2.96581 10.8547
C 5.69163 -3.70085 11.30635
H 5.72094 -5.13815 9.66945
C 4.43929 -2.95239 10.79004
C 3.15216 -3.68444 11.24241
C 3.15707 -5.14757 10.72639
H 3.18442 -5.13178 9.61134
H 4.38801 -5.9104 12.35562
H 5.66414 -3.72035 12.42128
H 4.46789 -2.93441 9.67513
H 3.12501 -3.70032 12.35744
C 4.43722 -1.49528 11.3113
C 6.97346 -1.51004 11.3801
C 5.72457 -0.7606 10.86275
C 3.19046 -0.74483 10.79003
H 4.40546 -1.51347 12.42614
H 6.94377 -1.53151 12.49497
H 3.22447 -0.72816 9.67493
C 1.89494 -1.47211 11.23607
C 1.89613 -2.93481 10.72611
C 1.86952 -5.88384 11.18046
C 0.66698 -0.70085 10.7142
C 0.62699 -3.68114 11.17866
C 0.63206 -5.12447 10.66599
H 0.65348 -0.69975 9.60204
H 1.85327 -1.4844 12.34958
H 1.91619 -2.92239 9.61199
H 0.55117 -3.68258 12.28824
H 0.61099 -5.1226 9.55404
H 1.83475 -5.89593 12.29416
C 0.67468 0.7443 11.22476
C 1.9565 1.46459 10.79322
C 3.19462 0.71613 11.3088
C 4.47861 1.44081 10.86971
C 5.72208 0.69785 11.38491
C 7.00578 1.42663 10.94771
H 0.59322 0.75182 12.33296
H 3.16054 0.71186 12.42175
H 5.68865 0.69098 12.49778
H 1.98009 1.53534 9.68331
H 4.5128 1.5096 9.75889
H 7.03899 1.4993 9.83717
C 6.95661 5.89623 10.77022
C 5.6776 5.16026 11.22986
C 4.42076 5.90786 10.72012
H 6.97719 5.9171 9.65509
C 5.68441 3.7013 10.70906
H 5.65652 5.14162 12.3451
C 4.41017 2.97193 11.16466
C 3.15671 3.70944 10.66301
C 3.14245 5.17083 11.18036
H 5.70338 3.70722 9.59581
H 4.44276 5.92558 9.60501
H 3.12184 5.15475 12.2958
H 3.17716 3.71304 9.54969
H 4.39006 2.90422 12.27587
C 6.93885 2.95999 11.20616
H 6.92117 2.88916 12.31712
C 1.87804 5.91126 10.6711
C 1.88703 2.97438 11.11726
C 0.61788 5.15318 11.13193
C 0.63567 3.70764 10.62272
H 1.89126 5.92326 9.55685
H 0.54955 5.15304 12.24204
H 0.60892 3.70008 9.51184
H 1.8552 2.90437 12.22702
C 12.01208 -5.89278 11.24065
C 14.55059 -5.9057 11.29479
C 13.29519 -5.15761 10.78449
H 14.52758 -5.92674 12.40982
H 14.60295 -2.9442 9.73973
C 14.57579 -2.96581 10.8547
C 13.29063 -3.70085 11.30635
H 13.31994 -5.13815 9.66945
C 12.03829 -2.95239 10.79004
C 10.75116 -3.68444 11.24241
C 10.75607 -5.14757 10.72639
H 10.78342 -5.13178 9.61134
H 11.98701 -5.9104 12.35562
H 13.26314 -3.72035 12.42128
H 12.06689 -2.93441 9.67513
H 10.72401 -3.70032 12.35744
C 12.03622 -1.49528 11.3113
C 14.57246 -1.51004 11.3801
C 13.32357 -0.7606 10.86275
C 10.78946 -0.74483 10.79003
H 12.00446 -1.51347 12.42614
H 14.54277 -1.53151 12.49497
H 10.82347 -0.72816 9.67493
H 13.3549 -0.74103 9.74769
C 9.49394 -1.47211 11.23607
C 9.49513 -2.93481 10.72611
C 9.46852 -5.88384 11.18046
C 8.26598 -0.70085 10.7142
C 8.22599 -3.68114 11.17866
C 8.23106 -5.12447 10.66599
H 8.25248 -0.69975 9.60204
H 9.45227 -1.4844 12.34958
H 9.51519 -2.92239 9.61199
H 8.15017 -3.68258 12.28824
H 8.20999 -5.1226 9.55404
H 9.43375 -5.89593 12.29416
C 8.27368 0.7443 11.22476
C 9.5555 1.46459 10.79322
C 10.79362 0.71613 11.3088
C 12.07761 1.44081 10.86971
C 13.32108 0.69785 11.38491
C 14.60478 1.42663 10.94771
H 8.19222 0.75182 12.33296
H 10.75954 0.71186 12.42175
H 13.28765 0.69098 12.49778
H 9.57909 1.53534 9.68331
H 12.1118 1.5096 9.75889
H 14.63799 1.4993 9.83717
C 14.55561 5.89623 10.77022
C 13.2766 5.16026 11.22986
C 12.01976 5.90786 10.72012
H 14.57619 5.9171 9.65509
C 13.28341 3.7013 10.70906
H 13.25552 5.14162 12.3451
C 12.00917 2.97193 11.16466
C 10.75571 3.70944 10.66301
C 10.74145 5.17083 11.18036
H 13.30238 3.70722 9.59581
H 12.04176 5.92558 9.60501
H 10.72084 5.15475 12.2958
H 10.77616 3.71304 9.54969
H 11.98906 2.90422 12.27587
C 14.53785 2.95999 11.20616
H 14.52017 2.88916 12.31712
C 9.47704 5.91126 10.6711
C 9.48603 2.97438 11.11726
C 8.21688 5.15318 11.13193
C 8.23467 3.70764 10.62272
H 9.49026 5.92326 9.55685
H 8.14855 5.15304 12.24204
H 8.20792 3.70008 9.51184
H 9.4542 2.90437 12.22702
N -7.94256 -3.05231 2.88460
C -7.99723 -2.87554 4.34392
H -8.81552 -2.19242 4.59879
H -8.16879 -3.84609 4.82333
C -6.67135 -2.29005 4.83707
H -5.85304 -2.97315 4.58221
H -6.49978 -1.31948 4.35772
C -4.40854 -0.74483 9.17003
H -3.52066 -1.39119 9.00284
H -4.21136 0.27258 8.77004
C -5.64589 -1.35014 8.51754
H -5.82931 -2.34984 8.96708
H -6.51760 -0.69655 8.73687
C -5.46529 -1.48582 6.99999
H -4.58183 -2.13060 6.81471
H -5.27530 -0.47527 6.58398
C -6.72825 -2.10611 6.35591
H -6.90279 -3.09391 6.84237
H -7.59521 -1.45592 6.61760
C -7.71223 -1.74968 2.24122
H -6.76307 -1.33057 2.59432
H -8.53054 -1.06658 2.49607
H -7.67146 -1.88138 1.15392
C -9.21649 -3.61483 2.41078
H -9.17574 -3.74655 1.32348
H -10.03475 -2.93166 2.66562
H -9.38808 -4.58535 2.89021
C -6.84427 -3.96918 2.54258
H -5.89513 -3.55003 2.89566
H -6.80353 -4.10088 1.45529
H -7.01591 -4.93970 3.02199
N 2.19055 -3.06808 2.95732
C 2.13588 -2.89131 4.41664
H 1.31759 -2.20819 4.67151
H 1.96432 -3.86186 4.89605
C 3.46176 -2.30582 4.90979
H 4.28007 -2.98892 4.65493
H 3.63333 -1.33525 4.43044
C 5.72457 -0.76060 9.24275
H 6.61245 -1.40696 9.07556
H 5.92175 0.25681 8.84276
C 4.48722 -1.36591 8.59026
H 4.30380 -2.36561 9.03980
H 3.61551 -0.71232 8.80959
C 4.66782 -1.50159 7.07271
H 5.55128 -2.14637 6.88743
H 4.85781 -0.49104 6.65670
C 3.40486 -2.12188 6.42863
H 3.23032 -3.10968 6.91509
H 2.53790 -1.47169 6.69032
C 2.42088 -1.76545 2.31394
H 3.37004 -1.34634 2.66704
H 1.60257 -1.08235 2.56879
H 2.46165 -1.89715 1.22664
C 0.91662 -3.63060 2.48350
H 0.95737 -3.76232 1.39620
H 0.09836 -2.94743 2.73834
H 0.74503 -4.60112 2.96293
C 3.28884 -3.98495 2.61530
H 4.23798 -3.56580 2.96838
H 3.32958 -4.11665 1.52801
H 3.11720 -4.95547 3.09471
