31

C       -2.206010     -1.310360     -4.367860
C       -2.261620     -1.130580     -2.883350
H       -2.436160     -2.118380     -2.396890
H       -3.128580     -0.480390     -2.621660
C       -0.998660     -0.510290     -2.239270
H       -0.115200     -1.155070     -2.424550
H       -0.808670      0.500260     -2.655280
C       -1.179260     -0.374610     -0.721720
H       -1.350976     -1.428714     -0.414300
H       -2.066781      0.290806     -0.653220
C        0.058090      0.230700     -0.069230
H        0.945970     -0.415660     -0.236420
H        0.255270      1.248110     -0.469220
H       -1.452024     -1.928925     -4.638093
H       -2.101996     -0.423363     -4.843845
C       -3.527116     -1.941739     -4.815074
H       -4.358201     -1.280738     -4.543798
H       -3.654745     -2.911183     -4.319994
N       -3.509629     -2.134360     -6.273303
C       -4.778975     -2.740962     -6.702995
H       -4.765935     -2.884503     -7.789477
H       -5.610042     -2.079926     -6.431747
H       -4.906643     -3.710391     -6.207895
C       -2.394169     -3.021530     -6.637336
H       -1.448443     -2.569556     -6.317119
H       -2.381123     -3.165024     -7.723823
H       -2.521893     -3.990973     -6.142279
C       -3.338256     -0.833197     -6.937719
H       -2.392507     -0.381261     -6.617519
H       -4.169358     -0.172217     -6.666440
H       -3.325227     -0.976713     -8.024204
