288

C         -3.18592       -5.89278       -8.50935
C         -0.64741       -5.90570       -8.45521
C         -1.90281       -5.15761       -8.96551
H         -0.67042       -5.92674       -7.34018
H         -0.59505       -2.94420      -10.01027
C         -0.62221       -2.96581       -8.89530
C         -1.90737       -3.70085       -8.44365
H         -1.87806       -5.13815      -10.08055
C         -3.15971       -2.95239       -8.95996
C         -4.44684       -3.68444       -8.50759
C         -4.44193       -5.14757       -9.02361
H         -4.41458       -5.13178      -10.13866
H         -3.21099       -5.91040       -7.39438
H         -1.93486       -3.72035       -7.32872
H         -3.13111       -2.93441      -10.07487
H         -4.47399       -3.70032       -7.39256
C         -3.16178       -1.49528       -8.43870
C         -0.62554       -1.51004       -8.36990
C         -1.87443       -0.76060       -8.88725
C         -4.40854       -0.74483       -8.95997
H         -3.19354       -1.51347       -7.32386
H         -0.65523       -1.53151       -7.25503
H         -4.37453       -0.72816      -10.07507
H         -1.84310       -0.74103      -10.00231
C         -5.70406       -1.47211       -8.51393
C         -5.70287       -2.93481       -9.02389
C         -5.72948       -5.88384       -8.56954
C         -6.93202       -0.70085       -9.03580
C         -6.97201       -3.68114       -8.57134
C         -6.96694       -5.12447       -9.08401
H         -6.94552       -0.69975      -10.14796
H         -5.74573       -1.48440       -7.40042
H         -5.68281       -2.92239      -10.13801
H         -7.04783       -3.68258       -7.46176
H         -6.98801       -5.12260      -10.19596
H         -5.76425       -5.89593       -7.45584
C         -6.92432        0.74430       -8.52524
C         -5.64250        1.46459       -8.95678
C         -4.40438        0.71613       -8.44120
C         -3.12039        1.44081       -8.88029
C         -1.87692        0.69785       -8.36509
C         -0.59322        1.42663       -8.80229
H         -7.00578        0.75182       -7.41704
H         -4.43846        0.71186       -7.32825
H         -1.91035        0.69098       -7.25222
H         -5.61891        1.53534      -10.06669
H         -3.08620        1.50960       -9.99111
H         -0.56001        1.49930       -9.91283
C         -0.64239        5.89623       -8.97978
C         -1.92140        5.16026       -8.52014
C         -3.17824        5.90786       -9.02988
H         -0.62181        5.91710      -10.09491
C         -1.91459        3.70130       -9.04094
H         -1.94248        5.14162       -7.40490
C         -3.18883        2.97193       -8.58534
C         -4.44229        3.70944       -9.08699
C         -4.45655        5.17083       -8.56964
H         -1.89562        3.70722      -10.15419
H         -3.15624        5.92558      -10.14499
H         -4.47716        5.15475       -7.45420
H         -4.42184        3.71304      -10.20031
H         -3.20894        2.90422       -7.47413
C         -0.66015        2.95999       -8.54384
H         -0.67783        2.88916       -7.43288
C         -5.72096        5.91126       -9.07890
C         -5.71197        2.97438       -8.63274
C         -6.98112        5.15318       -8.61807
C         -6.96333        3.70764       -9.12728
H         -5.70774        5.92326      -10.19315
H         -7.04945        5.15304       -7.50796
H         -6.99008        3.70008      -10.23816
H         -5.74380        2.90437       -7.52298
C          4.41308       -5.89278       -8.50935
C          6.95159       -5.90570       -8.45521
C          5.69619       -5.15761       -8.96551
H          6.92858       -5.92674       -7.34018
H          7.00395       -2.94420      -10.01027
C          6.97679       -2.96581       -8.89530
C          5.69163       -3.70085       -8.44365
H          5.72094       -5.13815      -10.08055
C          4.43929       -2.95239       -8.95996
C          3.15216       -3.68444       -8.50759
C          3.15707       -5.14757       -9.02361
H          3.18442       -5.13178      -10.13866
H          4.38801       -5.91040       -7.39438
H          5.66414       -3.72035       -7.32872
H          4.46789       -2.93441      -10.07487
H          3.12501       -3.70032       -7.39256
C          4.43722       -1.49528       -8.43870
C          6.97346       -1.51004       -8.36990
C          5.72457       -0.76060       -8.88725
C          3.19046       -0.74483       -8.95997
H          4.40546       -1.51347       -7.32386
H          6.94377       -1.53151       -7.25503
H          3.22447       -0.72816      -10.07507
H          5.75590       -0.74103      -10.00231
C          1.89494       -1.47211       -8.51393
C          1.89613       -2.93481       -9.02389
C          1.86952       -5.88384       -8.56954
C          0.66698       -0.70085       -9.03580
C          0.62699       -3.68114       -8.57134
C          0.63206       -5.12447       -9.08401
H          0.65348       -0.69975      -10.14796
H          1.85327       -1.48440       -7.40042
H          1.91619       -2.92239      -10.13801
H          0.55117       -3.68258       -7.46176
H          0.61099       -5.12260      -10.19596
H          1.83475       -5.89593       -7.45584
C          0.67468        0.74430       -8.52524
C          1.95650        1.46459       -8.95678
C          3.19462        0.71613       -8.44120
C          4.47861        1.44081       -8.88029
C          5.72208        0.69785       -8.36509
C          7.00578        1.42663       -8.80229
H          0.59322        0.75182       -7.41704
H          3.16054        0.71186       -7.32825
H          5.68865        0.69098       -7.25222
H          1.98009        1.53534      -10.06669
H          4.51280        1.50960       -9.99111
H          7.03899        1.49930       -9.91283
C          6.95661        5.89623       -8.97978
C          5.67760        5.16026       -8.52014
C          4.42076        5.90786       -9.02988
H          6.97719        5.91710      -10.09491
C          5.68441        3.70130       -9.04094
H          5.65652        5.14162       -7.40490
C          4.41017        2.97193       -8.58534
C          3.15671        3.70944       -9.08699
C          3.14245        5.17083       -8.56964
H          5.70338        3.70722      -10.15419
H          4.44276        5.92558      -10.14499
H          3.12184        5.15475       -7.45420
H          3.17716        3.71304      -10.20031
H          4.39006        2.90422       -7.47413
C          6.93885        2.95999       -8.54384
H          6.92117        2.88916       -7.43288
C          1.87804        5.91126       -9.07890
C          1.88703        2.97438       -8.63274
C          0.61788        5.15318       -8.61807
C          0.63567        3.70764       -9.12728
H          1.89126        5.92326      -10.19315
H          0.54955        5.15304       -7.50796
H          0.60892        3.70008      -10.23816
H          1.85520        2.90437       -7.52298
C         -3.18592       -5.89278        8.99065
C         -0.64741       -5.90570        9.04479
C         -1.90281       -5.15761        8.53449
H         -0.67042       -5.92674       10.15982
H         -0.59505       -2.94420        7.48973
C         -0.62221       -2.96581        8.60470
C         -1.90737       -3.70085        9.05635
H         -1.87806       -5.13815        7.41945
C         -3.15971       -2.95239        8.54004
C         -4.44684       -3.68444        8.99241
C         -4.44193       -5.14757        8.47639
H         -4.41458       -5.13178        7.36134
H         -3.21099       -5.91040       10.10562
H         -1.93486       -3.72035       10.17128
H         -3.13111       -2.93441        7.42513
H         -4.47399       -3.70032       10.10744
C         -3.16178       -1.49528        9.06130
C         -0.62554       -1.51004        9.13010
C         -1.87443       -0.76060        8.61275
C         -4.40854       -0.74483        8.54003
H         -3.19354       -1.51347       10.17614
H         -0.65523       -1.53151       10.24497
H         -4.37453       -0.72816        7.42493
H         -1.84310       -0.74103        7.49769
C         -5.70406       -1.47211        8.98607
C         -5.70287       -2.93481        8.47611
C         -5.72948       -5.88384        8.93046
C         -6.93202       -0.70085        8.46420
C         -6.97201       -3.68114        8.92866
C         -6.96694       -5.12447        8.41599
H         -6.94552       -0.69975        7.35204
H         -5.74573       -1.48440       10.09958
H         -5.68281       -2.92239        7.36199
H         -7.04783       -3.68258       10.03824
H         -6.98801       -5.12260        7.30404
H         -5.76425       -5.89593       10.04416
C         -6.92432        0.74430        8.97476
C         -5.64250        1.46459        8.54322
C         -4.40438        0.71613        9.05880
C         -3.12039        1.44081        8.61971
C         -1.87692        0.69785        9.13491
C         -0.59322        1.42663        8.69771
H         -7.00578        0.75182       10.08296
H         -4.43846        0.71186       10.17175
H         -1.91035        0.69098       10.24778
H         -5.61891        1.53534        7.43331
H         -3.08620        1.50960        7.50889
H         -0.56001        1.49930        7.58717
C         -0.64239        5.89623        8.52022
C         -1.92140        5.16026        8.97986
C         -3.17824        5.90786        8.47012
H         -0.62181        5.91710        7.40509
C         -1.91459        3.70130        8.45906
H         -1.94248        5.14162       10.09510
C         -3.18883        2.97193        8.91466
C         -4.44229        3.70944        8.41301
C         -4.45655        5.17083        8.93036
H         -1.89562        3.70722        7.34581
H         -3.15624        5.92558        7.35501
H         -4.47716        5.15475       10.04580
H         -4.42184        3.71304        7.29969
H         -3.20894        2.90422       10.02587
C         -0.66015        2.95999        8.95616
H         -0.67783        2.88916       10.06712
C         -5.72096        5.91126        8.42110
C         -5.71197        2.97438        8.86726
C         -6.98112        5.15318        8.88193
C         -6.96333        3.70764        8.37272
H         -5.70774        5.92326        7.30685
H         -7.04945        5.15304        9.99204
H         -6.99008        3.70008        7.26184
H         -5.74380        2.90437        9.97702
C          4.41308       -5.89278        8.99065
C          6.95159       -5.90570        9.04479
C          5.69619       -5.15761        8.53449
H          6.92858       -5.92674       10.15982
H          7.00395       -2.94420        7.48973
C          6.97679       -2.96581        8.60470
C          5.69163       -3.70085        9.05635
H          5.72094       -5.13815        7.41945
C          4.43929       -2.95239        8.54004
C          3.15216       -3.68444        8.99241
C          3.15707       -5.14757        8.47639
H          3.18442       -5.13178        7.36134
H          4.38801       -5.91040       10.10562
H          5.66414       -3.72035       10.17128
H          4.46789       -2.93441        7.42513
H          3.12501       -3.70032       10.10744
C          4.43722       -1.49528        9.06130
C          6.97346       -1.51004        9.13010
C          5.72457       -0.76060        8.61275
C          3.19046       -0.74483        8.54003
H          4.40546       -1.51347       10.17614
H          6.94377       -1.53151       10.24497
H          3.22447       -0.72816        7.42493
H          5.75590       -0.74103        7.49769
C          1.89494       -1.47211        8.98607
C          1.89613       -2.93481        8.47611
C          1.86952       -5.88384        8.93046
C          0.66698       -0.70085        8.46420
C          0.62699       -3.68114        8.92866
C          0.63206       -5.12447        8.41599
H          0.65348       -0.69975        7.35204
H          1.85327       -1.48440       10.09958
H          1.91619       -2.92239        7.36199
H          0.55117       -3.68258       10.03824
H          0.61099       -5.12260        7.30404
H          1.83475       -5.89593       10.04416
C          0.67468        0.74430        8.97476
C          1.95650        1.46459        8.54322
C          3.19462        0.71613        9.05880
C          4.47861        1.44081        8.61971
C          5.72208        0.69785        9.13491
C          7.00578        1.42663        8.69771
H          0.59322        0.75182       10.08296
H          3.16054        0.71186       10.17175
H          5.68865        0.69098       10.24778
H          1.98009        1.53534        7.43331
H          4.51280        1.50960        7.50889
H          7.03899        1.49930        7.58717
C          6.95661        5.89623        8.52022
C          5.67760        5.16026        8.97986
C          4.42076        5.90786        8.47012
H          6.97719        5.91710        7.40509
C          5.68441        3.70130        8.45906
H          5.65652        5.14162       10.09510
C          4.41017        2.97193        8.91466
C          3.15671        3.70944        8.41301
C          3.14245        5.17083        8.93036
H          5.70338        3.70722        7.34581
H          4.44276        5.92558        7.35501
H          3.12184        5.15475       10.04580
H          3.17716        3.71304        7.29969
H          4.39006        2.90422       10.02587
C          6.93885        2.95999        8.95616
H          6.92117        2.88916       10.06712
C          1.87804        5.91126        8.42110
C          1.88703        2.97438        8.86726
C          0.61788        5.15318        8.88193
C          0.63567        3.70764        8.37272
H          1.89126        5.92326        7.30685
H          0.54955        5.15304        9.99204
H          0.60892        3.70008        7.26184
H          1.85520        2.90437        9.97702
