288

C         -3.18592       -5.89278      -12.25935
C         -0.64741       -5.90570      -12.20521
C         -1.90281       -5.15761      -12.71551
H         -0.67042       -5.92674      -11.09018
H         -0.59505       -2.94420      -13.76027
C         -0.62221       -2.96581      -12.64530
C         -1.90737       -3.70085      -12.19365
H         -1.87806       -5.13815      -13.83055
C         -3.15971       -2.95239      -12.70996
C         -4.44684       -3.68444      -12.25759
C         -4.44193       -5.14757      -12.77361
H         -4.41458       -5.13178      -13.88866
H         -3.21099       -5.91040      -11.14438
H         -1.93486       -3.72035      -11.07872
H         -3.13111       -2.93441      -13.82487
H         -4.47399       -3.70032      -11.14256
C         -3.16178       -1.49528      -12.18870
C         -0.62554       -1.51004      -12.11990
C         -1.87443       -0.76060      -12.63725
C         -4.40854       -0.74483      -12.70997
H         -3.19354       -1.51347      -11.07386
H         -0.65523       -1.53151      -11.00503
H         -4.37453       -0.72816      -13.82507
H         -1.84310       -0.74103      -13.75231
C         -5.70406       -1.47211      -12.26393
C         -5.70287       -2.93481      -12.77389
C         -5.72948       -5.88384      -12.31954
C         -6.93202       -0.70085      -12.78580
C         -6.97201       -3.68114      -12.32134
C         -6.96694       -5.12447      -12.83401
H         -6.94552       -0.69975      -13.89796
H         -5.74573       -1.48440      -11.15042
H         -5.68281       -2.92239      -13.88801
H         -7.04783       -3.68258      -11.21176
H         -6.98801       -5.12260      -13.94596
H         -5.76425       -5.89593      -11.20584
C         -6.92432        0.74430      -12.27524
C         -5.64250        1.46459      -12.70678
C         -4.40438        0.71613      -12.19120
C         -3.12039        1.44081      -12.63029
C         -1.87692        0.69785      -12.11509
C         -0.59322        1.42663      -12.55229
H         -7.00578        0.75182      -11.16704
H         -4.43846        0.71186      -11.07825
H         -1.91035        0.69098      -11.00222
H         -5.61891        1.53534      -13.81669
H         -3.08620        1.50960      -13.74111
H         -0.56001        1.49930      -13.66283
C         -0.64239        5.89623      -12.72978
C         -1.92140        5.16026      -12.27014
C         -3.17824        5.90786      -12.77988
H         -0.62181        5.91710      -13.84491
C         -1.91459        3.70130      -12.79094
H         -1.94248        5.14162      -11.15490
C         -3.18883        2.97193      -12.33534
C         -4.44229        3.70944      -12.83699
C         -4.45655        5.17083      -12.31964
H         -1.89562        3.70722      -13.90419
H         -3.15624        5.92558      -13.89499
H         -4.47716        5.15475      -11.20420
H         -4.42184        3.71304      -13.95031
H         -3.20894        2.90422      -11.22413
C         -0.66015        2.95999      -12.29384
H         -0.67783        2.88916      -11.18288
C         -5.72096        5.91126      -12.82890
C         -5.71197        2.97438      -12.38274
C         -6.98112        5.15318      -12.36807
C         -6.96333        3.70764      -12.87728
H         -5.70774        5.92326      -13.94315
H         -7.04945        5.15304      -11.25796
H         -6.99008        3.70008      -13.98816
H         -5.74380        2.90437      -11.27298
C          4.41308       -5.89278      -12.25935
C          6.95159       -5.90570      -12.20521
C          5.69619       -5.15761      -12.71551
H          6.92858       -5.92674      -11.09018
H          7.00395       -2.94420      -13.76027
C          6.97679       -2.96581      -12.64530
C          5.69163       -3.70085      -12.19365
H          5.72094       -5.13815      -13.83055
C          4.43929       -2.95239      -12.70996
C          3.15216       -3.68444      -12.25759
C          3.15707       -5.14757      -12.77361
H          3.18442       -5.13178      -13.88866
H          4.38801       -5.91040      -11.14438
H          5.66414       -3.72035      -11.07872
H          4.46789       -2.93441      -13.82487
H          3.12501       -3.70032      -11.14256
C          4.43722       -1.49528      -12.18870
C          6.97346       -1.51004      -12.11990
C          5.72457       -0.76060      -12.63725
C          3.19046       -0.74483      -12.70997
H          4.40546       -1.51347      -11.07386
H          6.94377       -1.53151      -11.00503
H          3.22447       -0.72816      -13.82507
H          5.75590       -0.74103      -13.75231
C          1.89494       -1.47211      -12.26393
C          1.89613       -2.93481      -12.77389
C          1.86952       -5.88384      -12.31954
C          0.66698       -0.70085      -12.78580
C          0.62699       -3.68114      -12.32134
C          0.63206       -5.12447      -12.83401
H          0.65348       -0.69975      -13.89796
H          1.85327       -1.48440      -11.15042
H          1.91619       -2.92239      -13.88801
H          0.55117       -3.68258      -11.21176
H          0.61099       -5.12260      -13.94596
H          1.83475       -5.89593      -11.20584
C          0.67468        0.74430      -12.27524
C          1.95650        1.46459      -12.70678
C          3.19462        0.71613      -12.19120
C          4.47861        1.44081      -12.63029
C          5.72208        0.69785      -12.11509
C          7.00578        1.42663      -12.55229
H          0.59322        0.75182      -11.16704
H          3.16054        0.71186      -11.07825
H          5.68865        0.69098      -11.00222
H          1.98009        1.53534      -13.81669
H          4.51280        1.50960      -13.74111
H          7.03899        1.49930      -13.66283
C          6.95661        5.89623      -12.72978
C          5.67760        5.16026      -12.27014
C          4.42076        5.90786      -12.77988
H          6.97719        5.91710      -13.84491
C          5.68441        3.70130      -12.79094
H          5.65652        5.14162      -11.15490
C          4.41017        2.97193      -12.33534
C          3.15671        3.70944      -12.83699
C          3.14245        5.17083      -12.31964
H          5.70338        3.70722      -13.90419
H          4.44276        5.92558      -13.89499
H          3.12184        5.15475      -11.20420
H          3.17716        3.71304      -13.95031
H          4.39006        2.90422      -11.22413
C          6.93885        2.95999      -12.29384
H          6.92117        2.88916      -11.18288
C          1.87804        5.91126      -12.82890
C          1.88703        2.97438      -12.38274
C          0.61788        5.15318      -12.36807
C          0.63567        3.70764      -12.87728
H          1.89126        5.92326      -13.94315
H          0.54955        5.15304      -11.25796
H          0.60892        3.70008      -13.98816
H          1.85520        2.90437      -11.27298
C         -3.18592       -5.89278       12.74065
C         -0.64741       -5.90570       12.79479
C         -1.90281       -5.15761       12.28449
H         -0.67042       -5.92674       13.90982
H         -0.59505       -2.94420       11.23973
C         -0.62221       -2.96581       12.35470
C         -1.90737       -3.70085       12.80635
H         -1.87806       -5.13815       11.16945
C         -3.15971       -2.95239       12.29004
C         -4.44684       -3.68444       12.74241
C         -4.44193       -5.14757       12.22639
H         -4.41458       -5.13178       11.11134
H         -3.21099       -5.91040       13.85562
H         -1.93486       -3.72035       13.92128
H         -3.13111       -2.93441       11.17513
H         -4.47399       -3.70032       13.85744
C         -3.16178       -1.49528       12.81130
C         -0.62554       -1.51004       12.88010
C         -1.87443       -0.76060       12.36275
C         -4.40854       -0.74483       12.29003
H         -3.19354       -1.51347       13.92614
H         -0.65523       -1.53151       13.99497
H         -4.37453       -0.72816       11.17493
H         -1.84310       -0.74103       11.24769
C         -5.70406       -1.47211       12.73607
C         -5.70287       -2.93481       12.22611
C         -5.72948       -5.88384       12.68046
C         -6.93202       -0.70085       12.21420
C         -6.97201       -3.68114       12.67866
C         -6.96694       -5.12447       12.16599
H         -6.94552       -0.69975       11.10204
H         -5.74573       -1.48440       13.84958
H         -5.68281       -2.92239       11.11199
H         -7.04783       -3.68258       13.78824
H         -6.98801       -5.12260       11.05404
H         -5.76425       -5.89593       13.79416
C         -6.92432        0.74430       12.72476
C         -5.64250        1.46459       12.29322
C         -4.40438        0.71613       12.80880
C         -3.12039        1.44081       12.36971
C         -1.87692        0.69785       12.88491
C         -0.59322        1.42663       12.44771
H         -7.00578        0.75182       13.83296
H         -4.43846        0.71186       13.92175
H         -1.91035        0.69098       13.99778
H         -5.61891        1.53534       11.18331
H         -3.08620        1.50960       11.25889
H         -0.56001        1.49930       11.33717
C         -0.64239        5.89623       12.27022
C         -1.92140        5.16026       12.72986
C         -3.17824        5.90786       12.22012
H         -0.62181        5.91710       11.15509
C         -1.91459        3.70130       12.20906
H         -1.94248        5.14162       13.84510
C         -3.18883        2.97193       12.66466
C         -4.44229        3.70944       12.16301
C         -4.45655        5.17083       12.68036
H         -1.89562        3.70722       11.09581
H         -3.15624        5.92558       11.10501
H         -4.47716        5.15475       13.79580
H         -4.42184        3.71304       11.04969
H         -3.20894        2.90422       13.77587
C         -0.66015        2.95999       12.70616
H         -0.67783        2.88916       13.81712
C         -5.72096        5.91126       12.17110
C         -5.71197        2.97438       12.61726
C         -6.98112        5.15318       12.63193
C         -6.96333        3.70764       12.12272
H         -5.70774        5.92326       11.05685
H         -7.04945        5.15304       13.74204
H         -6.99008        3.70008       11.01184
H         -5.74380        2.90437       13.72702
C          4.41308       -5.89278       12.74065
C          6.95159       -5.90570       12.79479
C          5.69619       -5.15761       12.28449
H          6.92858       -5.92674       13.90982
H          7.00395       -2.94420       11.23973
C          6.97679       -2.96581       12.35470
C          5.69163       -3.70085       12.80635
H          5.72094       -5.13815       11.16945
C          4.43929       -2.95239       12.29004
C          3.15216       -3.68444       12.74241
C          3.15707       -5.14757       12.22639
H          3.18442       -5.13178       11.11134
H          4.38801       -5.91040       13.85562
H          5.66414       -3.72035       13.92128
H          4.46789       -2.93441       11.17513
H          3.12501       -3.70032       13.85744
C          4.43722       -1.49528       12.81130
C          6.97346       -1.51004       12.88010
C          5.72457       -0.76060       12.36275
C          3.19046       -0.74483       12.29003
H          4.40546       -1.51347       13.92614
H          6.94377       -1.53151       13.99497
H          3.22447       -0.72816       11.17493
H          5.75590       -0.74103       11.24769
C          1.89494       -1.47211       12.73607
C          1.89613       -2.93481       12.22611
C          1.86952       -5.88384       12.68046
C          0.66698       -0.70085       12.21420
C          0.62699       -3.68114       12.67866
C          0.63206       -5.12447       12.16599
H          0.65348       -0.69975       11.10204
H          1.85327       -1.48440       13.84958
H          1.91619       -2.92239       11.11199
H          0.55117       -3.68258       13.78824
H          0.61099       -5.12260       11.05404
H          1.83475       -5.89593       13.79416
C          0.67468        0.74430       12.72476
C          1.95650        1.46459       12.29322
C          3.19462        0.71613       12.80880
C          4.47861        1.44081       12.36971
C          5.72208        0.69785       12.88491
C          7.00578        1.42663       12.44771
H          0.59322        0.75182       13.83296
H          3.16054        0.71186       13.92175
H          5.68865        0.69098       13.99778
H          1.98009        1.53534       11.18331
H          4.51280        1.50960       11.25889
H          7.03899        1.49930       11.33717
C          6.95661        5.89623       12.27022
C          5.67760        5.16026       12.72986
C          4.42076        5.90786       12.22012
H          6.97719        5.91710       11.15509
C          5.68441        3.70130       12.20906
H          5.65652        5.14162       13.84510
C          4.41017        2.97193       12.66466
C          3.15671        3.70944       12.16301
C          3.14245        5.17083       12.68036
H          5.70338        3.70722       11.09581
H          4.44276        5.92558       11.10501
H          3.12184        5.15475       13.79580
H          3.17716        3.71304       11.04969
H          4.39006        2.90422       13.77587
C          6.93885        2.95999       12.70616
H          6.92117        2.88916       13.81712
C          1.87804        5.91126       12.17110
C          1.88703        2.97438       12.61726
C          0.61788        5.15318       12.63193
C          0.63567        3.70764       12.12272
H          1.89126        5.92326       11.05685
H          0.54955        5.15304       13.74204
H          0.60892        3.70008       11.01184
H          1.85520        2.90437       13.72702
