576

C        -10.78492       -5.89278       -8.25935
C         -8.24641       -5.90570       -8.20521
C         -9.50181       -5.15761       -8.71551
H         -8.26942       -5.92674       -7.09018
H         -8.19405       -2.94420       -9.76027
C         -8.22121       -2.96581       -8.64530
C         -9.50637       -3.70085       -8.19365
H         -9.47706       -5.13815       -9.83055
C        -10.75871       -2.95239       -8.70996
C        -12.04584       -3.68444       -8.25759
C        -12.04093       -5.14757       -8.77361
H        -12.01358       -5.13178       -9.88866
H        -10.80999       -5.91040       -7.14438
H         -9.53386       -3.72035       -7.07872
H        -10.73011       -2.93441       -9.82487
H        -12.07299       -3.70032       -7.14256
C        -10.76078       -1.49528       -8.18870
C         -8.22454       -1.51004       -8.11990
C         -9.47343       -0.76060       -8.63725
C        -12.00754       -0.74483       -8.70997
H        -10.79254       -1.51347       -7.07386
H         -8.25423       -1.53151       -7.00503
H        -11.97353       -0.72816       -9.82507
H         -9.44210       -0.74103       -9.75231
C        -13.30306       -1.47211       -8.26393
C        -13.30187       -2.93481       -8.77389
C        -13.32848       -5.88384       -8.31954
C        -14.53102       -0.70085       -8.78580
C        -14.57101       -3.68114       -8.32134
C        -14.56594       -5.12447       -8.83401
H        -14.54452       -0.69975       -9.89796
H        -13.34473       -1.48440       -7.15042
H        -13.28181       -2.92239       -9.88801
H        -14.64683       -3.68258       -7.21176
H        -14.58701       -5.12260       -9.94596
H        -13.36325       -5.89593       -7.20584
C        -14.52332        0.74430       -8.27524
C        -13.24150        1.46459       -8.70678
C        -12.00338        0.71613       -8.19120
C        -10.71939        1.44081       -8.63029
C         -9.47592        0.69785       -8.11509
C         -8.19222        1.42663       -8.55229
H        -14.60478        0.75182       -7.16704
H        -12.03746        0.71186       -7.07825
H         -9.50935        0.69098       -7.00222
H        -13.21791        1.53534       -9.81669
H        -10.68520        1.50960       -9.74111
H         -8.15901        1.49930       -9.66283
C         -8.24139        5.89623       -8.72978
C         -9.52040        5.16026       -8.27014
C        -10.77724        5.90786       -8.77988
H         -8.22081        5.91710       -9.84491
C         -9.51359        3.70130       -8.79094
H         -9.54148        5.14162       -7.15490
C        -10.78783        2.97193       -8.33534
C        -12.04129        3.70944       -8.83699
C        -12.05555        5.17083       -8.31964
H         -9.49462        3.70722       -9.90419
H        -10.75524        5.92558       -9.89499
H        -12.07616        5.15475       -7.20420
H        -12.02084        3.71304       -9.95031
H        -10.80794        2.90422       -7.22413
C         -8.25915        2.95999       -8.29384
H         -8.27683        2.88916       -7.18288
C        -13.31996        5.91126       -8.82890
C        -13.31097        2.97438       -8.38274
C        -14.58012        5.15318       -8.36807
C        -14.56233        3.70764       -8.87728
H        -13.30674        5.92326       -9.94315
H        -14.64845        5.15304       -7.25796
H        -14.58908        3.70008       -9.98816
H        -13.34280        2.90437       -7.27298
C         -3.18592       -5.89278       -8.25935
C         -0.64741       -5.90570       -8.20521
C         -1.90281       -5.15761       -8.71551
H         -0.67042       -5.92674       -7.09018
H         -0.59505       -2.94420       -9.76027
C         -0.62221       -2.96581       -8.64530
C         -1.90737       -3.70085       -8.19365
H         -1.87806       -5.13815       -9.83055
C         -3.15971       -2.95239       -8.70996
C         -4.44684       -3.68444       -8.25759
C         -4.44193       -5.14757       -8.77361
H         -4.41458       -5.13178       -9.88866
H         -3.21099       -5.91040       -7.14438
H         -1.93486       -3.72035       -7.07872
H         -3.13111       -2.93441       -9.82487
H         -4.47399       -3.70032       -7.14256
C         -3.16178       -1.49528       -8.18870
C         -0.62554       -1.51004       -8.11990
C         -1.87443       -0.76060       -8.63725
C         -4.40854       -0.74483       -8.70997
H         -3.19354       -1.51347       -7.07386
H         -0.65523       -1.53151       -7.00503
H         -4.37453       -0.72816       -9.82507
H         -1.84310       -0.74103       -9.75231
C         -5.70406       -1.47211       -8.26393
C         -5.70287       -2.93481       -8.77389
C         -5.72948       -5.88384       -8.31954
C         -6.93202       -0.70085       -8.78580
C         -6.97201       -3.68114       -8.32134
C         -6.96694       -5.12447       -8.83401
H         -6.94552       -0.69975       -9.89796
H         -5.74573       -1.48440       -7.15042
H         -5.68281       -2.92239       -9.88801
H         -7.04783       -3.68258       -7.21176
H         -6.98801       -5.12260       -9.94596
H         -5.76425       -5.89593       -7.20584
C         -6.92432        0.74430       -8.27524
C         -5.64250        1.46459       -8.70678
C         -4.40438        0.71613       -8.19120
C         -3.12039        1.44081       -8.63029
C         -1.87692        0.69785       -8.11509
C         -0.59322        1.42663       -8.55229
H         -7.00578        0.75182       -7.16704
H         -4.43846        0.71186       -7.07825
H         -1.91035        0.69098       -7.00222
H         -5.61891        1.53534       -9.81669
H         -3.08620        1.50960       -9.74111
H         -0.56001        1.49930       -9.66283
C         -0.64239        5.89623       -8.72978
C         -1.92140        5.16026       -8.27014
C         -3.17824        5.90786       -8.77988
H         -0.62181        5.91710       -9.84491
C         -1.91459        3.70130       -8.79094
H         -1.94248        5.14162       -7.15490
C         -3.18883        2.97193       -8.33534
C         -4.44229        3.70944       -8.83699
C         -4.45655        5.17083       -8.31964
H         -1.89562        3.70722       -9.90419
H         -3.15624        5.92558       -9.89499
H         -4.47716        5.15475       -7.20420
H         -4.42184        3.71304       -9.95031
H         -3.20894        2.90422       -7.22413
C         -0.66015        2.95999       -8.29384
H         -0.67783        2.88916       -7.18288
C         -5.72096        5.91126       -8.82890
C         -5.71197        2.97438       -8.38274
C         -6.98112        5.15318       -8.36807
C         -6.96333        3.70764       -8.87728
H         -5.70774        5.92326       -9.94315
H         -7.04945        5.15304       -7.25796
H         -6.99008        3.70008       -9.98816
H         -5.74380        2.90437       -7.27298
C          4.41308       -5.89278       -8.25935
C          6.95159       -5.90570       -8.20521
C          5.69619       -5.15761       -8.71551
H          6.92858       -5.92674       -7.09018
H          7.00395       -2.94420       -9.76027
C          6.97679       -2.96581       -8.64530
C          5.69163       -3.70085       -8.19365
H          5.72094       -5.13815       -9.83055
C          4.43929       -2.95239       -8.70996
C          3.15216       -3.68444       -8.25759
C          3.15707       -5.14757       -8.77361
H          3.18442       -5.13178       -9.88866
H          4.38801       -5.91040       -7.14438
H          5.66414       -3.72035       -7.07872
H          4.46789       -2.93441       -9.82487
H          3.12501       -3.70032       -7.14256
C          4.43722       -1.49528       -8.18870
C          6.97346       -1.51004       -8.11990
C          5.72457       -0.76060       -8.63725
C          3.19046       -0.74483       -8.70997
H          4.40546       -1.51347       -7.07386
H          6.94377       -1.53151       -7.00503
H          3.22447       -0.72816       -9.82507
H          5.75590       -0.74103       -9.75231
C          1.89494       -1.47211       -8.26393
C          1.89613       -2.93481       -8.77389
C          1.86952       -5.88384       -8.31954
C          0.66698       -0.70085       -8.78580
C          0.62699       -3.68114       -8.32134
C          0.63206       -5.12447       -8.83401
H          0.65348       -0.69975       -9.89796
H          1.85327       -1.48440       -7.15042
H          1.91619       -2.92239       -9.88801
H          0.55117       -3.68258       -7.21176
H          0.61099       -5.12260       -9.94596
H          1.83475       -5.89593       -7.20584
C          0.67468        0.74430       -8.27524
C          1.95650        1.46459       -8.70678
C          3.19462        0.71613       -8.19120
C          4.47861        1.44081       -8.63029
C          5.72208        0.69785       -8.11509
C          7.00578        1.42663       -8.55229
H          0.59322        0.75182       -7.16704
H          3.16054        0.71186       -7.07825
H          5.68865        0.69098       -7.00222
H          1.98009        1.53534       -9.81669
H          4.51280        1.50960       -9.74111
H          7.03899        1.49930       -9.66283
C          6.95661        5.89623       -8.72978
C          5.67760        5.16026       -8.27014
C          4.42076        5.90786       -8.77988
H          6.97719        5.91710       -9.84491
C          5.68441        3.70130       -8.79094
H          5.65652        5.14162       -7.15490
C          4.41017        2.97193       -8.33534
C          3.15671        3.70944       -8.83699
C          3.14245        5.17083       -8.31964
H          5.70338        3.70722       -9.90419
H          4.44276        5.92558       -9.89499
H          3.12184        5.15475       -7.20420
H          3.17716        3.71304       -9.95031
H          4.39006        2.90422       -7.22413
C          6.93885        2.95999       -8.29384
H          6.92117        2.88916       -7.18288
C          1.87804        5.91126       -8.82890
C          1.88703        2.97438       -8.38274
C          0.61788        5.15318       -8.36807
C          0.63567        3.70764       -8.87728
H          1.89126        5.92326       -9.94315
H          0.54955        5.15304       -7.25796
H          0.60892        3.70008       -9.98816
H          1.85520        2.90437       -7.27298
C         12.01208       -5.89278       -8.25935
C         14.55059       -5.90570       -8.20521
C         13.29519       -5.15761       -8.71551
H         14.52758       -5.92674       -7.09018
H         14.60295       -2.94420       -9.76027
C         14.57579       -2.96581       -8.64530
C         13.29063       -3.70085       -8.19365
H         13.31994       -5.13815       -9.83055
C         12.03829       -2.95239       -8.70996
C         10.75116       -3.68444       -8.25759
C         10.75607       -5.14757       -8.77361
H         10.78342       -5.13178       -9.88866
H         11.98701       -5.91040       -7.14438
H         13.26314       -3.72035       -7.07872
H         12.06689       -2.93441       -9.82487
H         10.72401       -3.70032       -7.14256
C         12.03622       -1.49528       -8.18870
C         14.57246       -1.51004       -8.11990
C         13.32357       -0.76060       -8.63725
C         10.78946       -0.74483       -8.70997
H         12.00446       -1.51347       -7.07386
H         14.54277       -1.53151       -7.00503
H         10.82347       -0.72816       -9.82507
H         13.35490       -0.74103       -9.75231
C          9.49394       -1.47211       -8.26393
C          9.49513       -2.93481       -8.77389
C          9.46852       -5.88384       -8.31954
C          8.26598       -0.70085       -8.78580
C          8.22599       -3.68114       -8.32134
C          8.23106       -5.12447       -8.83401
H          8.25248       -0.69975       -9.89796
H          9.45227       -1.48440       -7.15042
H          9.51519       -2.92239       -9.88801
H          8.15017       -3.68258       -7.21176
H          8.20999       -5.12260       -9.94596
H          9.43375       -5.89593       -7.20584
C          8.27368        0.74430       -8.27524
C          9.55550        1.46459       -8.70678
C         10.79362        0.71613       -8.19120
C         12.07761        1.44081       -8.63029
C         13.32108        0.69785       -8.11509
C         14.60478        1.42663       -8.55229
H          8.19222        0.75182       -7.16704
H         10.75954        0.71186       -7.07825
H         13.28765        0.69098       -7.00222
H          9.57909        1.53534       -9.81669
H         12.11180        1.50960       -9.74111
H         14.63799        1.49930       -9.66283
C         14.55561        5.89623       -8.72978
C         13.27660        5.16026       -8.27014
C         12.01976        5.90786       -8.77988
H         14.57619        5.91710       -9.84491
C         13.28341        3.70130       -8.79094
H         13.25552        5.14162       -7.15490
C         12.00917        2.97193       -8.33534
C         10.75571        3.70944       -8.83699
C         10.74145        5.17083       -8.31964
H         13.30238        3.70722       -9.90419
H         12.04176        5.92558       -9.89499
H         10.72084        5.15475       -7.20420
H         10.77616        3.71304       -9.95031
H         11.98906        2.90422       -7.22413
C         14.53785        2.95999       -8.29384
H         14.52017        2.88916       -7.18288
C          9.47704        5.91126       -8.82890
C          9.48603        2.97438       -8.38274
C          8.21688        5.15318       -8.36807
C          8.23467        3.70764       -8.87728
H          9.49026        5.92326       -9.94315
H          8.14855        5.15304       -7.25796
H          8.20792        3.70008       -9.98816
H          9.45420        2.90437       -7.27298
C        -10.78492       -5.89278        8.74065
C         -8.24641       -5.90570        8.79479
C         -9.50181       -5.15761        8.28449
H         -8.26942       -5.92674        9.90982
H         -8.19405       -2.94420        7.23973
C         -8.22121       -2.96581        8.35470
C         -9.50637       -3.70085        8.80635
H         -9.47706       -5.13815        7.16945
C        -10.75871       -2.95239        8.29004
C        -12.04584       -3.68444        8.74241
C        -12.04093       -5.14757        8.22639
H        -12.01358       -5.13178        7.11134
H        -10.80999       -5.91040        9.85562
H         -9.53386       -3.72035        9.92128
H        -10.73011       -2.93441        7.17513
H        -12.07299       -3.70032        9.85744
C        -10.76078       -1.49528        8.81130
C         -8.22454       -1.51004        8.88010
C         -9.47343       -0.76060        8.36275
C        -12.00754       -0.74483        8.29003
H        -10.79254       -1.51347        9.92614
H         -8.25423       -1.53151        9.99497
H        -11.97353       -0.72816        7.17493
H         -9.44210       -0.74103        7.24769
C        -13.30306       -1.47211        8.73607
C        -13.30187       -2.93481        8.22611
C        -13.32848       -5.88384        8.68046
C        -14.53102       -0.70085        8.21420
C        -14.57101       -3.68114        8.67866
C        -14.56594       -5.12447        8.16599
H        -14.54452       -0.69975        7.10204
H        -13.34473       -1.48440        9.84958
H        -13.28181       -2.92239        7.11199
H        -14.64683       -3.68258        9.78824
H        -14.58701       -5.12260        7.05404
H        -13.36325       -5.89593        9.79416
C        -14.52332        0.74430        8.72476
C        -13.24150        1.46459        8.29322
C        -12.00338        0.71613        8.80880
C        -10.71939        1.44081        8.36971
C         -9.47592        0.69785        8.88491
C         -8.19222        1.42663        8.44771
H        -14.60478        0.75182        9.83296
H        -12.03746        0.71186        9.92175
H         -9.50935        0.69098        9.99778
H        -13.21791        1.53534        7.18331
H        -10.68520        1.50960        7.25889
H         -8.15901        1.49930        7.33717
C         -8.24139        5.89623        8.27022
C         -9.52040        5.16026        8.72986
C        -10.77724        5.90786        8.22012
H         -8.22081        5.91710        7.15509
C         -9.51359        3.70130        8.20906
H         -9.54148        5.14162        9.84510
C        -10.78783        2.97193        8.66466
C        -12.04129        3.70944        8.16301
C        -12.05555        5.17083        8.68036
H         -9.49462        3.70722        7.09581
H        -10.75524        5.92558        7.10501
H        -12.07616        5.15475        9.79580
H        -12.02084        3.71304        7.04969
H        -10.80794        2.90422        9.77587
C         -8.25915        2.95999        8.70616
H         -8.27683        2.88916        9.81712
C        -13.31996        5.91126        8.17110
C        -13.31097        2.97438        8.61726
C        -14.58012        5.15318        8.63193
C        -14.56233        3.70764        8.12272
H        -13.30674        5.92326        7.05685
H        -14.64845        5.15304        9.74204
H        -14.58908        3.70008        7.01184
H        -13.34280        2.90437        9.72702
C         -3.18592       -5.89278        8.74065
C         -0.64741       -5.90570        8.79479
C         -1.90281       -5.15761        8.28449
H         -0.67042       -5.92674        9.90982
H         -0.59505       -2.94420        7.23973
C         -0.62221       -2.96581        8.35470
C         -1.90737       -3.70085        8.80635
H         -1.87806       -5.13815        7.16945
C         -3.15971       -2.95239        8.29004
C         -4.44684       -3.68444        8.74241
C         -4.44193       -5.14757        8.22639
H         -4.41458       -5.13178        7.11134
H         -3.21099       -5.91040        9.85562
H         -1.93486       -3.72035        9.92128
H         -3.13111       -2.93441        7.17513
H         -4.47399       -3.70032        9.85744
C         -3.16178       -1.49528        8.81130
C         -0.62554       -1.51004        8.88010
C         -1.87443       -0.76060        8.36275
C         -4.40854       -0.74483        8.29003
H         -3.19354       -1.51347        9.92614
H         -0.65523       -1.53151        9.99497
H         -4.37453       -0.72816        7.17493
H         -1.84310       -0.74103        7.24769
C         -5.70406       -1.47211        8.73607
C         -5.70287       -2.93481        8.22611
C         -5.72948       -5.88384        8.68046
C         -6.93202       -0.70085        8.21420
C         -6.97201       -3.68114        8.67866
C         -6.96694       -5.12447        8.16599
H         -6.94552       -0.69975        7.10204
H         -5.74573       -1.48440        9.84958
H         -5.68281       -2.92239        7.11199
H         -7.04783       -3.68258        9.78824
H         -6.98801       -5.12260        7.05404
H         -5.76425       -5.89593        9.79416
C         -6.92432        0.74430        8.72476
C         -5.64250        1.46459        8.29322
C         -4.40438        0.71613        8.80880
C         -3.12039        1.44081        8.36971
C         -1.87692        0.69785        8.88491
C         -0.59322        1.42663        8.44771
H         -7.00578        0.75182        9.83296
H         -4.43846        0.71186        9.92175
H         -1.91035        0.69098        9.99778
H         -5.61891        1.53534        7.18331
H         -3.08620        1.50960        7.25889
H         -0.56001        1.49930        7.33717
C         -0.64239        5.89623        8.27022
C         -1.92140        5.16026        8.72986
C         -3.17824        5.90786        8.22012
H         -0.62181        5.91710        7.15509
C         -1.91459        3.70130        8.20906
H         -1.94248        5.14162        9.84510
C         -3.18883        2.97193        8.66466
C         -4.44229        3.70944        8.16301
C         -4.45655        5.17083        8.68036
H         -1.89562        3.70722        7.09581
H         -3.15624        5.92558        7.10501
H         -4.47716        5.15475        9.79580
H         -4.42184        3.71304        7.04969
H         -3.20894        2.90422        9.77587
C         -0.66015        2.95999        8.70616
H         -0.67783        2.88916        9.81712
C         -5.72096        5.91126        8.17110
C         -5.71197        2.97438        8.61726
C         -6.98112        5.15318        8.63193
C         -6.96333        3.70764        8.12272
H         -5.70774        5.92326        7.05685
H         -7.04945        5.15304        9.74204
H         -6.99008        3.70008        7.01184
H         -5.74380        2.90437        9.72702
C          4.41308       -5.89278        8.74065
C          6.95159       -5.90570        8.79479
C          5.69619       -5.15761        8.28449
H          6.92858       -5.92674        9.90982
H          7.00395       -2.94420        7.23973
C          6.97679       -2.96581        8.35470
C          5.69163       -3.70085        8.80635
H          5.72094       -5.13815        7.16945
C          4.43929       -2.95239        8.29004
C          3.15216       -3.68444        8.74241
C          3.15707       -5.14757        8.22639
H          3.18442       -5.13178        7.11134
H          4.38801       -5.91040        9.85562
H          5.66414       -3.72035        9.92128
H          4.46789       -2.93441        7.17513
H          3.12501       -3.70032        9.85744
C          4.43722       -1.49528        8.81130
C          6.97346       -1.51004        8.88010
C          5.72457       -0.76060        8.36275
C          3.19046       -0.74483        8.29003
H          4.40546       -1.51347        9.92614
H          6.94377       -1.53151        9.99497
H          3.22447       -0.72816        7.17493
H          5.75590       -0.74103        7.24769
C          1.89494       -1.47211        8.73607
C          1.89613       -2.93481        8.22611
C          1.86952       -5.88384        8.68046
C          0.66698       -0.70085        8.21420
C          0.62699       -3.68114        8.67866
C          0.63206       -5.12447        8.16599
H          0.65348       -0.69975        7.10204
H          1.85327       -1.48440        9.84958
H          1.91619       -2.92239        7.11199
H          0.55117       -3.68258        9.78824
H          0.61099       -5.12260        7.05404
H          1.83475       -5.89593        9.79416
C          0.67468        0.74430        8.72476
C          1.95650        1.46459        8.29322
C          3.19462        0.71613        8.80880
C          4.47861        1.44081        8.36971
C          5.72208        0.69785        8.88491
C          7.00578        1.42663        8.44771
H          0.59322        0.75182        9.83296
H          3.16054        0.71186        9.92175
H          5.68865        0.69098        9.99778
H          1.98009        1.53534        7.18331
H          4.51280        1.50960        7.25889
H          7.03899        1.49930        7.33717
C          6.95661        5.89623        8.27022
C          5.67760        5.16026        8.72986
C          4.42076        5.90786        8.22012
H          6.97719        5.91710        7.15509
C          5.68441        3.70130        8.20906
H          5.65652        5.14162        9.84510
C          4.41017        2.97193        8.66466
C          3.15671        3.70944        8.16301
C          3.14245        5.17083        8.68036
H          5.70338        3.70722        7.09581
H          4.44276        5.92558        7.10501
H          3.12184        5.15475        9.79580
H          3.17716        3.71304        7.04969
H          4.39006        2.90422        9.77587
C          6.93885        2.95999        8.70616
H          6.92117        2.88916        9.81712
C          1.87804        5.91126        8.17110
C          1.88703        2.97438        8.61726
C          0.61788        5.15318        8.63193
C          0.63567        3.70764        8.12272
H          1.89126        5.92326        7.05685
H          0.54955        5.15304        9.74204
H          0.60892        3.70008        7.01184
H          1.85520        2.90437        9.72702
C         12.01208       -5.89278        8.74065
C         14.55059       -5.90570        8.79479
C         13.29519       -5.15761        8.28449
H         14.52758       -5.92674        9.90982
H         14.60295       -2.94420        7.23973
C         14.57579       -2.96581        8.35470
C         13.29063       -3.70085        8.80635
H         13.31994       -5.13815        7.16945
C         12.03829       -2.95239        8.29004
C         10.75116       -3.68444        8.74241
C         10.75607       -5.14757        8.22639
H         10.78342       -5.13178        7.11134
H         11.98701       -5.91040        9.85562
H         13.26314       -3.72035        9.92128
H         12.06689       -2.93441        7.17513
H         10.72401       -3.70032        9.85744
C         12.03622       -1.49528        8.81130
C         14.57246       -1.51004        8.88010
C         13.32357       -0.76060        8.36275
C         10.78946       -0.74483        8.29003
H         12.00446       -1.51347        9.92614
H         14.54277       -1.53151        9.99497
H         10.82347       -0.72816        7.17493
H         13.35490       -0.74103        7.24769
C          9.49394       -1.47211        8.73607
C          9.49513       -2.93481        8.22611
C          9.46852       -5.88384        8.68046
C          8.26598       -0.70085        8.21420
C          8.22599       -3.68114        8.67866
C          8.23106       -5.12447        8.16599
H          8.25248       -0.69975        7.10204
H          9.45227       -1.48440        9.84958
H          9.51519       -2.92239        7.11199
H          8.15017       -3.68258        9.78824
H          8.20999       -5.12260        7.05404
H          9.43375       -5.89593        9.79416
C          8.27368        0.74430        8.72476
C          9.55550        1.46459        8.29322
C         10.79362        0.71613        8.80880
C         12.07761        1.44081        8.36971
C         13.32108        0.69785        8.88491
C         14.60478        1.42663        8.44771
H          8.19222        0.75182        9.83296
H         10.75954        0.71186        9.92175
H         13.28765        0.69098        9.99778
H          9.57909        1.53534        7.18331
H         12.11180        1.50960        7.25889
H         14.63799        1.49930        7.33717
C         14.55561        5.89623        8.27022
C         13.27660        5.16026        8.72986
C         12.01976        5.90786        8.22012
H         14.57619        5.91710        7.15509
C         13.28341        3.70130        8.20906
H         13.25552        5.14162        9.84510
C         12.00917        2.97193        8.66466
C         10.75571        3.70944        8.16301
C         10.74145        5.17083        8.68036
H         13.30238        3.70722        7.09581
H         12.04176        5.92558        7.10501
H         10.72084        5.15475        9.79580
H         10.77616        3.71304        7.04969
H         11.98906        2.90422        9.77587
C         14.53785        2.95999        8.70616
H         14.52017        2.88916        9.81712
C          9.47704        5.91126        8.17110
C          9.48603        2.97438        8.61726
C          8.21688        5.15318        8.63193
C          8.23467        3.70764        8.12272
H          9.49026        5.92326        7.05685
H          8.14855        5.15304        9.74204
H          8.20792        3.70008        7.01184
H          9.45420        2.90437        9.72702
