288

C -1.92047 -5.87969 0.18461
C 0.61804 -5.89261 0.23875
C -0.63736 -5.14452 -0.27155
H 0.59503 -5.91365 1.35378
H 0.6704 -2.93111 -1.31631
C 0.64324 -2.95272 -0.20134
C -0.64192 -3.68776 0.25031
H -0.61261 -5.12506 -1.38659
C -1.89426 -2.9393 -0.266
C -3.18139 -3.67135 0.18637
C -3.17648 -5.13448 -0.32965
H -3.14913 -5.11869 -1.4447
H -1.94554 -5.89731 1.29958
H -0.66941 -3.70726 1.36524
H -1.86566 -2.92132 -1.38091
H -3.20854 -3.68723 1.3014
C -1.89633 -1.48219 0.25526
C 0.63991 -1.49695 0.32406
C -0.60898 -0.74751 -0.19329
C -3.14309 -0.73174 -0.26601
H -1.92809 -1.50038 1.3701
H 0.61022 -1.51842 1.43893
H -3.10908 -0.71507 -1.38111
H -0.57765 -0.72794 -1.30835
C -4.43861 -1.45902 0.18003
C -4.43742 -2.92172 -0.32993
C -4.46403 -5.87075 0.12442
C -5.66657 -0.68776 -0.34184
C -5.70656 -3.66805 0.12262
C -5.70149 -5.11138 -0.39005
H -5.68007 -0.68666 -1.454
H -4.48028 -1.47131 1.29354
H -4.41736 -2.9093 -1.44405
H -5.78238 -3.66949 1.2322
H -5.72256 -5.10951 -1.502
H -4.4988 -5.88284 1.23812
C -5.65887 0.75739 0.16872
C -4.37705 1.47768 -0.26282
C -3.13893 0.72922 0.25276
C -1.85494 1.4539 -0.18633
C -0.61147 0.71094 0.32887
C 0.67223 1.43972 -0.10833
H -5.74033 0.76491 1.27692
H -3.17301 0.72495 1.36571
H -0.6449 0.70407 1.44174
H -4.35346 1.54843 -1.37273
H -1.82075 1.52269 -1.29715
H 0.70544 1.51239 -1.21887
C 0.62306 5.90932 -0.28582
C -0.65595 5.17335 0.17382
C -1.91279 5.92095 -0.33592
H 0.64364 5.93019 -1.40095
C -0.64914 3.71439 -0.34698
H -0.67703 5.15471 1.28906
C -1.92338 2.98502 0.10862
C -3.17684 3.72253 -0.39303
C -3.1911 5.18392 0.12432
H -0.63017 3.72031 -1.46023
H -1.89079 5.93867 -1.45103
H -3.21171 5.16784 1.23976
H -3.15639 3.72613 -1.50635
H -1.94349 2.91731 1.21983
C 0.6053 2.97308 0.15012
H 0.58762 2.90225 1.26108
C -4.45551 5.92435 -0.38494
C -4.44652 2.98747 0.06122
C -5.71567 5.16627 0.07589
C -5.69788 3.72073 -0.43332
H -4.44229 5.93635 -1.49919
H -5.784 5.16613 1.186
H -5.72463 3.71317 -1.5442
H -4.47835 2.91746 1.17098
C 5.67853 -5.87969 0.18461
C 8.21704 -5.89261 0.23875
C 6.96164 -5.14452 -0.27155
H 8.19403 -5.91365 1.35378
H 8.2694 -2.93111 -1.31631
C 8.24224 -2.95272 -0.20134
C 6.95708 -3.68776 0.25031
H 6.98639 -5.12506 -1.38659
C 5.70474 -2.9393 -0.266
C 4.41761 -3.67135 0.18637
C 4.42252 -5.13448 -0.32965
H 4.44987 -5.11869 -1.4447
H 5.65346 -5.89731 1.29958
H 6.92959 -3.70726 1.36524
H 5.73334 -2.92132 -1.38091
H 4.39046 -3.68723 1.3014
C 5.70267 -1.48219 0.25526
C 8.23891 -1.49695 0.32406
C 6.99002 -0.74751 -0.19329
C 4.45591 -0.73174 -0.26601
H 5.67091 -1.50038 1.3701
H 8.20922 -1.51842 1.43893
H 4.48992 -0.71507 -1.38111
H 7.02135 -0.72794 -1.30835
C 3.16039 -1.45902 0.18003
C 3.16158 -2.92172 -0.32993
C 3.13497 -5.87075 0.12442
C 1.93243 -0.68776 -0.34184
C 1.89244 -3.66805 0.12262
C 1.89751 -5.11138 -0.39005
H 1.91893 -0.68666 -1.454
H 3.11872 -1.47131 1.29354
H 3.18164 -2.9093 -1.44405
H 1.81662 -3.66949 1.2322
H 1.87644 -5.10951 -1.502
H 3.1002 -5.88284 1.23812
C 1.94013 0.75739 0.16872
C 3.22195 1.47768 -0.26282
C 4.46007 0.72922 0.25276
C 5.74406 1.4539 -0.18633
C 6.98753 0.71094 0.32887
C 8.27123 1.43972 -0.10833
H 1.85867 0.76491 1.27692
H 4.42599 0.72495 1.36571
H 6.9541 0.70407 1.44174
H 3.24554 1.54843 -1.37273
H 5.77825 1.52269 -1.29715
H 8.30444 1.51239 -1.21887
C 8.22206 5.90932 -0.28582
C 6.94305 5.17335 0.17382
C 5.68621 5.92095 -0.33592
H 8.24264 5.93019 -1.40095
C 6.94986 3.71439 -0.34698
H 6.92197 5.15471 1.28906
C 5.67562 2.98502 0.10862
C 4.42216 3.72253 -0.39303
C 4.4079 5.18392 0.12432
H 6.96883 3.72031 -1.46023
H 5.70821 5.93867 -1.45103
H 4.38729 5.16784 1.23976
H 4.44261 3.72613 -1.50635
H 5.65551 2.91731 1.21983
C 8.2043 2.97308 0.15012
H 8.18662 2.90225 1.26108
C 3.14349 5.92435 -0.38494
C 3.15248 2.98747 0.06122
C 1.88333 5.16627 0.07589
C 1.90112 3.72073 -0.43332
H 3.15671 5.93635 -1.49919
H 1.815 5.16613 1.186
H 1.87437 3.71317 -1.5442
H 3.12065 2.91746 1.17098
C -1.92047 -5.87969 22.68461
C 0.61804 -5.89261 22.73875
C -0.63736 -5.14452 22.22845
H 0.59503 -5.91365 23.85378
H 0.6704 -2.93111 21.18369
C 0.64324 -2.95272 22.29866
C -0.64192 -3.68776 22.75031
H -0.61261 -5.12506 21.11341
C -1.89426 -2.9393 22.234
C -3.18139 -3.67135 22.68637
C -3.17648 -5.13448 22.17035
H -3.14913 -5.11869 21.0553
H -1.94554 -5.89731 23.79958
H -0.66941 -3.70726 23.86524
H -1.86566 -2.92132 21.11909
H -3.20854 -3.68723 23.8014
C -1.89633 -1.48219 22.75526
C 0.63991 -1.49695 22.82406
C -0.60898 -0.74751 22.30671
C -3.14309 -0.73174 22.23399
H -1.92809 -1.50038 23.8701
H 0.61022 -1.51842 23.93893
H -3.10908 -0.71507 21.11889
H -0.57765 -0.72794 21.19165
C -4.43861 -1.45902 22.68003
C -4.43742 -2.92172 22.17007
C -4.46403 -5.87075 22.62442
C -5.66657 -0.68776 22.15816
C -5.70656 -3.66805 22.62262
C -5.70149 -5.11138 22.10995
H -5.68007 -0.68666 21.046
H -4.48028 -1.47131 23.79354
H -4.41736 -2.9093 21.05595
H -5.78238 -3.66949 23.7322
H -5.72256 -5.10951 20.998
H -4.4988 -5.88284 23.73812
C -5.65887 0.75739 22.66872
C -4.37705 1.47768 22.23718
C -3.13893 0.72922 22.75276
C -1.85494 1.4539 22.31367
C -0.61147 0.71094 22.82887
C 0.67223 1.43972 22.39167
H -5.74033 0.76491 23.77692
H -3.17301 0.72495 23.86571
H -0.6449 0.70407 23.94174
H -4.35346 1.54843 21.12727
H -1.82075 1.52269 21.20285
H 0.70544 1.51239 21.28113
C 0.62306 5.90932 22.21418
C -0.65595 5.17335 22.67382
C -1.91279 5.92095 22.16408
H 0.64364 5.93019 21.09905
C -0.64914 3.71439 22.15302
H -0.67703 5.15471 23.78906
C -1.92338 2.98502 22.60862
C -3.17684 3.72253 22.10697
C -3.1911 5.18392 22.62432
H -0.63017 3.72031 21.03977
H -1.89079 5.93867 21.04897
H -3.21171 5.16784 23.73976
H -3.15639 3.72613 20.99365
H -1.94349 2.91731 23.71983
C 0.6053 2.97308 22.65012
H 0.58762 2.90225 23.76108
C -4.45551 5.92435 22.11506
C -4.44652 2.98747 22.56122
C -5.71567 5.16627 22.57589
C -5.69788 3.72073 22.06668
H -4.44229 5.93635 21.00081
H -5.784 5.16613 23.686
H -5.72463 3.71317 20.9558
H -4.47835 2.91746 23.67098
C 5.67853 -5.87969 22.68461
C 8.21704 -5.89261 22.73875
C 6.96164 -5.14452 22.22845
H 8.19403 -5.91365 23.85378
H 8.2694 -2.93111 21.18369
C 8.24224 -2.95272 22.29866
C 6.95708 -3.68776 22.75031
H 6.98639 -5.12506 21.11341
C 5.70474 -2.9393 22.234
C 4.41761 -3.67135 22.68637
C 4.42252 -5.13448 22.17035
H 4.44987 -5.11869 21.0553
H 5.65346 -5.89731 23.79958
H 6.92959 -3.70726 23.86524
H 5.73334 -2.92132 21.11909
H 4.39046 -3.68723 23.8014
C 5.70267 -1.48219 22.75526
C 8.23891 -1.49695 22.82406
C 6.99002 -0.74751 22.30671
C 4.45591 -0.73174 22.23399
H 5.67091 -1.50038 23.8701
H 8.20922 -1.51842 23.93893
H 4.48992 -0.71507 21.11889
H 7.02135 -0.72794 21.19165
C 3.16039 -1.45902 22.68003
C 3.16158 -2.92172 22.17007
C 3.13497 -5.87075 22.62442
C 1.93243 -0.68776 22.15816
C 1.89244 -3.66805 22.62262
C 1.89751 -5.11138 22.10995
H 1.91893 -0.68666 21.046
H 3.11872 -1.47131 23.79354
H 3.18164 -2.9093 21.05595
H 1.81662 -3.66949 23.7322
H 1.87644 -5.10951 20.998
H 3.1002 -5.88284 23.73812
C 1.94013 0.75739 22.66872
C 3.22195 1.47768 22.23718
C 4.46007 0.72922 22.75276
C 5.74406 1.4539 22.31367
C 6.98753 0.71094 22.82887
C 8.27123 1.43972 22.39167
H 1.85867 0.76491 23.77692
H 4.42599 0.72495 23.86571
H 6.9541 0.70407 23.94174
H 3.24554 1.54843 21.12727
H 5.77825 1.52269 21.20285
H 8.30444 1.51239 21.28113
C 8.22206 5.90932 22.21418
C 6.94305 5.17335 22.67382
C 5.68621 5.92095 22.16408
H 8.24264 5.93019 21.09905
C 6.94986 3.71439 22.15302
H 6.92197 5.15471 23.78906
C 5.67562 2.98502 22.60862
C 4.42216 3.72253 22.10697
C 4.4079 5.18392 22.62432
H 6.96883 3.72031 21.03977
H 5.70821 5.93867 21.04897
H 4.38729 5.16784 23.73976
H 4.44261 3.72613 20.99365
H 5.65551 2.91731 23.71983
C 8.2043 2.97308 22.65012
H 8.18662 2.90225 23.76108
C 3.14349 5.92435 22.11506
C 3.15248 2.98747 22.56122
C 1.88333 5.16627 22.57589
C 1.90112 3.72073 22.06668
H 3.15671 5.93635 21.00081
H 1.815 5.16613 23.686
H 1.87437 3.71317 20.9558
H 3.12065 2.91746 23.67098
