288

C         -3.18592       -5.89278      -11.00935
C         -0.64741       -5.90570      -10.95521
C         -1.90281       -5.15761      -11.46551
H         -0.67042       -5.92674       -9.84018
H         -0.59505       -2.94420      -12.51027
C         -0.62221       -2.96581      -11.39530
C         -1.90737       -3.70085      -10.94365
H         -1.87806       -5.13815      -12.58055
C         -3.15971       -2.95239      -11.45996
C         -4.44684       -3.68444      -11.00759
C         -4.44193       -5.14757      -11.52361
H         -4.41458       -5.13178      -12.63866
H         -3.21099       -5.91040       -9.89438
H         -1.93486       -3.72035       -9.82872
H         -3.13111       -2.93441      -12.57487
H         -4.47399       -3.70032       -9.89256
C         -3.16178       -1.49528      -10.93870
C         -0.62554       -1.51004      -10.86990
C         -1.87443       -0.76060      -11.38725
C         -4.40854       -0.74483      -11.45997
H         -3.19354       -1.51347       -9.82386
H         -0.65523       -1.53151       -9.75503
H         -4.37453       -0.72816      -12.57507
H         -1.84310       -0.74103      -12.50231
C         -5.70406       -1.47211      -11.01393
C         -5.70287       -2.93481      -11.52389
C         -5.72948       -5.88384      -11.06954
C         -6.93202       -0.70085      -11.53580
C         -6.97201       -3.68114      -11.07134
C         -6.96694       -5.12447      -11.58401
H         -6.94552       -0.69975      -12.64796
H         -5.74573       -1.48440       -9.90042
H         -5.68281       -2.92239      -12.63801
H         -7.04783       -3.68258       -9.96176
H         -6.98801       -5.12260      -12.69596
H         -5.76425       -5.89593       -9.95584
C         -6.92432        0.74430      -11.02524
C         -5.64250        1.46459      -11.45678
C         -4.40438        0.71613      -10.94120
C         -3.12039        1.44081      -11.38029
C         -1.87692        0.69785      -10.86509
C         -0.59322        1.42663      -11.30229
H         -7.00578        0.75182       -9.91704
H         -4.43846        0.71186       -9.82825
H         -1.91035        0.69098       -9.75222
H         -5.61891        1.53534      -12.56669
H         -3.08620        1.50960      -12.49111
H         -0.56001        1.49930      -12.41283
C         -0.64239        5.89623      -11.47978
C         -1.92140        5.16026      -11.02014
C         -3.17824        5.90786      -11.52988
H         -0.62181        5.91710      -12.59491
C         -1.91459        3.70130      -11.54094
H         -1.94248        5.14162       -9.90490
C         -3.18883        2.97193      -11.08534
C         -4.44229        3.70944      -11.58699
C         -4.45655        5.17083      -11.06964
H         -1.89562        3.70722      -12.65419
H         -3.15624        5.92558      -12.64499
H         -4.47716        5.15475       -9.95420
H         -4.42184        3.71304      -12.70031
H         -3.20894        2.90422       -9.97413
C         -0.66015        2.95999      -11.04384
H         -0.67783        2.88916       -9.93288
C         -5.72096        5.91126      -11.57890
C         -5.71197        2.97438      -11.13274
C         -6.98112        5.15318      -11.11807
C         -6.96333        3.70764      -11.62728
H         -5.70774        5.92326      -12.69315
H         -7.04945        5.15304      -10.00796
H         -6.99008        3.70008      -12.73816
H         -5.74380        2.90437      -10.02298
C          4.41308       -5.89278      -11.00935
C          6.95159       -5.90570      -10.95521
C          5.69619       -5.15761      -11.46551
H          6.92858       -5.92674       -9.84018
H          7.00395       -2.94420      -12.51027
C          6.97679       -2.96581      -11.39530
C          5.69163       -3.70085      -10.94365
H          5.72094       -5.13815      -12.58055
C          4.43929       -2.95239      -11.45996
C          3.15216       -3.68444      -11.00759
C          3.15707       -5.14757      -11.52361
H          3.18442       -5.13178      -12.63866
H          4.38801       -5.91040       -9.89438
H          5.66414       -3.72035       -9.82872
H          4.46789       -2.93441      -12.57487
H          3.12501       -3.70032       -9.89256
C          4.43722       -1.49528      -10.93870
C          6.97346       -1.51004      -10.86990
C          5.72457       -0.76060      -11.38725
C          3.19046       -0.74483      -11.45997
H          4.40546       -1.51347       -9.82386
H          6.94377       -1.53151       -9.75503
H          3.22447       -0.72816      -12.57507
H          5.75590       -0.74103      -12.50231
C          1.89494       -1.47211      -11.01393
C          1.89613       -2.93481      -11.52389
C          1.86952       -5.88384      -11.06954
C          0.66698       -0.70085      -11.53580
C          0.62699       -3.68114      -11.07134
C          0.63206       -5.12447      -11.58401
H          0.65348       -0.69975      -12.64796
H          1.85327       -1.48440       -9.90042
H          1.91619       -2.92239      -12.63801
H          0.55117       -3.68258       -9.96176
H          0.61099       -5.12260      -12.69596
H          1.83475       -5.89593       -9.95584
C          0.67468        0.74430      -11.02524
C          1.95650        1.46459      -11.45678
C          3.19462        0.71613      -10.94120
C          4.47861        1.44081      -11.38029
C          5.72208        0.69785      -10.86509
C          7.00578        1.42663      -11.30229
H          0.59322        0.75182       -9.91704
H          3.16054        0.71186       -9.82825
H          5.68865        0.69098       -9.75222
H          1.98009        1.53534      -12.56669
H          4.51280        1.50960      -12.49111
H          7.03899        1.49930      -12.41283
C          6.95661        5.89623      -11.47978
C          5.67760        5.16026      -11.02014
C          4.42076        5.90786      -11.52988
H          6.97719        5.91710      -12.59491
C          5.68441        3.70130      -11.54094
H          5.65652        5.14162       -9.90490
C          4.41017        2.97193      -11.08534
C          3.15671        3.70944      -11.58699
C          3.14245        5.17083      -11.06964
H          5.70338        3.70722      -12.65419
H          4.44276        5.92558      -12.64499
H          3.12184        5.15475       -9.95420
H          3.17716        3.71304      -12.70031
H          4.39006        2.90422       -9.97413
C          6.93885        2.95999      -11.04384
H          6.92117        2.88916       -9.93288
C          1.87804        5.91126      -11.57890
C          1.88703        2.97438      -11.13274
C          0.61788        5.15318      -11.11807
C          0.63567        3.70764      -11.62728
H          1.89126        5.92326      -12.69315
H          0.54955        5.15304      -10.00796
H          0.60892        3.70008      -12.73816
H          1.85520        2.90437      -10.02298
C         -3.18592       -5.89278       11.49065
C         -0.64741       -5.90570       11.54479
C         -1.90281       -5.15761       11.03449
H         -0.67042       -5.92674       12.65982
H         -0.59505       -2.94420        9.98973
C         -0.62221       -2.96581       11.10470
C         -1.90737       -3.70085       11.55635
H         -1.87806       -5.13815        9.91945
C         -3.15971       -2.95239       11.04004
C         -4.44684       -3.68444       11.49241
C         -4.44193       -5.14757       10.97639
H         -4.41458       -5.13178        9.86134
H         -3.21099       -5.91040       12.60562
H         -1.93486       -3.72035       12.67128
H         -3.13111       -2.93441        9.92513
H         -4.47399       -3.70032       12.60744
C         -3.16178       -1.49528       11.56130
C         -0.62554       -1.51004       11.63010
C         -1.87443       -0.76060       11.11275
C         -4.40854       -0.74483       11.04003
H         -3.19354       -1.51347       12.67614
H         -0.65523       -1.53151       12.74497
H         -4.37453       -0.72816        9.92493
H         -1.84310       -0.74103        9.99769
C         -5.70406       -1.47211       11.48607
C         -5.70287       -2.93481       10.97611
C         -5.72948       -5.88384       11.43046
C         -6.93202       -0.70085       10.96420
C         -6.97201       -3.68114       11.42866
C         -6.96694       -5.12447       10.91599
H         -6.94552       -0.69975        9.85204
H         -5.74573       -1.48440       12.59958
H         -5.68281       -2.92239        9.86199
H         -7.04783       -3.68258       12.53824
H         -6.98801       -5.12260        9.80404
H         -5.76425       -5.89593       12.54416
C         -6.92432        0.74430       11.47476
C         -5.64250        1.46459       11.04322
C         -4.40438        0.71613       11.55880
C         -3.12039        1.44081       11.11971
C         -1.87692        0.69785       11.63491
C         -0.59322        1.42663       11.19771
H         -7.00578        0.75182       12.58296
H         -4.43846        0.71186       12.67175
H         -1.91035        0.69098       12.74778
H         -5.61891        1.53534        9.93331
H         -3.08620        1.50960       10.00889
H         -0.56001        1.49930       10.08717
C         -0.64239        5.89623       11.02022
C         -1.92140        5.16026       11.47986
C         -3.17824        5.90786       10.97012
H         -0.62181        5.91710        9.90509
C         -1.91459        3.70130       10.95906
H         -1.94248        5.14162       12.59510
C         -3.18883        2.97193       11.41466
C         -4.44229        3.70944       10.91301
C         -4.45655        5.17083       11.43036
H         -1.89562        3.70722        9.84581
H         -3.15624        5.92558        9.85501
H         -4.47716        5.15475       12.54580
H         -4.42184        3.71304        9.79969
H         -3.20894        2.90422       12.52587
C         -0.66015        2.95999       11.45616
H         -0.67783        2.88916       12.56712
C         -5.72096        5.91126       10.92110
C         -5.71197        2.97438       11.36726
C         -6.98112        5.15318       11.38193
C         -6.96333        3.70764       10.87272
H         -5.70774        5.92326        9.80685
H         -7.04945        5.15304       12.49204
H         -6.99008        3.70008        9.76184
H         -5.74380        2.90437       12.47702
C          4.41308       -5.89278       11.49065
C          6.95159       -5.90570       11.54479
C          5.69619       -5.15761       11.03449
H          6.92858       -5.92674       12.65982
H          7.00395       -2.94420        9.98973
C          6.97679       -2.96581       11.10470
C          5.69163       -3.70085       11.55635
H          5.72094       -5.13815        9.91945
C          4.43929       -2.95239       11.04004
C          3.15216       -3.68444       11.49241
C          3.15707       -5.14757       10.97639
H          3.18442       -5.13178        9.86134
H          4.38801       -5.91040       12.60562
H          5.66414       -3.72035       12.67128
H          4.46789       -2.93441        9.92513
H          3.12501       -3.70032       12.60744
C          4.43722       -1.49528       11.56130
C          6.97346       -1.51004       11.63010
C          5.72457       -0.76060       11.11275
C          3.19046       -0.74483       11.04003
H          4.40546       -1.51347       12.67614
H          6.94377       -1.53151       12.74497
H          3.22447       -0.72816        9.92493
H          5.75590       -0.74103        9.99769
C          1.89494       -1.47211       11.48607
C          1.89613       -2.93481       10.97611
C          1.86952       -5.88384       11.43046
C          0.66698       -0.70085       10.96420
C          0.62699       -3.68114       11.42866
C          0.63206       -5.12447       10.91599
H          0.65348       -0.69975        9.85204
H          1.85327       -1.48440       12.59958
H          1.91619       -2.92239        9.86199
H          0.55117       -3.68258       12.53824
H          0.61099       -5.12260        9.80404
H          1.83475       -5.89593       12.54416
C          0.67468        0.74430       11.47476
C          1.95650        1.46459       11.04322
C          3.19462        0.71613       11.55880
C          4.47861        1.44081       11.11971
C          5.72208        0.69785       11.63491
C          7.00578        1.42663       11.19771
H          0.59322        0.75182       12.58296
H          3.16054        0.71186       12.67175
H          5.68865        0.69098       12.74778
H          1.98009        1.53534        9.93331
H          4.51280        1.50960       10.00889
H          7.03899        1.49930       10.08717
C          6.95661        5.89623       11.02022
C          5.67760        5.16026       11.47986
C          4.42076        5.90786       10.97012
H          6.97719        5.91710        9.90509
C          5.68441        3.70130       10.95906
H          5.65652        5.14162       12.59510
C          4.41017        2.97193       11.41466
C          3.15671        3.70944       10.91301
C          3.14245        5.17083       11.43036
H          5.70338        3.70722        9.84581
H          4.44276        5.92558        9.85501
H          3.12184        5.15475       12.54580
H          3.17716        3.71304        9.79969
H          4.39006        2.90422       12.52587
C          6.93885        2.95999       11.45616
H          6.92117        2.88916       12.56712
C          1.87804        5.91126       10.92110
C          1.88703        2.97438       11.36726
C          0.61788        5.15318       11.38193
C          0.63567        3.70764       10.87272
H          1.89126        5.92326        9.80685
H          0.54955        5.15304       12.49204
H          0.60892        3.70008        9.76184
H          1.85520        2.90437       12.47702
