320
Combined system
C -3.1859 -5.8928 -7.2594
C -0.6474 -5.9057 -7.2052
C -1.9028 -5.1576 -7.7155
H -0.6704 -5.9267 -6.0902
H -0.5950 -2.9442 -8.7603
C -0.6222 -2.9658 -7.6453
C -1.9074 -3.7008 -7.1936
H -1.8781 -5.1382 -8.8306
C -3.1597 -2.9524 -7.7100
C -4.4468 -3.6844 -7.2576
C -4.4419 -5.1476 -7.7736
H -4.4146 -5.1318 -8.8887
H -3.2110 -5.9104 -6.1444
H -1.9349 -3.7203 -6.0787
H -3.1311 -2.9344 -8.8249
H -4.4740 -3.7003 -6.1426
C -3.1618 -1.4953 -7.1887
C -0.6255 -1.5100 -7.1199
C -1.8744 -0.7606 -7.6372
C -4.4085 -0.7448 -7.7100
H -3.1935 -1.5135 -6.0739
H -0.6552 -1.5315 -6.0050
H -4.3745 -0.7282 -8.8251
H -1.8431 -0.7410 -8.7523
C -5.7041 -1.4721 -7.2639
C -5.7029 -2.9348 -7.7739
C -5.7295 -5.8838 -7.3195
C -6.9320 -0.7008 -7.7858
C -6.9720 -3.6811 -7.3213
C -6.9669 -5.1245 -7.8340
H -6.9455 -0.6997 -8.8980
H -5.7457 -1.4844 -6.1504
H -5.6828 -2.9224 -8.8880
H -7.0478 -3.6826 -6.2118
H -6.9880 -5.1226 -8.9460
H -5.7642 -5.8959 -6.2058
C -6.9243 0.7443 -7.2752
C -5.6425 1.4646 -7.7068
C -4.4044 0.7161 -7.1912
C -3.1204 1.4408 -7.6303
C -1.8769 0.6978 -7.1151
C -0.5932 1.4266 -7.5523
H -7.0058 0.7518 -6.1670
H -4.4385 0.7119 -6.0782
H -1.9103 0.6910 -6.0022
H -5.6189 1.5353 -8.8167
H -3.0862 1.5096 -8.7411
H -0.5600 1.4993 -8.6628
C -0.6424 5.8962 -7.7298
C -1.9214 5.1603 -7.2701
C -3.1782 5.9079 -7.7799
H -0.6218 5.9171 -8.8449
C -1.9146 3.7013 -7.7909
H -1.9425 5.1416 -6.1549
C -3.1888 2.9719 -7.3353
C -4.4423 3.7094 -7.8370
C -4.4566 5.1708 -7.3196
H -1.8956 3.7072 -8.9042
H -3.1562 5.9256 -8.8950
H -4.4772 5.1547 -6.2042
H -4.4218 3.7130 -8.9503
H -3.2089 2.9042 -6.2241
C -0.6602 2.9600 -7.2938
H -0.6778 2.8892 -6.1829
C -5.7210 5.9113 -7.8289
C -5.7120 2.9744 -7.3827
C -6.9811 5.1532 -7.3681
C -6.9633 3.7076 -7.8773
H -5.7077 5.9233 -8.9431
H -7.0495 5.1530 -6.2580
H -6.9901 3.7001 -8.9882
H -5.7438 2.9044 -6.2730
C 4.4131 -5.8928 -7.2594
C 6.9516 -5.9057 -7.2052
C 5.6962 -5.1576 -7.7155
H 6.9286 -5.9267 -6.0902
H 7.0039 -2.9442 -8.7603
C 6.9768 -2.9658 -7.6453
C 5.6916 -3.7008 -7.1936
H 5.7209 -5.1382 -8.8306
C 4.4393 -2.9524 -7.7100
C 3.1522 -3.6844 -7.2576
C 3.1571 -5.1476 -7.7736
H 3.1844 -5.1318 -8.8887
H 4.3880 -5.9104 -6.1444
H 5.6641 -3.7203 -6.0787
H 4.4679 -2.9344 -8.8249
H 3.1250 -3.7003 -6.1426
C 4.4372 -1.4953 -7.1887
C 6.9735 -1.5100 -7.1199
C 5.7246 -0.7606 -7.6372
C 3.1905 -0.7448 -7.7100
H 4.4055 -1.5135 -6.0739
H 6.9438 -1.5315 -6.0050
H 3.2245 -0.7282 -8.8251
H 5.7559 -0.7410 -8.7523
C 1.8949 -1.4721 -7.2639
C 1.8961 -2.9348 -7.7739
C 1.8695 -5.8838 -7.3195
C 0.6670 -0.7008 -7.7858
C 0.6270 -3.6811 -7.3213
C 0.6321 -5.1245 -7.8340
H 0.6535 -0.6997 -8.8980
H 1.8533 -1.4844 -6.1504
H 1.9162 -2.9224 -8.8880
H 0.5512 -3.6826 -6.2118
H 0.6110 -5.1226 -8.9460
H 1.8348 -5.8959 -6.2058
C 0.6747 0.7443 -7.2752
C 1.9565 1.4646 -7.7068
C 3.1946 0.7161 -7.1912
C 4.4786 1.4408 -7.6303
C 5.7221 0.6978 -7.1151
C 7.0058 1.4266 -7.5523
H 0.5932 0.7518 -6.1670
H 3.1605 0.7119 -6.0782
H 5.6886 0.6910 -6.0022
H 1.9801 1.5353 -8.8167
H 4.5128 1.5096 -8.7411
H 7.0390 1.4993 -8.6628
C 6.9566 5.8962 -7.7298
C 5.6776 5.1603 -7.2701
C 4.4208 5.9079 -7.7799
H 6.9772 5.9171 -8.8449
C 5.6844 3.7013 -7.7909
H 5.6565 5.1416 -6.1549
C 4.4102 2.9719 -7.3353
C 3.1567 3.7094 -7.8370
C 3.1425 5.1708 -7.3196
H 5.7034 3.7072 -8.9042
H 4.4428 5.9256 -8.8950
H 3.1218 5.1547 -6.2042
H 3.1772 3.7130 -8.9503
H 4.3901 2.9042 -6.2241
C 6.9389 2.9600 -7.2938
H 6.9212 2.8892 -6.1829
C 1.8780 5.9113 -7.8289
C 1.8870 2.9744 -7.3827
C 0.6179 5.1532 -7.3681
C 0.6357 3.7076 -7.8773
H 1.8913 5.9233 -8.9431
H 0.5495 5.1530 -6.2580
H 0.6089 3.7001 -8.9882
H 1.8552 2.9044 -6.2730
C -3.1859 -5.8928 7.7406
C -0.6474 -5.9057 7.7948
C -1.9028 -5.1576 7.2845
H -0.6704 -5.9267 8.9098
H -0.5950 -2.9442 6.2397
C -0.6222 -2.9658 7.3547
C -1.9074 -3.7008 7.8064
H -1.8781 -5.1382 6.1695
C -3.1597 -2.9524 7.2900
C -4.4468 -3.6844 7.7424
C -4.4419 -5.1476 7.2264
H -4.4146 -5.1318 6.1113
H -3.2110 -5.9104 8.8556
H -1.9349 -3.7203 8.9213
H -3.1311 -2.9344 6.1751
H -4.4740 -3.7003 8.8574
C -3.1618 -1.4953 7.8113
C -0.6255 -1.5100 7.8801
C -1.8744 -0.7606 7.3628
C -4.4085 -0.7448 7.2900
H -3.1935 -1.5135 8.9261
H -0.6552 -1.5315 8.9950
H -4.3745 -0.7282 6.1749
H -1.8431 -0.7410 6.2477
C -5.7041 -1.4721 7.7361
C -5.7029 -2.9348 7.2261
C -5.7295 -5.8838 7.6805
C -6.9320 -0.7008 7.2142
C -6.9720 -3.6811 7.6787
C -6.9669 -5.1245 7.1660
H -6.9455 -0.6997 6.1020
H -5.7457 -1.4844 8.8496
H -5.6828 -2.9224 6.1120
H -7.0478 -3.6826 8.7882
H -6.9880 -5.1226 6.0540
H -5.7642 -5.8959 8.7942
C -6.9243 0.7443 7.7248
C -5.6425 1.4646 7.2932
C -4.4044 0.7161 7.8088
C -3.1204 1.4408 7.3697
C -1.8769 0.6978 7.8849
C -0.5932 1.4266 7.4477
H -7.0058 0.7518 8.8330
H -4.4385 0.7119 8.9217
H -1.9103 0.6910 8.9978
H -5.6189 1.5353 6.1833
H -3.0862 1.5096 6.2589
H -0.5600 1.4993 6.3372
C -0.6424 5.8962 7.2702
C -1.9214 5.1603 7.7299
C -3.1782 5.9079 7.2201
H -0.6218 5.9171 6.1551
C -1.9146 3.7013 7.2091
H -1.9425 5.1416 8.8451
C -3.1888 2.9719 7.6647
C -4.4423 3.7094 7.1630
C -4.4566 5.1708 7.6804
H -1.8956 3.7072 6.0958
H -3.1562 5.9256 6.1050
H -4.4772 5.1547 8.7958
H -4.4218 3.7130 6.0497
H -3.2089 2.9042 8.7759
C -0.6602 2.9600 7.7062
H -0.6778 2.8892 8.8171
C -5.7210 5.9113 7.1711
C -5.7120 2.9744 7.6173
C -6.9811 5.1532 7.6319
C -6.9633 3.7076 7.1227
H -5.7077 5.9233 6.0568
H -7.0495 5.1530 8.7420
H -6.9901 3.7001 6.0118
H -5.7438 2.9044 8.7270
C 4.4131 -5.8928 7.7406
C 6.9516 -5.9057 7.7948
C 5.6962 -5.1576 7.2845
H 6.9286 -5.9267 8.9098
H 7.0039 -2.9442 6.2397
C 6.9768 -2.9658 7.3547
C 5.6916 -3.7008 7.8064
H 5.7209 -5.1382 6.1695
C 4.4393 -2.9524 7.2900
C 3.1522 -3.6844 7.7424
C 3.1571 -5.1476 7.2264
H 3.1844 -5.1318 6.1113
H 4.3880 -5.9104 8.8556
H 5.6641 -3.7203 8.9213
H 4.4679 -2.9344 6.1751
H 3.1250 -3.7003 8.8574
C 4.4372 -1.4953 7.8113
C 6.9735 -1.5100 7.8801
C 5.7246 -0.7606 7.3628
C 3.1905 -0.7448 7.2900
H 4.4055 -1.5135 8.9261
H 6.9438 -1.5315 8.9950
H 3.2245 -0.7282 6.1749
H 5.7559 -0.7410 6.2477
C 1.8949 -1.4721 7.7361
C 1.8961 -2.9348 7.2261
C 1.8695 -5.8838 7.6805
C 0.6670 -0.7008 7.2142
C 0.6270 -3.6811 7.6787
C 0.6321 -5.1245 7.1660
H 1.8533 -1.4844 8.8496
H 1.9162 -2.9224 6.1120
H 0.5512 -3.6826 8.7882
H 0.6110 -5.1226 6.0540
H 1.8348 -5.8959 8.7942
C 0.6747 0.7443 7.7248
C 1.9565 1.4646 7.2932
C 3.1946 0.7161 7.8088
C 4.4786 1.4408 7.3697
C 5.7221 0.6978 7.8849
C 7.0058 1.4266 7.4477
H 0.5932 0.7518 8.8330
H 3.1605 0.7119 8.9217
H 5.6886 0.6910 8.9978
H 1.9801 1.5353 6.1833
H 4.5128 1.5096 6.2589
H 7.0390 1.4993 6.3372
C 6.9566 5.8962 7.2702
C 5.6776 5.1603 7.7299
C 4.4208 5.9079 7.2201
H 6.9772 5.9171 6.1551
C 5.6844 3.7013 7.2091
H 5.6565 5.1416 8.8451
C 4.4102 2.9719 7.6647
C 3.1567 3.7094 7.1630
C 3.1425 5.1708 7.6804
H 5.7034 3.7072 6.0958
H 4.4428 5.9256 6.1050
H 3.1218 5.1547 8.7958
H 3.1772 3.7130 6.0497
H 4.3901 2.9042 8.7759
C 6.9389 2.9600 7.7062
H 6.9212 2.8892 8.8171
C 1.8780 5.9113 7.1711
C 1.8870 2.9744 7.6173
C 0.6179 5.1532 7.6319
C 0.6357 3.7076 7.1227
H 1.8913 5.9233 6.0568
H 0.5495 5.1530 8.7420
H 0.6089 3.7001 6.0118
H 1.8552 2.9044 8.7270
N -2.8670 -3.0083 -0.6422
C -2.9217 -2.8316 0.8171
H -3.7400 -2.1484 1.0720
H -3.0933 -3.8021 1.2965
C -1.5958 -2.2461 1.3102
H -0.7775 -2.9292 1.0554
H -1.4243 -1.2755 0.8309
C 0.6670 -0.7008 5.6432
H 1.5549 -1.3472 5.4760
H 0.8642 0.3166 5.2432
C -0.5704 -1.3062 4.9907
H -0.7538 -2.3059 5.4402
H -1.4421 -0.6526 5.2100
C -0.3898 -1.4418 3.4732
H 0.4937 -2.0866 3.2879
H -0.1998 -0.4313 3.0572
C -1.6527 -2.0621 2.8291
H -1.8273 -3.0499 3.3155
H -2.5197 -1.4119 3.0908
C -2.6367 -1.7057 -1.2856
H -1.6876 -1.2866 -0.9325
H -3.4550 -1.0226 -1.0308
H -2.5959 -1.8374 -2.3729
C -4.1410 -3.5709 -1.1160
H -4.1002 -3.7026 -2.2033
H -4.9592 -2.8877 -0.8612
H -4.3126 -4.5414 -0.6366
C -1.7688 -3.9252 -0.9842
H -0.8196 -3.5061 -0.6312
H -1.7280 -4.0569 -2.0715
H -1.9404 -4.8957 -0.5048
O 0.0000 0.0000 0.0000
H -0.7570 0.5860 0.0000
