985

C        -10.92697       -5.94384       -8.92321
C         -8.38816       -5.95076       -8.88476
C         -9.64852       -5.20205       -9.38172
H         -8.40425       -5.98019       -7.76979
H         -8.35271       -2.97760      -10.41789
C         -8.37295       -3.00761       -9.30297
C         -9.65348       -3.74924       -8.84895
H         -9.63069       -5.17419      -10.49672
C        -10.91083       -3.00011       -9.35195
C        -12.19333       -3.73877       -8.89718
C        -12.18797       -5.19798       -9.42416
H        -12.16753       -5.17379      -10.53921
H        -10.94513       -5.96986       -7.80827
H         -9.67406       -3.77714       -7.73405
H        -10.88914       -2.97373      -10.46685
H        -12.21357       -3.76305       -7.78215
C        -10.91330       -1.54695       -8.81979
C         -8.37665       -1.55582       -8.76667
C         -9.63056       -0.80569       -9.27072
C        -12.16510       -0.79577       -9.32776
H        -10.93815       -1.57354       -7.70494
H         -8.39942       -1.58569       -7.65183
H        -12.13800       -0.77068      -10.44290
H         -9.60614       -0.77771      -10.38578
C        -13.45604       -1.52963       -8.87924
C        -13.45437       -2.98847       -9.40013
C        -13.47087       -5.94087       -8.96772
C        -14.68910       -0.75759       -9.38777
C        -14.71884       -3.74136       -8.94540
C        -14.71335       -5.18080       -9.46888
H        -14.70945       -0.74822      -10.49979
H        -13.49082       -1.55035       -7.76562
H        -13.44120       -2.96768      -10.51423
H        -14.78783       -3.75128       -7.83542
H        -14.74127       -5.17068      -10.58064
H        -13.49875       -5.96137       -7.85395
C        -14.68184        0.68372       -8.86646
C        -13.40449        1.41044       -9.30046
C        -12.16136        0.66128       -8.79811
C        -10.88190        1.39246       -9.23963
C         -9.63345        0.64881       -8.73765
C         -8.35427        1.38407       -9.17725
H        -14.75649        0.68275       -7.75776
H        -12.18858        0.64861       -7.68503
H         -9.66001        0.63354       -7.62468
H        -13.38791        1.48954      -10.40993
H        -10.85472        1.46963      -10.35009
H         -8.32808        1.46512      -10.28740
C         -8.41561        5.85474       -9.32097
C         -9.68994        5.11213       -8.85901
C        -10.95174        5.86034       -9.35541
H         -8.40195        5.88399      -10.43602
C         -9.68272        3.65712       -9.39075
H         -9.70410        5.08510       -7.74383
C        -10.95232        2.92115       -8.93281
C        -12.21067        3.65922       -9.42122
C        -12.22536        5.11667       -8.89287
H         -9.67062        3.67141      -10.50402
H        -10.93665        5.88645      -10.47047
H        -12.23906        5.09220       -7.77747
H        -12.19708        3.67119      -10.53459
H        -10.96542        2.84509       -7.82204
C         -8.42341        2.91529       -8.90693
H         -8.43407        2.83611       -7.79644
C        -13.49472        5.85769       -9.38880
C        -13.47570        2.91759       -8.96470
C        -14.75013        5.09301       -8.92593
C        -14.73190        3.65136       -9.44605
H        -13.48839        5.87805      -10.50299
H        -14.81162        5.08440       -7.81545
H        -14.76547        3.65204      -10.55677
H        -13.50052        2.83921       -7.85532
C         -3.32814       -5.92466       -8.96986
C         -0.78932       -5.93158       -8.93141
C         -2.04969       -5.18287       -9.42837
H         -0.80541       -5.96101       -7.81644
H         -0.75388       -2.95842      -10.46454
C         -0.77412       -2.98843       -9.34962
C         -2.05465       -3.73006       -8.89560
H         -2.03186       -5.15502      -10.54337
C         -3.31199       -2.98093       -9.39860
C         -4.59450       -3.71959       -8.94383
C         -4.58914       -5.17880       -9.47081
H         -4.56869       -5.15461      -10.58586
H         -3.34630       -5.95068       -7.85492
H         -2.07522       -3.75796       -7.78070
H         -3.29030       -2.95455      -10.51350
H         -4.61474       -3.74387       -7.82880
C         -3.31446       -1.52777       -8.86644
C         -0.77782       -1.53664       -8.81332
C         -2.03172       -0.78651       -9.31737
C         -4.56627       -0.77659       -9.37441
H         -3.33931       -1.55437       -7.75159
H         -0.80059       -1.56651       -7.69848
H         -4.53916       -0.75150      -10.48954
H         -2.00731       -0.75853      -10.43242
C         -5.85721       -1.51045       -8.92589
C         -5.85553       -2.96929       -9.44678
C         -5.87204       -5.92169       -9.01437
C         -7.09027       -0.73842       -9.43442
C         -7.12001       -3.72218       -8.99205
C         -7.11452       -5.16163       -9.51553
H         -7.11062       -0.72904      -10.54644
H         -5.89199       -1.53117       -7.81226
H         -5.84237       -2.94850      -10.56088
H         -7.18899       -3.73211       -7.88207
H         -7.14244       -5.15150      -10.62729
H         -5.89992       -5.94219       -7.90060
C         -7.08300        0.70289       -8.91311
C         -5.80565        1.42962       -9.34711
C         -4.56253        0.68046       -8.84475
C         -3.28307        1.41164       -9.28628
C         -2.03461        0.66799       -8.78430
C         -0.75544        1.40325       -9.22390
H         -7.15766        0.70193       -7.80441
H         -4.58975        0.66779       -7.73168
H         -2.06117        0.65272       -7.67133
H         -5.78907        1.50872      -10.45658
H         -3.25589        1.48881      -10.39674
H         -0.72925        1.48430      -10.33405
C         -0.81678        5.87392       -9.36762
C         -2.09110        5.13131       -8.90566
C         -3.35291        5.87952       -9.40206
H         -0.80312        5.90317      -10.48267
C         -2.08389        3.67630       -9.43740
H         -2.10527        5.10428       -7.79048
C         -3.35349        2.94033       -8.97946
C         -4.61183        3.67840       -9.46787
C         -4.62653        5.13585       -8.93952
H         -2.07179        3.69059      -10.55067
H         -3.33782        5.90563      -10.51712
H         -4.64023        5.11138       -7.82412
H         -4.59825        3.69037      -10.58124
H         -3.36659        2.86427       -7.86869
C         -0.82458        2.93446       -8.95357
H         -0.83524        2.85529       -7.84309
C         -5.89588        5.87687       -9.43545
C         -5.87687        2.93677       -9.01135
C         -7.15130        5.11219       -8.97258
C         -7.13306        3.67054       -9.49270
H         -5.88955        5.89723      -10.54963
H         -7.21279        5.10358       -7.86210
H         -7.16663        3.67122      -10.60342
H         -5.90169        2.85839       -7.90197
C          4.27069       -5.90548       -9.01651
C          6.80951       -5.91240       -8.97805
C          5.54914       -5.16369       -9.47502
H          6.79342       -5.94183       -7.86309
H          6.84496       -2.93924      -10.51119
C          6.82471       -2.96925       -9.39627
C          5.54419       -3.71089       -8.94225
H          5.56698       -5.13584      -10.59002
C          4.28684       -2.96175       -9.44525
C          3.00434       -3.70041       -8.99048
C          3.00970       -5.15962       -9.51746
H          3.03014       -5.13543      -10.63251
H          4.25253       -5.93150       -7.90157
H          5.52361       -3.73878       -7.82735
H          4.30853       -2.93537      -10.56015
H          2.98409       -3.72469       -7.87545
C          4.28437       -1.50859       -8.91309
C          6.82101       -1.51746       -8.85997
C          5.56711       -0.76733       -9.36402
C          3.03257       -0.75741       -9.42106
H          4.25952       -1.53519       -7.79824
H          6.79824       -1.54733       -7.74513
H          3.05967       -0.73233      -10.53619
H          5.59152       -0.73935      -10.47907
C          1.74162       -1.49127       -8.97253
C          1.74330       -2.95011       -9.49343
C          1.72679       -5.90251       -9.06102
C          0.50857       -0.71924       -9.48107
C          0.47882       -3.70300       -9.03870
C          0.48431       -5.14245       -9.56218
H          0.48822       -0.70986      -10.59308
H          1.70684       -1.51199       -7.85891
H          1.75647       -2.92932      -10.60753
H          0.40984       -3.71293       -7.92872
H          0.45639       -5.13232      -10.67394
H          1.69891       -5.92301       -7.94725
C          0.51583        0.72207       -8.95976
C          1.79318        1.44880       -9.39375
C          3.03630        0.69964       -8.89140
C          4.31576        1.43082       -9.33293
C          5.56422        0.68717       -8.83095
C          6.84339        1.42243       -9.27055
H          0.44118        0.72111       -7.85105
H          3.00909        0.68696       -7.77833
H          5.53766        0.67190       -7.71798
H          1.80976        1.52790      -10.50323
H          4.34294        1.50799      -10.44339
H          6.86958        1.50348      -10.38070
C          6.78206        5.89309       -9.41427
C          5.50773        5.15048       -8.95231
C          4.24592        5.89870       -9.44871
H          6.79572        5.92235      -10.52932
C          5.51495        3.69548       -9.48405
H          5.49356        5.12346       -7.83713
C          4.24535        2.95951       -9.02611
C          2.98700        3.69758       -9.51452
C          2.97230        5.15503       -8.98616
H          5.52705        3.70976      -10.59732
H          4.26101        5.92480      -10.56377
H          2.95860        5.13056       -7.87077
H          3.00058        3.70955      -10.62789
H          4.23225        2.88345       -7.91533
C          6.77426        2.95364       -9.00022
H          6.76359        2.87447       -7.88974
C          1.70295        5.89605       -9.48209
C          1.72196        2.95595       -9.05800
C          0.44753        5.13137       -9.01923
C          0.46577        3.68972       -9.53934
H          1.70928        5.91641      -10.59628
H          0.38604        5.12276       -7.90875
H          0.43220        3.69039      -10.65006
H          1.69714        2.87757       -7.94862
C         11.86952       -5.88630       -9.06316
C         14.40834       -5.89322       -9.02470
C         13.14797       -5.14451       -9.52167
H         14.39225       -5.92265       -7.90974
H         14.44379       -2.92006      -10.55784
C         14.42355       -2.95007       -9.44292
C         13.14302       -3.69171       -8.98890
H         13.16581       -5.11666      -10.63667
C         11.88567       -2.94257       -9.49190
C         10.60317       -3.68123       -9.03713
C         10.60853       -5.14045       -9.56411
H         10.62897       -5.11626      -10.67915
H         11.85136       -5.91232       -7.94822
H         13.12244       -3.71961       -7.87400
H         11.90736       -2.91619      -10.60679
H         10.58293       -3.70551       -7.92210
C         11.88320       -1.48941       -8.95974
C         14.41985       -1.49828       -8.90662
C         13.16594       -0.74815       -9.41067
C         10.63140       -0.73823       -9.46771
H         11.85835       -1.51601       -7.84489
H         14.39707       -1.52815       -7.79178
H         10.65850       -0.71315      -10.58284
H         13.19036       -0.72017      -10.52572
C          9.34046       -1.47209       -9.01918
C          9.34213       -2.93093       -9.54008
C          9.32563       -5.88333       -9.10767
C          8.10740       -0.70006       -9.52772
C          8.07765       -3.68383       -9.08535
C          8.08314       -5.12327       -9.60883
H          8.08705       -0.69068      -10.63973
H          9.30567       -1.49281       -7.90556
H          9.35530       -2.91014      -10.65418
H          8.00867       -3.69375       -7.97536
H          8.05522       -5.11314      -10.72058
H          9.29774       -5.90383       -7.99390
C          8.11466        0.74125       -9.00641
C          9.39201        1.46798       -9.44040
C         10.63513        0.71882       -8.93805
C         11.91460        1.44999       -9.37958
C         13.16305        0.70635       -8.87760
C         14.44223        1.44161       -9.31720
H         10.60792        0.70614       -7.82498
H         13.13649        0.69108       -7.76463
H          9.40859        1.54708      -10.54988
H         11.94177        1.52717      -10.49004
H         14.46842        1.52266      -10.42735
C         14.38089        5.91227       -9.46092
C         13.10656        5.16966       -8.99896
C         11.84476        5.91788       -9.49536
H         14.39455        5.94153      -10.57597
C         13.11378        3.71466       -9.53070
H         13.09239        5.14264       -7.88378
C         11.84418        2.97869       -9.07276
C         10.58583        3.71676       -9.56117
C         10.57114        5.17421       -9.03281
H         13.12588        3.72894      -10.64397
H         11.85985        5.94398      -10.61042
H         10.55743        5.14974       -7.91742
H         10.59942        3.72873      -10.67453
H         11.83108        2.90263       -7.96198
C         14.37309        2.97282       -9.04687
H         14.36243        2.89365       -7.93639
C          9.30178        5.91523       -9.52874
C          9.32080        2.97513       -9.10465
C          8.04637        5.15055       -9.06588
C          8.06460        3.70890       -9.58599
H          9.30811        5.93558      -10.64293
H          7.98487        5.14194       -7.95540
H          8.03103        3.70957      -10.69671
H          9.29597        2.89675       -7.99527
C        -10.94080       -5.91665        8.68207
C         -8.40229       -5.92957        8.62793
C         -9.65769       -5.18148        9.13823
H         -8.42530       -5.95061        7.51290
H         -8.34993       -2.96807       10.18299
C         -8.37709       -2.98968        9.06802
C         -9.66225       -3.72472        8.61637
H         -9.63294       -5.16202       10.25327
C        -10.91459       -2.97626        9.13268
C        -12.20172       -3.70831        8.68031
C        -12.19681       -5.17144        9.19633
H        -12.16946       -5.15565       10.31138
H        -10.96587       -5.93427        7.56710
H         -9.68974       -3.74422        7.50144
H        -10.88599       -2.95828       10.24759
H        -12.22887       -3.72419        7.56528
C        -10.91666       -1.51915        8.61142
C         -8.38042       -1.53391        8.54262
C         -9.62931       -0.78447        9.05997
C        -12.16342       -0.76870        9.13269
H        -10.94842       -1.53734        7.49658
H         -8.41011       -1.55538        7.42775
H        -12.12941       -0.75203       10.24779
H         -9.59798       -0.76490       10.17503
C        -13.45894       -1.49598        8.68665
C        -13.45775       -2.95868        9.19661
C        -13.48436       -5.90771        8.74226
C        -14.68690       -0.72472        9.20852
C        -14.72689       -3.70501        8.74406
C        -14.72182       -5.14834        9.25673
H        -14.70040       -0.72362       10.32068
H        -13.50061       -1.50827        7.57314
H        -13.43769       -2.94626       10.31073
H        -14.80271       -3.70645        7.63448
H        -14.74289       -5.14647       10.36868
H        -13.51913       -5.91980        7.62856
C        -14.67920        0.72043        8.69796
C        -13.39738        1.44072        9.12950
C        -12.15926        0.69226        8.61392
C        -10.87527        1.41694        9.05301
C         -9.63180        0.67398        8.53781
C         -8.34810        1.40276        8.97501
H        -14.76066        0.72795        7.58976
H        -12.19334        0.68799        7.50097
H         -9.66523        0.66711        7.42494
H        -13.37379        1.51147       10.23941
H        -10.84108        1.48573       10.16383
H         -8.31489        1.47543       10.08555
C         -8.39727        5.87236        9.15250
C         -9.67628        5.13639        8.69286
C        -10.93312        5.88399        9.20260
H         -8.37669        5.89323       10.26763
C         -9.66947        3.67743        9.21366
H         -9.69736        5.11775        7.57762
C        -10.94371        2.94806        8.75806
C        -12.19717        3.68557        9.25971
C        -12.21143        5.14696        8.74236
H         -9.65050        3.68335       10.32691
H        -10.91112        5.90171       10.31771
H        -12.23204        5.13088        7.62692
H        -12.17672        3.68917       10.37303
H        -10.96382        2.88035        7.64685
C         -8.41503        2.93612        8.71656
H         -8.43271        2.86529        7.60560
C        -13.47584        5.88739        9.25162
C        -13.46685        2.95051        8.80546
C        -14.73600        5.12931        8.79079
C        -14.71821        3.68377        9.30000
H        -13.46262        5.89939       10.36587
H        -14.80433        5.12917        7.68068
H        -14.74496        3.67621       10.41088
H        -13.49868        2.88050        7.69570
C         -3.34180       -5.91665        8.68207
C         -0.80329       -5.92957        8.62793
C         -2.05869       -5.18148        9.13823
H         -0.82630       -5.95061        7.51290
H         -0.75093       -2.96807       10.18299
C         -0.77809       -2.98968        9.06802
C         -2.06325       -3.72472        8.61637
H         -2.03394       -5.16202       10.25327
C         -3.31559       -2.97626        9.13268
C         -4.60272       -3.70831        8.68031
C         -4.59781       -5.17144        9.19633
H         -4.57046       -5.15565       10.31138
H         -3.36687       -5.93427        7.56710
H         -2.09074       -3.74422        7.50144
H         -3.28699       -2.95828       10.24759
H         -4.62987       -3.72419        7.56528
C         -3.31766       -1.51915        8.61142
C         -0.78142       -1.53391        8.54262
C         -2.03031       -0.78447        9.05997
C         -4.56442       -0.76870        9.13269
H         -3.34942       -1.53734        7.49658
H         -0.81111       -1.55538        7.42775
H         -4.53041       -0.75203       10.24779
H         -1.99898       -0.76490       10.17503
C         -5.85994       -1.49598        8.68665
C         -5.85875       -2.95868        9.19661
C         -5.88536       -5.90771        8.74226
C         -7.08790       -0.72472        9.20852
C         -7.12789       -3.70501        8.74406
C         -7.12282       -5.14834        9.25673
H         -7.10140       -0.72362       10.32068
H         -5.90161       -1.50827        7.57314
H         -5.83869       -2.94626       10.31073
H         -7.20371       -3.70645        7.63448
H         -7.14389       -5.14647       10.36868
H         -5.92013       -5.91980        7.62856
C         -7.08020        0.72043        8.69796
C         -5.79838        1.44072        9.12950
C         -4.56026        0.69226        8.61392
C         -3.27627        1.41694        9.05301
C         -2.03280        0.67398        8.53781
C         -0.74910        1.40276        8.97501
H         -4.59434        0.68799        7.50097
H         -2.06623        0.66711        7.42494
H         -5.77479        1.51147       10.23941
H         -3.24208        1.48573       10.16383
H         -0.71589        1.47543       10.08555
C         -0.79827        5.87236        9.15250
C         -2.07728        5.13639        8.69286
C         -3.33412        5.88399        9.20260
H         -0.77769        5.89323       10.26763
C         -2.07047        3.67743        9.21366
H         -2.09836        5.11775        7.57762
C         -3.34471        2.94806        8.75806
C         -4.59817        3.68557        9.25971
C         -4.61243        5.14696        8.74236
H         -2.05150        3.68335       10.32691
H         -3.31212        5.90171       10.31771
H         -4.63304        5.13088        7.62692
H         -4.57772        3.68917       10.37303
H         -3.36482        2.88035        7.64685
C         -0.81603        2.93612        8.71656
H         -0.83371        2.86529        7.60560
C         -5.87684        5.88739        9.25162
C         -5.86785        2.95051        8.80546
C         -7.13700        5.12931        8.79079
C         -7.11921        3.68377        9.30000
H         -5.86362        5.89939       10.36587
H         -7.20533        5.12917        7.68068
H         -7.14596        3.67621       10.41088
H         -5.89968        2.88050        7.69570
C          4.25720       -5.91665        8.68207
C          6.79571       -5.92957        8.62793
C          5.54031       -5.18148        9.13823
H          6.77270       -5.95061        7.51290
H          6.84807       -2.96807       10.18299
C          6.82091       -2.98968        9.06802
C          5.53575       -3.72472        8.61637
H          5.56506       -5.16202       10.25327
C          4.28341       -2.97626        9.13268
C          2.99628       -3.70831        8.68031
C          3.00119       -5.17144        9.19633
H          3.02854       -5.15565       10.31138
H          4.23213       -5.93427        7.56710
H          5.50826       -3.74422        7.50144
H          4.31201       -2.95828       10.24759
H          2.96913       -3.72419        7.56528
C          4.28134       -1.51915        8.61142
C          6.81758       -1.53391        8.54262
C          5.56869       -0.78447        9.05997
C          3.03458       -0.76870        9.13269
H          4.24958       -1.53734        7.49658
H          6.78789       -1.55538        7.42775
H          3.06859       -0.75203       10.24779
H          5.60002       -0.76490       10.17503
C          1.73906       -1.49598        8.68665
C          1.74025       -2.95868        9.19661
C          1.71364       -5.90771        8.74226
C          0.51110       -0.72472        9.20852
C          0.47111       -3.70501        8.74406
C          0.47618       -5.14834        9.25673
H          0.49760       -0.72362       10.32068
H          1.69739       -1.50827        7.57314
H          1.76031       -2.94626       10.31073
H          0.39529       -3.70645        7.63448
H          0.45511       -5.14647       10.36868
H          1.67887       -5.91980        7.62856
C          0.51880        0.72043        8.69796
C          1.80062        1.44072        9.12950
C          3.03874        0.69226        8.61392
C          4.32273        1.41694        9.05301
C          5.56620        0.67398        8.53781
C          6.84990        1.40276        8.97501
H          0.43734        0.72795        7.58976
H          3.00466        0.68799        7.50097
H          5.53277        0.66711        7.42494
H          1.82421        1.51147       10.23941
H          4.35692        1.48573       10.16383
H          6.88311        1.47543       10.08555
C          6.80073        5.87236        9.15250
C          5.52172        5.13639        8.69286
C          4.26488        5.88399        9.20260
H          6.82131        5.89323       10.26763
C          5.52853        3.67743        9.21366
H          5.50064        5.11775        7.57762
C          4.25429        2.94806        8.75806
C          3.00083        3.68557        9.25971
C          2.98657        5.14696        8.74236
H          5.54750        3.68335       10.32691
H          4.28688        5.90171       10.31771
H          2.96596        5.13088        7.62692
H          3.02128        3.68917       10.37303
H          4.23418        2.88035        7.64685
C          6.78297        2.93612        8.71656
H          6.76529        2.86529        7.60560
C          1.72216        5.88739        9.25162
C          1.73115        2.95051        8.80546
C          0.46200        5.12931        8.79079
C          0.47979        3.68377        9.30000
H          1.73538        5.89939       10.36587
H          0.39367        5.12917        7.68068
H          0.45304        3.67621       10.41088
H          1.69932        2.88050        7.69570
C         11.85620       -5.91665        8.68207
C         14.39471       -5.92957        8.62793
C         13.13931       -5.18148        9.13823
H         14.37170       -5.95061        7.51290
H         14.44707       -2.96807       10.18299
C         14.41991       -2.98968        9.06802
C         13.13475       -3.72472        8.61637
H         13.16406       -5.16202       10.25327
C         11.88241       -2.97626        9.13268
C         10.59528       -3.70831        8.68031
C         10.60019       -5.17144        9.19633
H         10.62754       -5.15565       10.31138
H         11.83113       -5.93427        7.56710
H         13.10726       -3.74422        7.50144
H         11.91101       -2.95828       10.24759
H         10.56813       -3.72419        7.56528
C         11.88034       -1.51915        8.61142
C         14.41658       -1.53391        8.54262
C         13.16769       -0.78447        9.05997
C         10.63358       -0.76870        9.13269
H         11.84858       -1.53734        7.49658
H         14.38689       -1.55538        7.42775
H         10.66759       -0.75203       10.24779
H         13.19902       -0.76490       10.17503
C          9.33806       -1.49598        8.68665
C          9.33925       -2.95868        9.19661
C          9.31264       -5.90771        8.74226
C          8.11010       -0.72472        9.20852
C          8.07011       -3.70501        8.74406
C          8.07518       -5.14834        9.25673
H          8.09660       -0.72362       10.32068
H          9.29639       -1.50827        7.57314
H          9.35931       -2.94626       10.31073
H          7.99429       -3.70645        7.63448
H          8.05411       -5.14647       10.36868
H          9.27787       -5.91980        7.62856
C          8.11780        0.72043        8.69796
C          9.39962        1.44072        9.12950
C         10.63774        0.69226        8.61392
C         11.92173        1.41694        9.05301
C         13.16520        0.67398        8.53781
C         14.44890        1.40276        8.97501
H          8.03634        0.72795        7.58976
H         10.60366        0.68799        7.50097
H         13.13177        0.66711        7.42494
H          9.42321        1.51147       10.23941
H         11.95592        1.48573       10.16383
H         14.48211        1.47543       10.08555
C         14.39973        5.87236        9.15250
C         13.12072        5.13639        8.69286
C         11.86388        5.88399        9.20260
H         14.42031        5.89323       10.26763
C         13.12753        3.67743        9.21366
H         13.09964        5.11775        7.57762
C         11.85329        2.94806        8.75806
C         10.59983        3.68557        9.25971
C         10.58557        5.14696        8.74236
H         13.14650        3.68335       10.32691
H         11.88588        5.90171       10.31771
H         10.56496        5.13088        7.62692
H         10.62028        3.68917       10.37303
H         11.83318        2.88035        7.64685
C         14.38197        2.93612        8.71656
H         14.36429        2.86529        7.60560
C          9.32116        5.88739        9.25162
C          9.33015        2.95051        8.80546
C          8.06100        5.12931        8.79079
C          8.07879        3.68377        9.30000
H          9.33438        5.89939       10.36587
H          7.99267        5.12917        7.68068
H          8.05204        3.67621       10.41088
H          9.29832        2.88050        7.69570
N         -9.28913       -0.60155        2.79516
C         -9.34474       -0.42177        4.27967
H         -9.51928       -1.40957        4.76613
H        -10.21170        0.22842        4.54136
C         -8.08178        0.19852        4.92375
H         -7.19832       -0.44626        4.73847
H         -7.89179        1.20907        4.50774
C         -8.26238        0.33420        6.44130
H         -8.44580       -0.66550        6.89084
H         -9.13409        0.98779        6.66063
C         -7.02503        0.93951        7.09379
H         -6.13715        0.29315        6.92660
H         -6.82785        1.95692        6.69380
C        -10.56931       -1.21337        2.36180
H        -10.72587       -2.20316        2.84722
H        -11.43429       -0.56328        2.62441
H        -10.58988       -1.37222        1.25982
C         -8.18449       -1.50779        2.39925
H         -8.25710       -2.48226        2.93177
H         -8.20894       -1.71185        1.30502
H         -7.19052       -1.06194        2.61333
C         -9.13674        0.69798        2.09780
H         -9.18955        0.56636        0.99348
H         -9.93948        1.40836        2.39696
H         -8.15359        1.16681        2.31210
N          5.94674       -0.61685       -3.35252
C          5.88154       -0.42613       -4.83527
H          5.70646       -1.41070       -5.32804
H          5.01138        0.22381       -5.08676
C          7.13897        0.20214       -5.48243
H          8.02515       -0.44177       -5.30741
H          7.32902        1.21003       -5.06004
C          6.94870        0.34870       -6.99779
H          6.77963       -0.68891       -7.30763
H          6.07153        1.00331       -7.05505
C          8.18050        0.96199       -7.65331
H          9.07099        0.31664       -7.49642
H          8.37762        1.97688       -7.24693
C          4.67077       -1.23512       -2.91590
H          4.51368       -2.22165       -3.40775
H          3.80258       -0.58527       -3.16832
H          4.65738       -1.40225       -1.81504
C          7.05604       -1.52323       -2.97020
H          6.98257       -2.49388       -3.50954
H          7.03883       -1.73553       -1.87740
H          8.04756       -1.07329       -3.18703
C          6.10020        0.67781       -2.64640
H          6.05452        0.53781       -1.54279
H          5.29388        1.38838       -2.93530
H          7.08085        1.15071       -2.86321
O         -6.59954       -3.22862       -3.82154
H         -6.68828       -4.12091       -4.15877
H         -6.17809       -3.32733       -2.96690
O         -4.51603       -1.67026       -2.69415
H         -4.74541       -2.59593       -2.78514
H         -4.90636       -1.24195       -3.45701
O         -5.07930        1.02015        3.42854
H         -5.30868        0.09448        3.33755
H         -5.46963        1.44846        2.66568
O          7.36889       -0.06835        1.56014
H          7.40789       -1.02408        1.61333
H          6.96338        0.11644        0.71210
O          2.54360        2.00265       -3.94569
H          2.31422        1.07698       -4.03668
H          2.15327        2.43096       -4.70855
O          8.30397       -0.86119        4.83819
H          8.07459       -1.78686        4.74720
H          7.91364       -0.43288        4.07533
O         10.69811        0.68342       -4.09135
H         10.46873       -0.24225       -4.18234
H         10.30778        1.11173       -4.85421
O         10.18234       -0.53417        0.84040
H         10.51434       -1.04938        0.10414
H          9.66526        0.16587        0.43998
O          5.00548       -0.16143        4.19081
H          5.90942       -0.46533        4.28189
H          4.66286       -0.62774        3.42732
O          4.51922        0.49432        1.32708
H          4.50791       -0.40850        1.00683
H          4.09609        1.00733        0.63748
O         -7.02614        3.24649       -3.05411
H         -7.75261        2.62209       -3.04290
H         -7.21764        3.83660       -3.78409
O         -0.93153        2.38225       -3.73717
H         -1.68658        1.79954       -3.82717
H         -1.05359        3.05212       -4.41107
O         -2.36007        0.87297        4.91782
H         -3.15992        0.34701        4.88087
H         -2.44825        1.50865        4.20655
O          1.84456       -0.01447        4.41758
H          2.55581       -0.17323        3.79575
H          1.20063        0.50184        3.93122
O          1.16720        1.00767        1.08066
H          0.42989        0.41256        1.22197
H          0.93528        1.50815        0.29740
O         -3.08277        1.21099        1.68893
H         -3.05600        1.94582        1.07487
H         -2.90450        1.59820        2.54687
O        -11.11733        3.56919       -2.72350
H        -11.34671        2.64352       -2.81449
H        -11.50766        3.99750       -3.48636
O        -11.08407        3.54156        0.56326
H        -10.62023        3.05886       -0.12202
H        -11.64335        4.16204        0.09425
O        -12.32674        3.31537        2.87749
H        -13.13376        3.12503        3.35732
H        -12.61597        3.69082        2.04494
O        -12.75957        2.87020        5.62160
H        -12.08190        2.45155        5.08937
H        -13.34485        3.29171        4.99110
O         -2.80831       -2.85174       -5.78086
H         -3.59121       -3.39166       -5.66548
H         -2.07357       -3.46274       -5.71315
O         -5.11656       -3.95752       -5.46976
H         -5.70126       -4.56065       -5.00920
H         -4.56730       -4.51676       -6.02052
O         -1.55468       -1.62545        0.15409
H         -1.78406       -2.55112        0.06310
H         -1.94501       -1.19714       -0.60877
O         -7.55981       -3.85341        2.71032
H         -7.78919       -4.77908        2.61933
H         -7.95014       -3.42510        1.94746
O         12.76402       -0.83585        5.46582
H         12.53464       -1.76152        5.37483
H         12.37369       -0.40754        4.70296
O         12.30110       -1.14709       -2.11809
H         12.07172       -2.07276       -2.20908
H         11.91077       -0.71878       -2.88095
O          2.03000        4.18787        4.62994
H          1.18497        3.79293        4.41150
H          2.33706        4.58391        3.81347
O          1.04236       -3.75853        5.10566
H          1.57916       -3.57417        4.33390
H          0.15220       -3.86660        4.76846
O          7.52632        3.16578        1.31139
H          8.19540        2.58823        0.94188
H          6.85498        3.23436        0.63141
O          4.27531        0.49102       -0.72125
H          4.04593       -0.43465       -0.81224
H          3.88498        0.91933       -1.48411
O         11.19787        4.03035       -5.54708
H         10.96849        3.10468       -5.63807
H         10.80754        4.45866       -6.30994
O         -9.16629       -4.23119       -2.28639
H        -10.06167       -3.99533       -2.53218
H         -8.60587       -3.72530       -2.87611
O         11.88038        2.57562        2.90146
H         11.65100        1.64995        2.81047
H         11.49005        3.00393        2.13860
O          3.90091        1.31789        5.91417
H          4.76027        0.89650        5.95528
H          3.27055        0.59651        5.91893
O         -9.85702        1.42362       -5.99826
H         -9.33172        0.69212       -5.67159
H        -10.75298        1.08688       -6.03868
O          3.74809        0.91225       -5.54720
H          3.84461        0.50997       -6.41127
H          3.03214        1.54122       -5.64511
O        -12.59713        1.24336       -4.01069
H        -12.82651        0.31769       -4.10168
H        -12.98746        1.67167       -4.77355
O          0.58085        3.06631        2.66518
H          1.02471        2.93069        3.50324
H          1.28131        3.26713        2.04326
O          0.73842        3.83768        0.05204
H          1.41721        3.39260        0.56087
H          1.09525        3.90177       -0.83472
O          3.58666        4.35484        3.13090
H          4.02412        3.91739        3.86235
H          4.08127        4.09257        2.35350
O          9.59776        1.11030        4.12695
H          9.36838        0.18463        4.03596
H          9.20743        1.53861        3.36409
O          1.66128       -2.38239        1.90089
H          1.43190       -3.30806        1.80990
H          1.27095       -1.95408        1.13803
O         -3.32625       -2.85982        3.04689
H         -3.55563       -3.78549        2.95590
H         -3.71658       -2.43151        2.28403
O         -5.39367        0.05103        4.91797
H         -5.95415        0.58311        4.35183
H         -4.68958        0.63937        5.19343
O         -5.02880       -3.19076       -0.13427
H         -5.46242       -3.63478       -0.86405
H         -5.63893       -2.50315        0.13537
O         -9.03639       -3.87447        0.81255
H         -9.26577       -4.80014        0.72156
H         -9.42672       -3.44616        0.04969
O        -11.12251       -3.19211        5.10213
H        -11.79125       -3.39093        4.44561
H        -11.56122       -2.62766        5.73985
O         12.73136        0.84564       -5.42292
H         12.88357        0.50989       -4.53869
H         12.64100        0.06588       -5.97207
O         -2.26218        1.20808       -1.80417
H         -2.49156        0.28241       -1.89516
H         -2.65251        1.63639       -2.56703
O         -7.14768        1.34765       -6.52818
H         -6.88442        1.61754       -5.64749
H         -7.45558        0.44586       -6.42949
O         10.42229        3.78852        0.28840
H          9.77037        3.40714       -0.30093
H         10.09909        3.60076        1.17047
O         -1.48956       -1.34094       -3.74784
H         -1.95769       -1.92804       -3.15293
H         -1.21864       -1.89511       -4.48082
O        -11.45013       -1.08925       -1.13076
H        -11.72282       -1.63567       -0.39263
H        -11.69741       -1.58604       -1.91166
O         -7.40532        0.26241       -0.86942
H         -7.19419        0.79227       -1.63912
H         -8.14116        0.71261       -0.45274
O         -0.54979        1.04059        5.15665
H          0.31006        1.30001        5.48998
H         -1.13873        1.75279        5.40899
O          8.24002        1.58543        5.89181
H          7.95650        2.46208        5.62940
H          9.19704        1.62732        5.90294
O         -4.82156       -4.50657        2.53757
H         -5.76967       -4.60573        2.63259
H         -4.70022       -4.08954        1.68369
O          4.51390       -2.96391        0.67893
H          4.28452       -3.88958        0.58794
H          4.12357       -2.53560       -0.08393
O          7.40154       -3.36806        3.52289
H          8.24844       -3.35936        3.97060
H          6.92240       -2.62129        3.88419
O          9.95122        1.20254       -1.35754
H         10.31010        1.37030       -2.22979
H          9.00398        1.30768       -1.45473
O         -0.80123        0.53206        3.18054
H         -1.71646        0.53477        3.46358
H         -0.81055        0.92621        2.30743
O         -0.73159        4.30935       -4.38671
H         -1.25696        4.65355       -5.11008
H         -1.14315        4.65641       -3.59429
O         -0.13055        3.68521        5.74524
H         -0.28082        2.75606        5.56671
H         -0.43252        4.14086        4.95850
O         12.54437        0.74958        0.54896
H         12.31499       -0.17609        0.45797
H         12.15404        1.17789       -0.21390
O          6.19080        1.28716        2.64819
H          6.51715        1.96680        3.23925
H          6.60349        0.47701        2.95003
O         -1.36526       -2.39529        5.28298
H         -2.09423       -2.96470        5.53225
H         -1.77144       -1.55849        5.05376
O         -4.67503        3.45792        4.47589
H         -3.84793        3.01719        4.27736
H         -5.15512        3.46929        3.64695
O         -6.94360        1.95158        3.33712
H         -6.37421        2.61641        3.72643
H         -7.66894        2.44267        2.94921
O          5.82013        3.07728       -5.65736
H          5.97697        2.13411       -5.71742
H          4.87475        3.17933       -5.77396
O          5.91776        2.48951        4.64847
H          6.82401        2.56305        4.34669
H          5.69168        1.56594        4.53155
O         -3.48777       -0.44378       -3.85801
H         -3.60786       -0.21454       -2.93563
H         -3.25821        0.37973       -4.29030
O         -3.94167        4.06452       -4.89685
H         -4.11028        4.03341       -3.95432
H         -3.13529        3.56245       -5.02117
O         -2.87672        3.91478       -2.20767
H         -3.65962        3.37485       -2.09230
H         -2.14197        3.30377       -2.13997
O          2.97702       -3.88699       -5.96851
H          2.19412       -4.42691       -5.85314
H          3.71176       -4.49799       -5.90081
O          2.27207       -4.76161        5.74547
H          1.48917       -5.30153        5.86084
H          3.00682       -5.37261        5.81317
O          4.97309       -3.63929        3.01226
H          4.19019       -4.17921        3.12764
H          5.70784       -4.25029        3.07997
O         -1.05089       -3.17286        3.61624
H         -1.83379       -3.71279        3.73161
H         -0.31614       -3.78387        3.68394
O         -2.73922       -4.32688        5.58266
H         -3.54771       -4.03512        6.00572
H         -2.96383       -4.41974        4.65601
O         -6.29432       -3.73789        5.43847
H         -5.43336       -3.53133        5.07262
H         -6.70647       -4.31333        4.79289
O         -7.30201        3.61193        5.20569
H         -7.39790        3.05472        4.43233
H         -6.37869        3.53942        5.45059
O          0.93427       -0.74136       -3.96795
H          1.53545       -0.58298       -3.23907
H          1.48896       -1.05552       -4.68306
O          2.54338       -0.41516        1.05529
H          3.03505        0.13539        0.44462
H          3.01996       -1.24587        1.07904
O          8.95610       -3.98378       -0.24396
H          8.17320       -4.52370       -0.12859
H          9.69085       -4.59478       -0.17626
O          7.43070       -4.41028        2.56214
H          7.74413       -4.36044        1.65824
H          8.06006       -4.97535        3.01199
O         11.02413       -4.49153        1.98651
H         10.44784       -3.72692        1.95452
H         11.80716       -4.19260        2.45047
O          8.60681       -3.39628       -1.45033
H          8.00475       -2.87665       -1.98444
H          8.45799       -4.30332       -1.72030
O          5.40860       -4.70170       -4.02830
H          4.84542       -4.24860       -4.65702
H          4.95732       -4.61980       -3.18724
O          8.27858        3.57051        4.30599
H          7.52441        3.69363        3.72821
H          7.99483        3.90320        5.15838
O          8.06831       -3.33799        5.69396
H          8.16893       -4.18849        6.12325
H          8.96174       -3.01406        5.57302
O          8.32021       -3.90551       -5.66587
H          7.58486       -4.42358       -5.99544
H          8.12334       -3.00394       -5.92312
O        -10.09479       -1.39521       -4.81323
H        -10.68784       -1.99409       -4.35783
H        -10.04389       -1.73035       -5.70925
O          0.54455       -1.48703       -6.43817
H         -0.23835       -2.02695       -6.32279
H          1.27930       -2.09803       -6.37047
O          2.79736        4.66866       -2.06590
H          2.40361        3.85454       -1.74980
H          2.81007        4.58381       -3.02005
O          3.98163        4.44589       -4.43277
H          3.38680        3.70562       -4.30655
H          4.74229        4.07850       -4.88463
O          7.72918        4.59203       -5.65653
H          7.44311        4.03476       -4.93170
H          8.06450        3.98567       -6.31808
O          4.47282        2.17590        1.29565
H          4.96988        2.33799        0.49290
H          5.08372        2.36704        2.00841
O          2.59065       -3.41702        1.03860
H          2.85028       -3.17095        1.92731
H          3.14659       -2.89027        0.46307
O          9.10899        4.15215       -3.41838
H          9.73892        3.86202       -4.07926
H          9.60466        4.73588       -2.84277
O          9.58289       -2.54402       -3.21362
H          9.41402       -2.04794       -4.01558
H         10.36867       -2.14615       -2.83678
O         -3.97912       -0.13822       -0.61277
H         -4.16359       -0.07781        0.32535
H         -3.68461        0.73794       -0.86448
O         -5.36846        3.30319        1.59366
H         -6.15136        2.76326        1.70903
H         -4.63371        2.69218        1.66136
O         -0.02466        1.28700       -1.90674
H          0.09854        1.82242       -2.69153
H          0.29962        1.82687       -1.18484
O         -5.41078        1.74784       -1.26367
H         -5.52487        1.50051       -2.18213
H         -4.69870        1.19243       -0.94394
O         -6.60204       -1.37870       -5.78446
H         -7.38494       -1.91862       -5.66908
H         -5.86729       -1.98970       -5.71675
O         -6.34214        1.55948       -3.59542
H         -6.46254        1.10615       -4.43074
H         -6.10968        0.87112       -2.97101
O          3.86158        3.75658        5.77770
H          3.00116        3.34619        5.87268
H          4.47588        3.02686        5.68881
O         11.24273        2.00241        5.77620
H         11.43091        2.66327        6.44373
H         10.60256        2.41342        5.19394
O          3.49503       -3.03022        4.40985
H          3.04848       -2.85497        3.58061
H          4.42439       -3.08576        4.18408
O         -9.79403        1.91467        3.69576
H         -9.76471        2.81132        3.35973
H         -9.57563        1.99103        4.62541
O         -0.79017        0.54242        0.05179
H         -1.56543        0.50268        0.61318
H         -1.09784        0.92932       -0.76882
O          2.29781        0.85689       -1.04181
H          1.55933        0.79461       -0.43475
H          1.91741        0.71825       -1.91005
O          0.70993       -3.08963       -2.26791
H          0.38868       -3.56556       -1.50107
H          0.74795       -3.74318       -2.96734
O         -1.54725        3.39362        0.14064
H         -1.27760        2.99823       -0.68925
H         -1.66709        2.65558        0.73955
O         -2.26474       -1.63044        1.86293
H         -2.98385       -2.06870        1.40624
H         -1.84962       -2.31621        2.38748
O         -0.36047       -1.04884       -1.74018
H         -0.71193       -0.15811       -1.76887
H         -0.98720       -1.57872       -2.23434
O          7.24725        2.33997       -0.76389
H          6.46435        1.80005       -0.64851
H          7.98200        1.72897       -0.69618
O        -11.83796       -0.57896       -6.42554
H        -11.48430       -0.77998       -5.55820
H        -12.77960       -0.46684       -6.28946
O        -12.68573        1.18517       -0.94471
H        -12.85381        1.24324       -0.00336
H        -12.69538        2.09159       -1.25468
O         -8.83183       -4.16061        5.21846
H         -8.23066       -4.00223        5.94734
H         -8.27715       -4.47477        4.50335
O         -9.62371       -0.33646       -2.18166
H         -9.63370        0.58883       -1.93366
O          9.78248       -2.20368        2.95650
H          9.77250       -1.27839        3.20450
