1039

C        -10.85639       -5.95897      -10.11339
C         -8.31788       -5.97189      -10.05925
C         -9.57328       -5.22380      -10.56955
H         -8.34089       -5.99293       -8.94422
H         -8.26552       -3.01039      -11.61431
C         -8.29268       -3.03200      -10.49934
C         -9.57784       -3.76704      -10.04769
H         -9.54853       -5.20434      -11.68459
C        -10.83018       -3.01858      -10.56400
C        -12.11731       -3.75063      -10.11163
C        -12.11240       -5.21376      -10.62765
H        -12.08505       -5.19797      -11.74270
H        -10.88146       -5.97659       -8.99842
H         -9.60533       -3.78654       -8.93276
H        -10.80158       -3.00060      -11.67891
H        -12.14446       -3.76651       -8.99660
C        -10.83225       -1.56147      -10.04274
C         -8.29601       -1.57623       -9.97394
C         -9.54490       -0.82679      -10.49129
C        -12.07901       -0.81102      -10.56401
H        -10.86401       -1.57966       -8.92790
H         -8.32570       -1.59770       -8.85907
H        -12.04500       -0.79435      -11.67911
H         -9.51357       -0.80722      -11.60635
C        -13.37453       -1.53830      -10.11797
C        -13.37334       -3.00100      -10.62793
C        -13.39995       -5.95003      -10.17358
C        -14.60249       -0.76704      -10.63984
C        -14.64248       -3.74733      -10.17538
C        -14.63741       -5.19066      -10.68805
H        -14.61599       -0.76594      -11.75200
H        -13.41620       -1.55059       -9.00446
H        -13.35328       -2.98858      -11.74205
H        -14.71830       -3.74877       -9.06580
H        -14.65848       -5.18879      -11.80000
H        -13.43472       -5.96212       -9.05988
C        -14.59479        0.67811      -10.12928
C        -13.31297        1.39840      -10.56082
C        -12.07485        0.64994      -10.04524
C        -10.79086        1.37462      -10.48433
C         -9.54739        0.63166       -9.96913
C         -8.26369        1.36044      -10.40633
H        -14.67625        0.68563       -9.02108
H        -12.10893        0.64567       -8.93229
H         -9.58082        0.62479       -8.85626
H        -13.28938        1.46915      -11.67073
H        -10.75667        1.44341      -11.59515
H         -8.23048        1.43311      -11.51687
C         -8.31286        5.83004      -10.58382
C         -9.59187        5.09407      -10.12418
C        -10.84871        5.84167      -10.63392
H         -8.29228        5.85091      -11.69895
C         -9.58506        3.63511      -10.64498
H         -9.61295        5.07543       -9.00894
C        -10.85930        2.90574      -10.18938
C        -12.11276        3.64325      -10.69103
C        -12.12702        5.10464      -10.17368
H         -9.56609        3.64103      -11.75823
H        -10.82671        5.85939      -11.74903
H        -12.14763        5.08856       -9.05824
H        -12.09231        3.64685      -11.80435
H        -10.87941        2.83803       -9.07817
C         -8.33062        2.89380      -10.14788
H         -8.34830        2.82297       -9.03692
C        -13.39143        5.84507      -10.68294
C        -13.38244        2.90819      -10.23678
C        -14.65159        5.08699      -10.22211
C        -14.63380        3.64145      -10.73132
H        -13.37821        5.85707      -11.79719
H        -14.71992        5.08685       -9.11200
H        -14.66055        3.63389      -11.84220
H        -13.41427        2.83818       -9.12702
C         -3.25739       -5.95897      -10.11339
C         -0.71888       -5.97189      -10.05925
C         -1.97428       -5.22380      -10.56955
H         -0.74189       -5.99293       -8.94422
H         -0.66652       -3.01039      -11.61431
C         -0.69368       -3.03200      -10.49934
C         -1.97884       -3.76704      -10.04769
H         -1.94953       -5.20434      -11.68459
C         -3.23118       -3.01858      -10.56400
C         -4.51831       -3.75063      -10.11163
C         -4.51340       -5.21376      -10.62765
H         -4.48605       -5.19797      -11.74270
H         -3.28246       -5.97659       -8.99842
H         -2.00633       -3.78654       -8.93276
H         -3.20258       -3.00060      -11.67891
H         -4.54546       -3.76651       -8.99660
C         -3.23325       -1.56147      -10.04274
C         -0.69701       -1.57623       -9.97394
C         -1.94590       -0.82679      -10.49129
C         -4.48001       -0.81102      -10.56401
H         -3.26501       -1.57966       -8.92790
H         -0.72670       -1.59770       -8.85907
H         -4.44600       -0.79435      -11.67911
H         -1.91457       -0.80722      -11.60635
C         -5.77553       -1.53830      -10.11797
C         -5.77434       -3.00100      -10.62793
C         -5.80095       -5.95003      -10.17358
C         -7.00349       -0.76704      -10.63984
C         -7.04348       -3.74733      -10.17538
C         -7.03841       -5.19066      -10.68805
H         -7.01699       -0.76594      -11.75200
H         -5.81720       -1.55059       -9.00446
H         -5.75428       -2.98858      -11.74205
H         -7.11930       -3.74877       -9.06580
H         -7.05948       -5.18879      -11.80000
H         -5.83572       -5.96212       -9.05988
C         -6.99579        0.67811      -10.12928
C         -5.71397        1.39840      -10.56082
C         -4.47585        0.64994      -10.04524
C         -3.19186        1.37462      -10.48433
C         -1.94839        0.63166       -9.96913
C         -0.66469        1.36044      -10.40633
H         -7.07725        0.68563       -9.02108
H         -4.50993        0.64567       -8.93229
H         -1.98182        0.62479       -8.85626
H         -5.69038        1.46915      -11.67073
H         -3.15767        1.44341      -11.59515
H         -0.63148        1.43311      -11.51687
C         -0.71386        5.83004      -10.58382
C         -1.99287        5.09407      -10.12418
C         -3.24971        5.84167      -10.63392
H         -0.69328        5.85091      -11.69895
C         -1.98606        3.63511      -10.64498
H         -2.01395        5.07543       -9.00894
C         -3.26030        2.90574      -10.18938
C         -4.51376        3.64325      -10.69103
C         -4.52802        5.10464      -10.17368
H         -1.96709        3.64103      -11.75823
H         -3.22771        5.85939      -11.74903
H         -4.54863        5.08856       -9.05824
H         -4.49331        3.64685      -11.80435
H         -3.28041        2.83803       -9.07817
C         -0.73162        2.89380      -10.14788
H         -0.74930        2.82297       -9.03692
C         -5.79243        5.84507      -10.68294
C         -5.78344        2.90819      -10.23678
C         -7.05259        5.08699      -10.22211
C         -7.03480        3.64145      -10.73132
H         -5.77921        5.85707      -11.79719
H         -7.12092        5.08685       -9.11200
H         -7.06155        3.63389      -11.84220
H         -5.81527        2.83818       -9.12702
C          4.34161       -5.95897      -10.11339
C          6.88012       -5.97189      -10.05925
C          5.62472       -5.22380      -10.56955
H          6.85711       -5.99293       -8.94422
H          6.93248       -3.01039      -11.61431
C          6.90532       -3.03200      -10.49934
C          5.62016       -3.76704      -10.04769
H          5.64947       -5.20434      -11.68459
C          4.36782       -3.01858      -10.56400
C          3.08069       -3.75063      -10.11163
C          3.08560       -5.21376      -10.62765
H          3.11295       -5.19797      -11.74270
H          4.31654       -5.97659       -8.99842
H          5.59267       -3.78654       -8.93276
H          4.39642       -3.00060      -11.67891
H          3.05354       -3.76651       -8.99660
C          4.36575       -1.56147      -10.04274
C          6.90199       -1.57623       -9.97394
C          5.65310       -0.82679      -10.49129
C          3.11899       -0.81102      -10.56401
H          4.33399       -1.57966       -8.92790
H          6.87230       -1.59770       -8.85907
H          3.15300       -0.79435      -11.67911
H          5.68443       -0.80722      -11.60635
C          1.82347       -1.53830      -10.11797
C          1.82466       -3.00100      -10.62793
C          1.79805       -5.95003      -10.17358
C          0.59551       -0.76704      -10.63984
C          0.55552       -3.74733      -10.17538
C          0.56059       -5.19066      -10.68805
H          0.58201       -0.76594      -11.75200
H          1.78180       -1.55059       -9.00446
H          1.84472       -2.98858      -11.74205
H          0.47970       -3.74877       -9.06580
H          0.53952       -5.18879      -11.80000
H          1.76328       -5.96212       -9.05988
C          0.60321        0.67811      -10.12928
C          1.88503        1.39840      -10.56082
C          3.12315        0.64994      -10.04524
C          4.40714        1.37462      -10.48433
C          5.65061        0.63166       -9.96913
C          6.93431        1.36044      -10.40633
H          0.52175        0.68563       -9.02108
H          3.08907        0.64567       -8.93229
H          5.61718        0.62479       -8.85626
H          1.90862        1.46915      -11.67073
H          4.44133        1.44341      -11.59515
H          6.96752        1.43311      -11.51687
C          6.88514        5.83004      -10.58382
C          5.60613        5.09407      -10.12418
C          4.34929        5.84167      -10.63392
H          6.90572        5.85091      -11.69895
C          5.61294        3.63511      -10.64498
H          5.58505        5.07543       -9.00894
C          4.33870        2.90574      -10.18938
C          3.08524        3.64325      -10.69103
C          3.07098        5.10464      -10.17368
H          5.63191        3.64103      -11.75823
H          4.37129        5.85939      -11.74903
H          3.05037        5.08856       -9.05824
H          3.10569        3.64685      -11.80435
H          4.31859        2.83803       -9.07817
C          6.86738        2.89380      -10.14788
H          6.84970        2.82297       -9.03692
C          1.80657        5.84507      -10.68294
C          1.81556        2.90819      -10.23678
C          0.54641        5.08699      -10.22211
C          0.56420        3.64145      -10.73132
H          1.81979        5.85707      -11.79719
H          0.47808        5.08685       -9.11200
H          0.53745        3.63389      -11.84220
H          1.78373        2.83818       -9.12702
C         11.94061       -5.95897      -10.11339
C         14.47912       -5.97189      -10.05925
C         13.22372       -5.22380      -10.56955
H         14.45611       -5.99293       -8.94422
H         14.53148       -3.01039      -11.61431
C         14.50432       -3.03200      -10.49934
C         13.21916       -3.76704      -10.04769
H         13.24847       -5.20434      -11.68459
C         11.96682       -3.01858      -10.56400
C         10.67969       -3.75063      -10.11163
C         10.68460       -5.21376      -10.62765
H         10.71195       -5.19797      -11.74270
H         11.91554       -5.97659       -8.99842
H         13.19167       -3.78654       -8.93276
H         11.99542       -3.00060      -11.67891
H         10.65254       -3.76651       -8.99660
C         11.96475       -1.56147      -10.04274
C         14.50099       -1.57623       -9.97394
C         13.25210       -0.82679      -10.49129
C         10.71799       -0.81102      -10.56401
H         11.93299       -1.57966       -8.92790
H         14.47130       -1.59770       -8.85907
H         10.75200       -0.79435      -11.67911
H         13.28343       -0.80722      -11.60635
C          9.42247       -1.53830      -10.11797
C          9.42366       -3.00100      -10.62793
C          9.39705       -5.95003      -10.17358
C          8.19451       -0.76704      -10.63984
C          8.15452       -3.74733      -10.17538
C          8.15959       -5.19066      -10.68805
H          8.18101       -0.76594      -11.75200
H          9.38080       -1.55059       -9.00446
H          9.44372       -2.98858      -11.74205
H          8.07870       -3.74877       -9.06580
H          8.13852       -5.18879      -11.80000
H          9.36228       -5.96212       -9.05988
C          8.20221        0.67811      -10.12928
C          9.48403        1.39840      -10.56082
C         10.72215        0.64994      -10.04524
C         12.00614        1.37462      -10.48433
C         13.24961        0.63166       -9.96913
C         14.53331        1.36044      -10.40633
H         10.68807        0.64567       -8.93229
H         13.21618        0.62479       -8.85626
H          9.50762        1.46915      -11.67073
H         12.04033        1.44341      -11.59515
H         14.56652        1.43311      -11.51687
C         14.48414        5.83004      -10.58382
C         13.20513        5.09407      -10.12418
C         11.94829        5.84167      -10.63392
H         14.50472        5.85091      -11.69895
C         13.21194        3.63511      -10.64498
H         13.18405        5.07543       -9.00894
C         11.93770        2.90574      -10.18938
C         10.68424        3.64325      -10.69103
C         10.66998        5.10464      -10.17368
H         13.23091        3.64103      -11.75823
H         11.97029        5.85939      -11.74903
H         10.64937        5.08856       -9.05824
H         10.70469        3.64685      -11.80435
H         11.91759        2.83803       -9.07817
C         14.46638        2.89380      -10.14788
H         14.44870        2.82297       -9.03692
C          9.40557        5.84507      -10.68294
C          9.41456        2.90819      -10.23678
C          8.14541        5.08699      -10.22211
C          8.16320        3.64145      -10.73132
H          9.41879        5.85707      -11.79719
H          8.07708        5.08685       -9.11200
H          8.13645        3.63389      -11.84220
H          9.38273        2.83818       -9.12702
C        -10.85639       -5.95897        9.51739
C         -8.31788       -5.97189        9.46325
C         -9.57328       -5.22380        9.97355
H         -8.34089       -5.99293        8.34822
H         -8.26552       -3.01039       11.01831
C         -8.29268       -3.03200        9.90334
C         -9.57784       -3.76704        9.45169
H         -9.54853       -5.20434       11.08859
C        -10.83018       -3.01858        9.96800
C        -12.11731       -3.75063        9.51563
C        -12.11240       -5.21376       10.03165
H        -12.08505       -5.19797       11.14670
H        -10.88146       -5.97659        8.40242
H         -9.60533       -3.78654        8.33676
H        -10.80158       -3.00060       11.08291
H        -12.14446       -3.76651        8.40060
C        -10.83225       -1.56147        9.44674
C         -8.29601       -1.57623        9.37794
C         -9.54490       -0.82679        9.89529
C        -12.07901       -0.81102        9.96801
H        -10.86401       -1.57966        8.33190
H         -8.32570       -1.59770        8.26307
H        -12.04500       -0.79435       11.08311
H         -9.51357       -0.80722       11.01035
C        -13.37453       -1.53830        9.52197
C        -13.37334       -3.00100       10.03193
C        -13.39995       -5.95003        9.57758
C        -14.60249       -0.76704       10.04384
C        -14.64248       -3.74733        9.57938
C        -14.63741       -5.19066       10.09205
H        -14.61599       -0.76594       11.15600
H        -13.41620       -1.55059        8.40846
H        -13.35328       -2.98858       11.14605
H        -14.71830       -3.74877        8.46980
H        -14.65848       -5.18879       11.20400
H        -13.43472       -5.96212        8.46388
C        -14.59479        0.67811        9.53328
C        -13.31297        1.39840        9.96482
C        -12.07485        0.64994        9.44924
C        -10.79086        1.37462        9.88833
C         -9.54739        0.63166        9.37313
C         -8.26369        1.36044        9.81033
H        -14.67625        0.68563        8.42508
H        -12.10893        0.64567        8.33629
H         -9.58082        0.62479        8.26026
H        -13.28938        1.46915       11.07473
H        -10.75667        1.44341       10.99915
H         -8.23048        1.43311       10.92087
C         -8.31286        5.83004        9.98782
C         -9.59187        5.09407        9.52818
C        -10.84871        5.84167       10.03792
H         -8.29228        5.85091       11.10295
C         -9.58506        3.63511       10.04898
H         -9.61295        5.07543        8.41294
C        -10.85930        2.90574        9.59338
C        -12.11276        3.64325       10.09503
C        -12.12702        5.10464        9.57768
H         -9.56609        3.64103       11.16223
H        -10.82671        5.85939       11.15303
H        -12.14763        5.08856        8.46224
H        -12.09231        3.64685       11.20835
H        -10.87941        2.83803        8.48217
C         -8.33062        2.89380        9.55188
H         -8.34830        2.82297        8.44092
C        -13.39143        5.84507       10.08694
C        -13.38244        2.90819        9.64078
C        -14.65159        5.08699        9.62611
C        -14.63380        3.64145       10.13532
H        -13.37821        5.85707       11.20119
H        -14.71992        5.08685        8.51600
H        -14.66055        3.63389       11.24620
H        -13.41427        2.83818        8.53102
C         -3.25739       -5.95897        9.51739
C         -0.71888       -5.97189        9.46325
C         -1.97428       -5.22380        9.97355
H         -0.74189       -5.99293        8.34822
H         -0.66652       -3.01039       11.01831
C         -0.69368       -3.03200        9.90334
C         -1.97884       -3.76704        9.45169
H         -1.94953       -5.20434       11.08859
C         -3.23118       -3.01858        9.96800
C         -4.51831       -3.75063        9.51563
C         -4.51340       -5.21376       10.03165
H         -4.48605       -5.19797       11.14670
H         -3.28246       -5.97659        8.40242
H         -2.00633       -3.78654        8.33676
H         -3.20258       -3.00060       11.08291
H         -4.54546       -3.76651        8.40060
C         -3.23325       -1.56147        9.44674
C         -0.69701       -1.57623        9.37794
C         -1.94590       -0.82679        9.89529
C         -4.48001       -0.81102        9.96801
H         -3.26501       -1.57966        8.33190
H         -0.72670       -1.59770        8.26307
H         -4.44600       -0.79435       11.08311
H         -1.91457       -0.80722       11.01035
C         -5.77553       -1.53830        9.52197
C         -5.77434       -3.00100       10.03193
C         -5.80095       -5.95003        9.57758
C         -7.00349       -0.76704       10.04384
C         -7.04348       -3.74733        9.57938
C         -7.03841       -5.19066       10.09205
H         -7.01699       -0.76594       11.15600
H         -5.81720       -1.55059        8.40846
H         -5.75428       -2.98858       11.14605
H         -7.11930       -3.74877        8.46980
H         -7.05948       -5.18879       11.20400
H         -5.83572       -5.96212        8.46388
C         -6.99579        0.67811        9.53328
C         -5.71397        1.39840        9.96482
C         -4.47585        0.64994        9.44924
C         -3.19186        1.37462        9.88833
C         -1.94839        0.63166        9.37313
C         -0.66469        1.36044        9.81033
H         -4.50993        0.64567        8.33629
H         -1.98182        0.62479        8.26026
H         -5.69038        1.46915       11.07473
H         -3.15767        1.44341       10.99915
H         -0.63148        1.43311       10.92087
C         -0.71386        5.83004        9.98782
C         -1.99287        5.09407        9.52818
C         -3.24971        5.84167       10.03792
H         -0.69328        5.85091       11.10295
C         -1.98606        3.63511       10.04898
H         -2.01395        5.07543        8.41294
C         -3.26030        2.90574        9.59338
C         -4.51376        3.64325       10.09503
C         -4.52802        5.10464        9.57768
H         -1.96709        3.64103       11.16223
H         -3.22771        5.85939       11.15303
H         -4.54863        5.08856        8.46224
H         -4.49331        3.64685       11.20835
H         -3.28041        2.83803        8.48217
C         -0.73162        2.89380        9.55188
H         -0.74930        2.82297        8.44092
C         -5.79243        5.84507       10.08694
C         -5.78344        2.90819        9.64078
C         -7.05259        5.08699        9.62611
C         -7.03480        3.64145       10.13532
H         -5.77921        5.85707       11.20119
H         -7.12092        5.08685        8.51600
H         -7.06155        3.63389       11.24620
H         -5.81527        2.83818        8.53102
C          4.34161       -5.95897        9.51739
C          6.88012       -5.97189        9.46325
C          5.62472       -5.22380        9.97355
H          6.85711       -5.99293        8.34822
H          6.93248       -3.01039       11.01831
C          6.90532       -3.03200        9.90334
C          5.62016       -3.76704        9.45169
H          5.64947       -5.20434       11.08859
C          4.36782       -3.01858        9.96800
C          3.08069       -3.75063        9.51563
C          3.08560       -5.21376       10.03165
H          3.11295       -5.19797       11.14670
H          4.31654       -5.97659        8.40242
H          5.59267       -3.78654        8.33676
H          4.39642       -3.00060       11.08291
H          3.05354       -3.76651        8.40060
C          4.36575       -1.56147        9.44674
C          6.90199       -1.57623        9.37794
C          5.65310       -0.82679        9.89529
C          3.11899       -0.81102        9.96801
H          4.33399       -1.57966        8.33190
H          6.87230       -1.59770        8.26307
H          3.15300       -0.79435       11.08311
H          5.68443       -0.80722       11.01035
C          1.82347       -1.53830        9.52197
C          1.82466       -3.00100       10.03193
C          1.79805       -5.95003        9.57758
C          0.59551       -0.76704       10.04384
C          0.55552       -3.74733        9.57938
C          0.56059       -5.19066       10.09205
H          0.58201       -0.76594       11.15600
H          1.78180       -1.55059        8.40846
H          1.84472       -2.98858       11.14605
H          0.47970       -3.74877        8.46980
H          0.53952       -5.18879       11.20400
H          1.76328       -5.96212        8.46388
C          0.60321        0.67811        9.53328
C          1.88503        1.39840        9.96482
C          3.12315        0.64994        9.44924
C          4.40714        1.37462        9.88833
C          5.65061        0.63166        9.37313
C          6.93431        1.36044        9.81033
H          0.52175        0.68563        8.42508
H          3.08907        0.64567        8.33629
H          5.61718        0.62479        8.26026
H          1.90862        1.46915       11.07473
H          4.44133        1.44341       10.99915
H          6.96752        1.43311       10.92087
C          6.88514        5.83004        9.98782
C          5.60613        5.09407        9.52818
C          4.34929        5.84167       10.03792
H          6.90572        5.85091       11.10295
C          5.61294        3.63511       10.04898
H          5.58505        5.07543        8.41294
C          4.33870        2.90574        9.59338
C          3.08524        3.64325       10.09503
C          3.07098        5.10464        9.57768
H          5.63191        3.64103       11.16223
H          4.37129        5.85939       11.15303
H          3.05037        5.08856        8.46224
H          3.10569        3.64685       11.20835
H          4.31859        2.83803        8.48217
C          6.86738        2.89380        9.55188
H          6.84970        2.82297        8.44092
C          1.80657        5.84507       10.08694
C          1.81556        2.90819        9.64078
C          0.54641        5.08699        9.62611
C          0.56420        3.64145       10.13532
H          1.81979        5.85707       11.20119
H          0.47808        5.08685        8.51600
H          0.53745        3.63389       11.24620
H          1.78373        2.83818        8.53102
C         11.94061       -5.95897        9.51739
C         14.47912       -5.97189        9.46325
C         13.22372       -5.22380        9.97355
H         14.45611       -5.99293        8.34822
H         14.53148       -3.01039       11.01831
C         14.50432       -3.03200        9.90334
C         13.21916       -3.76704        9.45169
H         13.24847       -5.20434       11.08859
C         11.96682       -3.01858        9.96800
C         10.67969       -3.75063        9.51563
C         10.68460       -5.21376       10.03165
H         10.71195       -5.19797       11.14670
H         11.91554       -5.97659        8.40242
H         13.19167       -3.78654        8.33676
H         11.99542       -3.00060       11.08291
H         10.65254       -3.76651        8.40060
C         11.96475       -1.56147        9.44674
C         14.50099       -1.57623        9.37794
C         13.25210       -0.82679        9.89529
C         10.71799       -0.81102        9.96801
H         11.93299       -1.57966        8.33190
H         14.47130       -1.59770        8.26307
H         10.75200       -0.79435       11.08311
H         13.28343       -0.80722       11.01035
C          9.42247       -1.53830        9.52197
C          9.42366       -3.00100       10.03193
C          9.39705       -5.95003        9.57758
C          8.19451       -0.76704       10.04384
C          8.15452       -3.74733        9.57938
C          8.15959       -5.19066       10.09205
H          8.18101       -0.76594       11.15600
H          9.38080       -1.55059        8.40846
H          9.44372       -2.98858       11.14605
H          8.07870       -3.74877        8.46980
H          8.13852       -5.18879       11.20400
H          9.36228       -5.96212        8.46388
C          8.20221        0.67811        9.53328
C          9.48403        1.39840        9.96482
C         10.72215        0.64994        9.44924
C         12.00614        1.37462        9.88833
C         13.24961        0.63166        9.37313
C         14.53331        1.36044        9.81033
H          8.12075        0.68563        8.42508
H         10.68807        0.64567        8.33629
H         13.21618        0.62479        8.26026
H          9.50762        1.46915       11.07473
H         12.04033        1.44341       10.99915
H         14.56652        1.43311       10.92087
C         14.48414        5.83004        9.98782
C         13.20513        5.09407        9.52818
C         11.94829        5.84167       10.03792
H         14.50472        5.85091       11.10295
C         13.21194        3.63511       10.04898
H         13.18405        5.07543        8.41294
C         11.93770        2.90574        9.59338
C         10.68424        3.64325       10.09503
C         10.66998        5.10464        9.57768
H         13.23091        3.64103       11.16223
H         11.97029        5.85939       11.15303
H         10.64937        5.08856        8.46224
H         10.70469        3.64685       11.20835
H         11.91759        2.83803        8.48217
C         14.46638        2.89380        9.55188
H         14.44870        2.82297        8.44092
C          9.40557        5.84507       10.08694
C          9.41456        2.90819        9.64078
C          8.14541        5.08699        9.62611
C          8.16320        3.64145       10.13532
H          9.41879        5.85707       11.20119
H          8.07708        5.08685        8.51600
H          8.13645        3.63389       11.24620
H          9.38273        2.83818        8.53102
N         -9.20472       -0.64386        3.63048
C         -9.26033       -0.46408        5.11499
H         -9.43487       -1.45188        5.60145
H        -10.12729        0.18611        5.37668
C         -7.99737        0.15621        5.75907
H         -7.11391       -0.48857        5.57379
H         -7.80738        1.16676        5.34306
C         -8.17797        0.29189        7.27662
H         -8.36139       -0.70781        7.72616
H         -9.04968        0.94548        7.49595
C         -6.94062        0.89720        7.92911
H         -6.05274        0.25084        7.76192
H         -6.74344        1.91461        7.52912
C        -10.48490       -1.25568        3.19712
H        -10.64146       -2.24547        3.68254
H        -11.34988       -0.60559        3.45973
H        -10.50547       -1.41453        2.09514
C         -8.10008       -1.55010        3.23457
H         -8.17269       -2.52457        3.76709
H         -8.12453       -1.75416        2.14034
H         -7.10611       -1.10425        3.44865
C         -9.05233        0.65567        2.93312
H         -9.10514        0.52405        1.82880
H         -9.85507        1.36605        3.23228
H         -8.06918        1.12450        3.14742
N          4.69258       -1.45625       -2.57342
C          4.67509       -1.26363       -4.03165
H          3.84401       -0.60263       -4.30292
H          4.54747       -2.23307       -4.52673
C          5.99620       -0.63225       -4.47886
H          6.75019       -1.25082       -4.20863
H          6.10021        0.25475       -4.00288
C          5.94059       -0.45247       -5.96337
H          5.76605       -1.44027       -6.44983
H          5.07363        0.19772       -6.22506
C          7.20355        0.16782       -6.60745
H          8.08701       -0.47696       -6.42217
H          7.39354        1.17837       -6.19144
C          7.02295        0.30350       -8.12500
H          6.85317       -0.73597       -8.42812
H          6.14781        0.95984       -8.19255
C          8.26030        0.90881       -8.77749
H          9.14818        0.26245       -8.61030
H          8.45748        1.92622       -8.37750
C          3.42324       -2.06285       -2.14372
H          3.43628       -2.20639       -1.05724
H          2.59217       -1.40182       -2.41497
H          3.29557       -3.03228       -2.63882
C          5.80804       -2.34342       -2.20938
H          6.75377       -1.89145       -2.52960
H          5.82109       -2.48691       -1.12290
H          5.68032       -3.31286       -2.70444
C          4.86395       -0.15509       -1.90900
H          5.80970        0.29685       -2.22920
H          4.03285        0.50589       -2.18028
H          4.87698       -0.29860       -0.82252
O         -6.51513       -3.27093       -3.98622
H         -6.60387       -4.16322       -4.32345
H         -6.09368       -3.36964       -3.13158
O         -4.99489        0.97784        3.26386
H         -5.22427        0.05217        3.17287
H         -5.38522        1.40615        2.50100
O          7.45330       -0.11066        1.39546
H          7.49230       -1.06639        1.44865
H          7.04779        0.07413        0.54742
O          2.62801        1.96034       -4.11037
H          2.39863        1.03467       -4.20136
H          2.23768        2.38865       -4.87323
O          8.38838       -0.90350        4.67351
H          8.15900       -1.82917        4.58252
H          7.99805       -0.47519        3.91065
O         10.78252        0.64111       -4.25603
H         10.55314       -0.28456       -4.34702
H         10.39219        1.06942       -5.01889
O         10.26675       -0.57648        0.67572
H         10.59875       -1.09169       -0.06055
H          9.74967        0.12356        0.27530
O          5.08989       -0.20374        4.02613
H          5.99383       -0.50765        4.11721
H          4.74728       -0.67006        3.26263
O          4.60363        0.45200        1.16239
H          4.59232       -0.45081        0.84215
H          4.18050        0.96502        0.47280
O         -6.94173        3.20418       -3.21879
H         -7.66820        2.57978       -3.20759
H         -7.13323        3.79429       -3.94877
O         -0.84712        2.33994       -3.90186
H         -1.60217        1.75723       -3.99185
H         -0.96918        3.00981       -4.57576
O         -2.27566        0.83066        4.75313
H         -3.07551        0.30470        4.71619
H         -2.36384        1.46634        4.04187
O          1.92897       -0.05678        4.25290
H          2.64022       -0.21555        3.63107
H          1.28504        0.45952        3.76654
O          1.25161        0.96536        0.91598
H          0.51430        0.37024        1.05729
H          1.01969        1.46584        0.13272
O         -2.99836        1.16868        1.52425
H         -2.97158        1.90351        0.91019
H         -2.82009        1.55588        2.38219
O        -11.03292        3.52688       -2.88819
H        -11.26230        2.60121       -2.97918
H        -11.42325        3.95519       -3.65105
O        -10.99966        3.49925        0.39858
H        -10.53582        3.01655       -0.28670
H        -11.55894        4.11973       -0.07043
O        -12.24233        3.27306        2.71281
H        -13.04935        3.08272        3.19264
H        -12.53156        3.64851        1.88026
O        -12.67515        2.82788        5.45691
H        -11.99749        2.40923        4.92469
H        -13.26044        3.24940        4.82641
O         -2.72390       -2.89405       -5.94554
H         -3.50680       -3.43397       -5.83017
H         -1.98916       -3.50505       -5.87784
O         -5.03215       -3.99984       -5.63445
H         -5.61685       -4.60296       -5.17388
H         -4.48289       -4.55907       -6.18521
O         -1.47027       -1.66776       -0.01059
H         -1.69965       -2.59343       -0.10158
H         -1.86060       -1.23945       -0.77345
O         -7.47540       -3.89572        2.54564
H         -7.70478       -4.82139        2.45465
H         -7.86573       -3.46741        1.78278
O         12.84843       -0.87816        5.30113
H         12.61905       -1.80383        5.21014
H         12.45810       -0.44985        4.53827
O         12.38551       -1.18941       -2.28277
H         12.15613       -2.11508       -2.37376
H         11.99518       -0.76110       -3.04563
O          2.11441        4.14555        4.46526
H          1.26938        3.75062        4.24682
H          2.42147        4.54159        3.64878
O          1.12677       -3.80084        4.94098
H          1.66357       -3.61648        4.16922
H          0.23661       -3.90892        4.60378
O          7.61073        3.12346        1.14670
H          8.27981        2.54592        0.77720
H          6.93939        3.19204        0.46673
O         11.28228        3.98803       -5.71176
H         11.05290        3.06236       -5.80275
H         10.89195        4.41634       -6.47462
O         -9.08187       -4.27350       -2.45107
H         -9.97726       -4.03764       -2.69686
H         -8.52146       -3.76761       -3.04080
O         11.96479        2.53331        2.73678
H         11.73541        1.60764        2.64579
H         11.57446        2.96162        1.97392
O          3.98532        1.27558        5.74948
H          4.84468        0.85419        5.79060
H          3.35496        0.55420        5.75425
O         -9.77261        1.38131       -6.16294
H         -9.24731        0.64980       -5.83627
H        -10.66857        1.04457       -6.20336
O          3.83250        0.86994       -5.71188
H          3.92902        0.46766       -6.57595
H          3.11656        1.49891       -5.80979
O        -12.51272        1.20105       -4.17538
H        -12.74210        0.27538       -4.26637
H        -12.90305        1.62936       -4.93824
O          0.66526        3.02400        2.50050
H          1.10912        2.88838        3.33856
H          1.36572        3.22482        1.87858
O          0.82284        3.79536       -0.11265
H          1.50162        3.35028        0.39619
H          1.17966        3.85946       -0.99940
O          3.67107        4.31253        2.96621
H          4.10853        3.87508        3.69767
H          4.16568        4.05026        2.18882
O          9.68217        1.06799        3.96227
H          9.45279        0.14232        3.87128
H          9.29184        1.49630        3.19941
O          1.74569       -2.42471        1.73621
H          1.51631       -3.35038        1.64522
H          1.35536       -1.99640        0.97335
O         -3.24184       -2.90213        2.88221
H         -3.47122       -3.82780        2.79122
H         -3.63217       -2.47382        2.11935
O         -5.30926        0.00871        4.75329
H         -5.86974        0.54079        4.18715
H         -4.60517        0.59706        5.02875
O         -4.94439       -3.23307       -0.29895
H         -5.37801       -3.67709       -1.02874
H         -5.55452       -2.54547       -0.02931
O         -8.95198       -3.91678        0.64787
H         -9.18136       -4.84245        0.55688
H         -9.34231       -3.48847       -0.11499
O        -11.03810       -3.23443        4.93744
H        -11.70684       -3.43325        4.28092
H        -11.47681       -2.66998        5.57517
O         12.81577        0.80333       -5.58760
H         12.96798        0.46758       -4.70337
H         12.72541        0.02356       -6.13675
O         -2.17777        1.16577       -1.96886
H         -2.40715        0.24010       -2.05985
H         -2.56810        1.59408       -2.73172
O         10.50670        3.74621        0.12372
H          9.85478        3.36483       -0.46562
H         10.18350        3.55845        1.00579
O         -1.40515       -1.38325       -3.91253
H         -1.87327       -1.97036       -3.31761
H         -1.13422       -1.93742       -4.64550
O        -11.36572       -1.13156       -1.29544
H        -11.63841       -1.67798       -0.55731
H        -11.61300       -1.62835       -2.07634
O         -7.32091        0.22010       -1.03410
H         -7.10978        0.74995       -1.80380
H         -8.05675        0.67030       -0.61742
O         -0.46538        0.99827        4.99197
H          0.39447        1.25770        5.32530
H         -1.05432        1.71048        5.24431
O          8.32443        1.54311        5.72713
H          8.04091        2.41976        5.46472
H          9.28145        1.58501        5.73825
O         -4.73715       -4.54888        2.37289
H         -5.68526       -4.64804        2.46790
H         -4.61581       -4.13185        1.51900
O          4.59831       -3.00622        0.51424
H          4.36893       -3.93189        0.42325
H          4.20798       -2.57791       -0.24862
O          7.48595       -3.41037        3.35821
H          8.33285       -3.40167        3.80592
H          7.00681       -2.66361        3.71951
O         10.03563        1.16022       -1.52222
H         10.39451        1.32799       -2.39447
H          9.08839        1.26537       -1.61942
O         -0.71682        0.48975        3.01586
H         -1.63205        0.49246        3.29890
H         -0.72614        0.88390        2.14275
O         -0.64718        4.26704       -4.55139
H         -1.17255        4.61124       -5.27476
H         -1.05874        4.61409       -3.75897
O         -0.04614        3.64289        5.58056
H         -0.19641        2.71375        5.40202
H         -0.34811        4.09855        4.79382
O         12.62878        0.70727        0.38428
H         12.39940       -0.21840        0.29329
H         12.23845        1.13558       -0.37858
O          6.27522        1.24485        2.48350
H          6.60156        1.92449        3.07456
H          6.68790        0.43470        2.78535
O         -1.28085       -2.43760        5.11830
H         -2.00982       -3.00701        5.36756
H         -1.68703       -1.60080        4.88908
O         -4.59062        3.41561        4.31121
H         -3.76351        2.97488        4.11268
H         -5.07071        3.42697        3.48227
O         -6.85919        1.90927        3.17244
H         -6.28980        2.57410        3.56174
H         -7.58452        2.40036        2.78452
O          5.90454        3.03496       -5.82204
H          6.06138        2.09180       -5.88210
H          4.95916        3.13702       -5.93865
O          6.00217        2.44719        4.48378
H          6.90842        2.52073        4.18201
H          5.77609        1.52363        4.36687
O         -3.40336       -0.48610       -4.02269
H         -3.52345       -0.25685       -3.10031
H         -3.17380        0.33742       -4.45499
O         -3.85726        4.02220       -5.06153
H         -4.02587        3.99110       -4.11900
H         -3.05088        3.52014       -5.18585
O         -2.79231        3.87246       -2.37236
H         -3.57521        3.33254       -2.25698
H         -2.05756        3.26146       -2.30465
O          3.06143       -3.92930       -6.13320
H          2.27853       -4.46923       -6.01782
H          3.79618       -4.54031       -6.06549
O          2.35648       -4.80392        5.58078
H          1.57358       -5.34384        5.69616
H          3.09123       -5.41492        5.64849
O          5.05750       -3.68160        2.84758
H          4.27461       -4.22153        2.96295
H          5.79225       -4.29261        2.91528
O         -0.96648       -3.21518        3.45155
H         -1.74938       -3.75510        3.56693
H         -0.23173       -3.82618        3.51926
O         -2.65481       -4.36919        5.41798
H         -3.46330       -4.07743        5.84104
H         -2.87942       -4.46205        4.49132
O         -6.20991       -3.78021        5.27378
H         -5.34895       -3.57365        4.90793
H         -6.62206       -4.35564        4.62821
O         -7.21760        3.56962        5.04101
H         -7.31349        3.01241        4.26765
H         -6.29428        3.49711        5.28591
O          1.01868       -0.78368       -4.13263
H          1.61986       -0.62529       -3.40375
H          1.57337       -1.09783       -4.84775
O          2.62779       -0.45748        0.89061
H          3.11946        0.09307        0.27994
H          3.10437       -1.28818        0.91436
O          9.04051       -4.02609       -0.40865
H          8.25762       -4.56601       -0.29327
H          9.77526       -4.63709       -0.34094
O          7.51511       -4.45259        2.39746
H          7.82854       -4.40275        1.49355
H          8.14447       -5.01766        2.84731
O         11.10854       -4.53384        1.82183
H         10.53225       -3.76923        1.78984
H         11.89157       -4.23492        2.28579
O          8.69122       -3.43859       -1.61501
H          8.08917       -2.91896       -2.14912
H          8.54240       -4.34563       -1.88498
O          5.49301       -4.74401       -4.19299
H          4.92983       -4.29091       -4.82170
H          5.04173       -4.66211       -3.35192
O          8.36299        3.52820        4.14130
H          7.60882        3.65132        3.56353
H          8.07924        3.86088        4.99369
O          8.15273       -3.38031        5.52927
H          8.25334       -4.23080        5.95857
H          9.04615       -3.05637        5.40834
O          8.40462       -3.94782       -5.83056
H          7.66927       -4.46590       -6.16012
H          8.20775       -3.04625       -6.08781
O        -10.01038       -1.43753       -4.97792
H        -10.60343       -2.03640       -4.52251
H         -9.95948       -1.77266       -5.87394
O          2.88177        4.62635       -2.23058
H          2.48803        3.81222       -1.91449
H          2.89448        4.54150       -3.18473
O          4.06604        4.40358       -4.59745
H          3.47121        3.66331       -4.47123
H          4.82670        4.03619       -5.04931
O          7.81359        4.54972       -5.82121
H          7.52752        3.99245       -5.09638
H          8.14891        3.94336       -6.48276
O          4.55723        2.13359        1.13097
H          5.05430        2.29568        0.32821
H          5.16814        2.32473        1.84373
O          2.67507       -3.45933        0.87391
H          2.93469       -3.21326        1.76262
H          3.23100       -2.93258        0.29838
O          9.19340        4.10983       -3.58306
H          9.82334        3.81970       -4.24394
H          9.68907        4.69357       -3.00745
O          9.66730       -2.58634       -3.37830
H          9.49843       -2.09025       -4.18027
H         10.45308       -2.18846       -3.00146
O         -3.89471       -0.18054       -0.77746
H         -4.07918       -0.12012        0.16067
H         -3.60020        0.69563       -1.02917
O         -5.28405        3.26088        1.42897
H         -6.06695        2.72095        1.54435
H         -4.54930        2.64987        1.49668
O          0.05975        1.24468       -2.07142
H          0.18295        1.78011       -2.85621
H          0.38403        1.78456       -1.34952
O         -5.32637        1.70553       -1.42835
H         -5.44046        1.45820       -2.34681
H         -4.61429        1.15011       -1.10863
O         -6.51763       -1.42101       -5.94914
H         -7.30053       -1.96093       -5.83376
H         -5.78288       -2.03201       -5.88144
O         -6.25773        1.51717       -3.76010
H         -6.37813        1.06384       -4.59542
H         -6.02527        0.82881       -3.13569
O          3.94599        3.71427        5.61302
H          3.08558        3.30388        5.70800
H          4.56029        2.98454        5.52413
O         11.32714        1.96009        5.61152
H         11.51533        2.62096        6.27905
H         10.68697        2.37110        5.02926
O          3.57945       -3.07254        4.24517
H          3.13289       -2.89728        3.41593
H          4.50880       -3.12807        4.01939
O         -0.70576        0.50010       -0.11289
H         -1.48102        0.46037        0.44850
H         -1.01343        0.88701       -0.93350
O          2.38222        0.81458       -1.20650
H          1.64374        0.75230       -0.59943
H          2.00182        0.67594       -2.07473
O          0.79434       -3.13194       -2.43259
H          0.47309       -3.60787       -1.66575
H          0.83236       -3.78549       -3.13202
O         -1.46284        3.35131       -0.02404
H         -1.19319        2.95592       -0.85393
H         -1.58268        2.61327        0.57487
O         -2.18033       -1.67275        1.69824
H         -2.89944       -2.11102        1.24155
H         -1.76521       -2.35852        2.22280
O         -0.27606       -1.09115       -1.90486
H         -0.62752       -0.20042       -1.93355
H         -0.90279       -1.62103       -2.39903
O          7.33166        2.29766       -0.92857
H          6.54876        1.75773       -0.81320
H          8.06641        1.68665       -0.86087
O        -11.75355       -0.62127       -6.59022
H        -11.39989       -0.82229       -5.72288
H        -12.69519       -0.50915       -6.45414
O        -12.60132        1.14286       -1.10939
H        -12.76940        1.20093       -0.16805
H        -12.61097        2.04927       -1.41936
O         -8.74742       -4.20292        5.05378
H         -8.14625       -4.04454        5.78266
H         -8.19273       -4.51708        4.33866
O          2.47974        2.69165       -6.89455
H          1.69684        2.15173       -6.77917
H          3.21449        2.08065       -6.82684
O         -2.61519        2.79368       -6.67433
H         -3.39809        2.25376       -6.55896
H         -1.88044        2.18268       -6.60663
O         -9.32985        2.23700       -7.57907
H        -10.11275        1.69708       -7.46370
H         -8.59510        1.62600       -7.51137
O         10.98843        0.43423       -7.74339
H         10.20553       -0.10569       -7.62801
H         11.72318       -0.17677       -7.67569
O         -1.46739        0.77247       -7.60097
H         -2.14314        1.42380       -7.79303
H         -0.76254        1.26397       -7.17742
O          9.26544        0.57304        6.99958
H          8.48254        0.03311        7.11496
H         10.00019       -0.03797        7.06729
O        -11.09146        2.37942        6.96358
H        -11.87436        1.83950        7.07895
H        -10.35671        1.76842        7.03128
O        -12.80296        0.90108        4.09649
H        -12.69829        0.49674        3.23433
H        -13.22507        0.23069        4.63515
O          6.17164        0.09301        6.05818
H          5.47405        0.51402        6.56205
H          6.80765        0.78848        5.88621
O          1.51750        0.77877        6.58367
H          0.73460        0.23885        6.69904
H          2.25225        0.16777        6.65137
O         -9.54828        2.56483        0.77224
H        -10.33118        2.02491        0.88762
H         -8.81353        1.95383        0.83995
O        -10.06147        2.73459        3.12500
H        -10.64305        2.68908        3.88491
H         -9.76285        3.64438        3.09546
O          0.57815       -2.18956        6.79060
H         -0.20475       -2.72948        6.90598
H          1.31290       -2.80056        6.85831
O         -1.60116       -4.80630        6.82042
H         -0.78886       -4.48960        6.42338
H         -2.16304       -4.03314        6.88581
O          1.60577        2.59256        6.66329
H          2.28684        3.20998        6.39364
H          0.79322        3.09993        6.65357
O          6.75484        3.52276        6.53119
H          6.20110        4.18820        6.12093
H          7.63444        3.90224        6.53845
O         -9.69248        3.73693        5.71713
H         -9.24210        3.05692        6.21963
H        -10.49725        3.32197        5.40420
O         -6.37770       -0.18071        0.40774
H         -5.81723       -0.13608       -0.36791
H         -5.85703        0.20661        1.11248
O          7.51281        3.30688       -2.80384
H          6.56313        3.20346       -2.73200
H          7.87973        2.53529       -2.37050
O         -8.78117       -2.87442        7.11858
H         -8.07444       -2.23168        7.04668
H         -9.54070       -2.37500        7.42100
O        -12.40628       -2.80598        6.61439
H        -12.08164       -1.91380        6.74240
H        -11.64289       -3.36915        6.74795
O         -9.53930       -0.37878       -2.34634
H         -9.54929        0.54651       -2.09834
O          9.86689       -2.24599        2.79182
H          9.85691       -1.32070        3.03982
