630

C -10.78492 -5.89278 -10.81539
C -8.24641 -5.9057 -10.76125
C -9.50181 -5.15761 -11.27155
H -8.26942 -5.92674 -9.64622
H -8.19405 -2.9442 -12.31631
C -8.22121 -2.96581 -11.20134
C -9.50637 -3.70085 -10.74969
H -9.47706 -5.13815 -12.38659
C -10.75871 -2.95239 -11.266
C -12.04584 -3.68444 -10.81363
C -12.04093 -5.14757 -11.32965
H -12.01358 -5.13178 -12.4447
H -10.80999 -5.9104 -9.70042
H -9.53386 -3.72035 -9.63476
H -10.73011 -2.93441 -12.38091
H -12.07299 -3.70032 -9.6986
C -10.76078 -1.49528 -10.74474
C -8.22454 -1.51004 -10.67594
C -9.47343 -0.7606 -11.19329
C -12.00754 -0.74483 -11.26601
H -10.79254 -1.51347 -9.6299
H -8.25423 -1.53151 -9.56107
H -11.97353 -0.72816 -12.38111
H -9.4421 -0.74103 -12.30835
C -13.30306 -1.47211 -10.81997
C -13.30187 -2.93481 -11.32993
C -13.32848 -5.88384 -10.87558
C -14.53102 -0.70085 -11.34184
C -14.57101 -3.68114 -10.87738
C -14.56594 -5.12447 -11.39005
H -14.54452 -0.69975 -12.454
H -13.34473 -1.4844 -9.70646
H -13.28181 -2.92239 -12.44405
H -14.64683 -3.68258 -9.7678
H -14.58701 -5.1226 -12.502
H -13.36325 -5.89593 -9.76188
C -14.52332 0.7443 -10.83128
C -13.2415 1.46459 -11.26282
C -12.00338 0.71613 -10.74724
C -10.71939 1.44081 -11.18633
C -9.47592 0.69785 -10.67113
C -8.19222 1.42663 -11.10833
H -14.60478 0.75182 -9.72308
H -12.03746 0.71186 -9.63429
H -9.50935 0.69098 -9.55826
H -13.21791 1.53534 -12.37273
H -10.6852 1.5096 -12.29715
H -8.15901 1.4993 -12.21887
C -8.24139 5.89623 -11.28582
C -9.5204 5.16026 -10.82618
C -10.77724 5.90786 -11.33592
H -8.22081 5.9171 -12.40095
C -9.51359 3.7013 -11.34698
H -9.54148 5.14162 -9.71094
C -10.78783 2.97193 -10.89138
C -12.04129 3.70944 -11.39303
C -12.05555 5.17083 -10.87568
H -9.49462 3.70722 -12.46023
H -10.75524 5.92558 -12.45103
H -12.07616 5.15475 -9.76024
H -12.02084 3.71304 -12.50635
H -10.80794 2.90422 -9.78017
C -8.25915 2.95999 -10.84988
H -8.27683 2.88916 -9.73892
C -13.31996 5.91126 -11.38494
C -13.31097 2.97438 -10.93878
C -14.58012 5.15318 -10.92411
C -14.56233 3.70764 -11.43332
H -13.30674 5.92326 -12.49919
H -14.64845 5.15304 -9.814
H -14.58908 3.70008 -12.5442
H -13.3428 2.90437 -9.82902
C -3.18592 -5.89278 -10.81539
C -0.64741 -5.9057 -10.76125
C -1.90281 -5.15761 -11.27155
H -0.67042 -5.92674 -9.64622
H -0.59505 -2.9442 -12.31631
C -0.62221 -2.96581 -11.20134
C -1.90737 -3.70085 -10.74969
H -1.87806 -5.13815 -12.38659
C -3.15971 -2.95239 -11.266
C -4.44684 -3.68444 -10.81363
C -4.44193 -5.14757 -11.32965
H -4.41458 -5.13178 -12.4447
H -3.21099 -5.9104 -9.70042
H -1.93486 -3.72035 -9.63476
H -3.13111 -2.93441 -12.38091
H -4.47399 -3.70032 -9.6986
C -3.16178 -1.49528 -10.74474
C -0.62554 -1.51004 -10.67594
C -1.87443 -0.7606 -11.19329
C -4.40854 -0.74483 -11.26601
H -3.19354 -1.51347 -9.6299
H -0.65523 -1.53151 -9.56107
H -4.37453 -0.72816 -12.38111
H -1.8431 -0.74103 -12.30835
C -5.70406 -1.47211 -10.81997
C -5.70287 -2.93481 -11.32993
C -5.72948 -5.88384 -10.87558
C -6.93202 -0.70085 -11.34184
C -6.97201 -3.68114 -10.87738
C -6.96694 -5.12447 -11.39005
H -6.94552 -0.69975 -12.454
H -5.74573 -1.4844 -9.70646
H -5.68281 -2.92239 -12.44405
H -7.04783 -3.68258 -9.7678
H -6.98801 -5.1226 -12.502
H -5.76425 -5.89593 -9.76188
C -6.92432 0.7443 -10.83128
C -5.6425 1.46459 -11.26282
C -4.40438 0.71613 -10.74724
C -3.12039 1.44081 -11.18633
C -1.87692 0.69785 -10.67113
C -0.59322 1.42663 -11.10833
H -7.00578 0.75182 -9.72308
H -4.43846 0.71186 -9.63429
H -1.91035 0.69098 -9.55826
H -5.61891 1.53534 -12.37273
H -3.0862 1.5096 -12.29715
H -0.56001 1.4993 -12.21887
C -0.64239 5.89623 -11.28582
C -1.9214 5.16026 -10.82618
C -3.17824 5.90786 -11.33592
H -0.62181 5.9171 -12.40095
C -1.91459 3.7013 -11.34698
H -1.94248 5.14162 -9.71094
C -3.18883 2.97193 -10.89138
C -4.44229 3.70944 -11.39303
C -4.45655 5.17083 -10.87568
H -1.89562 3.70722 -12.46023
H -3.15624 5.92558 -12.45103
H -4.47716 5.15475 -9.76024
H -4.42184 3.71304 -12.50635
H -3.20894 2.90422 -9.78017
C -0.66015 2.95999 -10.84988
H -0.67783 2.88916 -9.73892
C -5.72096 5.91126 -11.38494
C -5.71197 2.97438 -10.93878
C -6.98112 5.15318 -10.92411
C -6.96333 3.70764 -11.43332
H -5.70774 5.92326 -12.49919
H -7.04945 5.15304 -9.814
H -6.99008 3.70008 -12.5442
H -5.7438 2.90437 -9.82902
C 4.41308 -5.89278 -10.81539
C 6.95159 -5.9057 -10.76125
C 5.69619 -5.15761 -11.27155
H 6.92858 -5.92674 -9.64622
H 7.00395 -2.9442 -12.31631
C 6.97679 -2.96581 -11.20134
C 5.69163 -3.70085 -10.74969
H 5.72094 -5.13815 -12.38659
C 4.43929 -2.95239 -11.266
C 3.15216 -3.68444 -10.81363
C 3.15707 -5.14757 -11.32965
H 3.18442 -5.13178 -12.4447
H 4.38801 -5.9104 -9.70042
H 5.66414 -3.72035 -9.63476
H 4.46789 -2.93441 -12.38091
H 3.12501 -3.70032 -9.6986
C 4.43722 -1.49528 -10.74474
C 6.97346 -1.51004 -10.67594
C 5.72457 -0.7606 -11.19329
C 3.19046 -0.74483 -11.26601
H 4.40546 -1.51347 -9.6299
H 6.94377 -1.53151 -9.56107
H 3.22447 -0.72816 -12.38111
H 5.7559 -0.74103 -12.30835
C 1.89494 -1.47211 -10.81997
C 1.89613 -2.93481 -11.32993
C 1.86952 -5.88384 -10.87558
C 0.66698 -0.70085 -11.34184
C 0.62699 -3.68114 -10.87738
C 0.63206 -5.12447 -11.39005
H 0.65348 -0.69975 -12.454
H 1.85327 -1.4844 -9.70646
H 1.91619 -2.92239 -12.44405
H 0.55117 -3.68258 -9.7678
H 0.61099 -5.1226 -12.502
H 1.83475 -5.89593 -9.76188
C 0.67468 0.7443 -10.83128
C 1.9565 1.46459 -11.26282
C 3.19462 0.71613 -10.74724
C 4.47861 1.44081 -11.18633
C 5.72208 0.69785 -10.67113
C 7.00578 1.42663 -11.10833
H 0.59322 0.75182 -9.72308
H 3.16054 0.71186 -9.63429
H 5.68865 0.69098 -9.55826
H 1.98009 1.53534 -12.37273
H 4.5128 1.5096 -12.29715
H 7.03899 1.4993 -12.21887
C 6.95661 5.89623 -11.28582
C 5.6776 5.16026 -10.82618
C 4.42076 5.90786 -11.33592
H 6.97719 5.9171 -12.40095
C 5.68441 3.7013 -11.34698
H 5.65652 5.14162 -9.71094
C 4.41017 2.97193 -10.89138
C 3.15671 3.70944 -11.39303
C 3.14245 5.17083 -10.87568
H 5.70338 3.70722 -12.46023
H 4.44276 5.92558 -12.45103
H 3.12184 5.15475 -9.76024
H 3.17716 3.71304 -12.50635
H 4.39006 2.90422 -9.78017
C 6.93885 2.95999 -10.84988
H 6.92117 2.88916 -9.73892
C 1.87804 5.91126 -11.38494
C 1.88703 2.97438 -10.93878
C 0.61788 5.15318 -10.92411
C 0.63567 3.70764 -11.43332
H 1.89126 5.92326 -12.49919
H 0.54955 5.15304 -9.814
H 0.60892 3.70008 -12.5442
H 1.8552 2.90437 -9.82902
C 12.01208 -5.89278 -10.81539
C 14.55059 -5.9057 -10.76125
C 13.29519 -5.15761 -11.27155
H 14.52758 -5.92674 -9.64622
H 14.60295 -2.9442 -12.31631
C 14.57579 -2.96581 -11.20134
C 13.29063 -3.70085 -10.74969
H 13.31994 -5.13815 -12.38659
C 12.03829 -2.95239 -11.266
C 10.75116 -3.68444 -10.81363
C 10.75607 -5.14757 -11.32965
H 10.78342 -5.13178 -12.4447
H 11.98701 -5.9104 -9.70042
H 13.26314 -3.72035 -9.63476
H 12.06689 -2.93441 -12.38091
H 10.72401 -3.70032 -9.6986
C 12.03622 -1.49528 -10.74474
C 14.57246 -1.51004 -10.67594
C 13.32357 -0.7606 -11.19329
C 10.78946 -0.74483 -11.26601
H 12.00446 -1.51347 -9.6299
H 14.54277 -1.53151 -9.56107
H 10.82347 -0.72816 -12.38111
H 13.3549 -0.74103 -12.30835
C 9.49394 -1.47211 -10.81997
C 9.49513 -2.93481 -11.32993
C 9.46852 -5.88384 -10.87558
C 8.26598 -0.70085 -11.34184
C 8.22599 -3.68114 -10.87738
C 8.23106 -5.12447 -11.39005
H 8.25248 -0.69975 -12.454
H 9.45227 -1.4844 -9.70646
H 9.51519 -2.92239 -12.44405
H 8.15017 -3.68258 -9.7678
H 8.20999 -5.1226 -12.502
H 9.43375 -5.89593 -9.76188
C 8.27368 0.7443 -10.83128
C 9.5555 1.46459 -11.26282
C 10.79362 0.71613 -10.74724
C 12.07761 1.44081 -11.18633
C 13.32108 0.69785 -10.67113
C 14.60478 1.42663 -11.10833
H 10.75954 0.71186 -9.63429
H 13.28765 0.69098 -9.55826
H 9.57909 1.53534 -12.37273
H 12.1118 1.5096 -12.29715
H 14.63799 1.4993 -12.21887
C 14.55561 5.89623 -11.28582
C 13.2766 5.16026 -10.82618
C 12.01976 5.90786 -11.33592
H 14.57619 5.9171 -12.40095
C 13.28341 3.7013 -11.34698
H 13.25552 5.14162 -9.71094
C 12.00917 2.97193 -10.89138
C 10.75571 3.70944 -11.39303
C 10.74145 5.17083 -10.87568
H 13.30238 3.70722 -12.46023
H 12.04176 5.92558 -12.45103
H 10.72084 5.15475 -9.76024
H 10.77616 3.71304 -12.50635
H 11.98906 2.90422 -9.78017
C 14.53785 2.95999 -10.84988
H 14.52017 2.88916 -9.73892
C 9.47704 5.91126 -11.38494
C 9.48603 2.97438 -10.93878
C 8.21688 5.15318 -10.92411
C 8.23467 3.70764 -11.43332
H 9.49026 5.92326 -12.49919
H 8.14855 5.15304 -9.814
H 8.20792 3.70008 -12.5442
H 9.4542 2.90437 -9.82902
C -10.78492 -5.89278 10.81539
C -8.24641 -5.9057 10.76125
C -9.50181 -5.15761 11.27155
H -8.26942 -5.92674 9.64622
H -8.19405 -2.9442 12.31631
C -8.22121 -2.96581 11.20134
C -9.50637 -3.70085 10.74969
H -9.47706 -5.13815 12.38659
C -10.75871 -2.95239 11.266
C -12.04584 -3.68444 10.81363
C -12.04093 -5.14757 11.32965
H -12.01358 -5.13178 12.4447
H -10.80999 -5.9104 9.70042
H -9.53386 -3.72035 9.63476
H -10.73011 -2.93441 12.38091
H -12.07299 -3.70032 9.6986
C -10.76078 -1.49528 10.74474
C -8.22454 -1.51004 10.67594
C -9.47343 -0.7606 11.19329
C -12.00754 -0.74483 11.26601
H -10.79254 -1.51347 9.6299
H -8.25423 -1.53151 9.56107
H -11.97353 -0.72816 12.38111
H -9.4421 -0.74103 12.30835
C -13.30306 -1.47211 10.81997
C -13.30187 -2.93481 11.32993
C -13.32848 -5.88384 10.87558
C -14.53102 -0.70085 11.34184
C -14.57101 -3.68114 10.87738
C -14.56594 -5.12447 11.39005
H -14.54452 -0.69975 12.454
H -13.34473 -1.4844 9.70646
H -13.28181 -2.92239 12.44405
H -14.64683 -3.68258 9.7678
H -14.58701 -5.1226 12.502
H -13.36325 -5.89593 9.76188
C -14.52332 0.7443 10.83128
C -13.2415 1.46459 11.26282
C -12.00338 0.71613 10.74724
C -10.71939 1.44081 11.18633
C -9.47592 0.69785 10.67113
C -8.19222 1.42663 11.10833
H -14.60478 0.75182 9.72308
H -12.03746 0.71186 9.63429
H -9.50935 0.69098 9.55826
H -13.21791 1.53534 12.37273
H -10.6852 1.5096 12.29715
H -8.15901 1.4993 12.21887
C -8.24139 5.89623 11.28582
C -9.5204 5.16026 10.82618
C -10.77724 5.90786 11.33592
H -8.22081 5.9171 12.40095
C -9.51359 3.7013 11.34698
H -9.54148 5.14162 9.71094
C -10.78783 2.97193 10.89138
C -12.04129 3.70944 11.39303
C -12.05555 5.17083 10.87568
H -9.49462 3.70722 12.46023
H -10.75524 5.92558 12.45103
H -12.07616 5.15475 9.76024
H -12.02084 3.71304 12.50635
H -10.80794 2.90422 9.78017
C -8.25915 2.95999 10.84988
H -8.27683 2.88916 9.73892
C -13.31996 5.91126 11.38494
C -13.31097 2.97438 10.93878
C -14.58012 5.15318 10.92411
C -14.56233 3.70764 11.43332
H -13.30674 5.92326 12.49919
H -14.64845 5.15304 9.814
H -14.58908 3.70008 12.5442
H -13.3428 2.90437 9.82902
C -3.18592 -5.89278 10.81539
C -0.64741 -5.9057 10.76125
C -1.90281 -5.15761 11.27155
H -0.67042 -5.92674 9.64622
H -0.59505 -2.9442 12.31631
C -0.62221 -2.96581 11.20134
C -1.90737 -3.70085 10.74969
H -1.87806 -5.13815 12.38659
C -3.15971 -2.95239 11.266
C -4.44684 -3.68444 10.81363
C -4.44193 -5.14757 11.32965
H -4.41458 -5.13178 12.4447
H -3.21099 -5.9104 9.70042
H -1.93486 -3.72035 9.63476
H -3.13111 -2.93441 12.38091
H -4.47399 -3.70032 9.6986
C -3.16178 -1.49528 10.74474
C -0.62554 -1.51004 10.67594
C -1.87443 -0.7606 11.19329
C -4.40854 -0.74483 11.26601
H -3.19354 -1.51347 9.6299
H -0.65523 -1.53151 9.56107
H -4.37453 -0.72816 12.38111
H -1.8431 -0.74103 12.30835
C -5.70406 -1.47211 10.81997
C -5.70287 -2.93481 11.32993
C -5.72948 -5.88384 10.87558
C -6.93202 -0.70085 11.34184
C -6.97201 -3.68114 10.87738
C -6.96694 -5.12447 11.39005
H -6.94552 -0.69975 12.454
H -5.74573 -1.4844 9.70646
H -5.68281 -2.92239 12.44405
H -7.04783 -3.68258 9.7678
H -6.98801 -5.1226 12.502
H -5.76425 -5.89593 9.76188
C -6.92432 0.7443 10.83128
C -5.6425 1.46459 11.26282
C -4.40438 0.71613 10.74724
C -3.12039 1.44081 11.18633
C -1.87692 0.69785 10.67113
C -0.59322 1.42663 11.10833
H -4.43846 0.71186 9.63429
H -1.91035 0.69098 9.55826
H -5.61891 1.53534 12.37273
H -3.0862 1.5096 12.29715
H -0.56001 1.4993 12.21887
C -0.64239 5.89623 11.28582
C -1.9214 5.16026 10.82618
C -3.17824 5.90786 11.33592
H -0.62181 5.9171 12.40095
C -1.91459 3.7013 11.34698
H -1.94248 5.14162 9.71094
C -3.18883 2.97193 10.89138
C -4.44229 3.70944 11.39303
C -4.45655 5.17083 10.87568
H -1.89562 3.70722 12.46023
H -3.15624 5.92558 12.45103
H -4.47716 5.15475 9.76024
H -4.42184 3.71304 12.50635
H -3.20894 2.90422 9.78017
C -0.66015 2.95999 10.84988
H -0.67783 2.88916 9.73892
C -5.72096 5.91126 11.38494
C -5.71197 2.97438 10.93878
C -6.98112 5.15318 10.92411
C -6.96333 3.70764 11.43332
H -5.70774 5.92326 12.49919
H -7.04945 5.15304 9.814
H -6.99008 3.70008 12.5442
H -5.7438 2.90437 9.82902
C 4.41308 -5.89278 10.81539
C 6.95159 -5.9057 10.76125
C 5.69619 -5.15761 11.27155
H 6.92858 -5.92674 9.64622
H 7.00395 -2.9442 12.31631
C 6.97679 -2.96581 11.20134
C 5.69163 -3.70085 10.74969
H 5.72094 -5.13815 12.38659
C 4.43929 -2.95239 11.266
C 3.15216 -3.68444 10.81363
C 3.15707 -5.14757 11.32965
H 3.18442 -5.13178 12.4447
H 4.38801 -5.9104 9.70042
H 5.66414 -3.72035 9.63476
H 4.46789 -2.93441 12.38091
H 3.12501 -3.70032 9.6986
C 4.43722 -1.49528 10.74474
C 6.97346 -1.51004 10.67594
C 5.72457 -0.7606 11.19329
C 3.19046 -0.74483 11.26601
H 4.40546 -1.51347 9.6299
H 6.94377 -1.53151 9.56107
H 3.22447 -0.72816 12.38111
H 5.7559 -0.74103 12.30835
C 1.89494 -1.47211 10.81997
C 1.89613 -2.93481 11.32993
C 1.86952 -5.88384 10.87558
C 0.66698 -0.70085 11.34184
C 0.62699 -3.68114 10.87738
C 0.63206 -5.12447 11.39005
H 0.65348 -0.69975 12.454
H 1.85327 -1.4844 9.70646
H 1.91619 -2.92239 12.44405
H 0.55117 -3.68258 9.7678
H 0.61099 -5.1226 12.502
H 1.83475 -5.89593 9.76188
C 0.67468 0.7443 10.83128
C 1.9565 1.46459 11.26282
C 3.19462 0.71613 10.74724
C 4.47861 1.44081 11.18633
C 5.72208 0.69785 10.67113
C 7.00578 1.42663 11.10833
H 0.59322 0.75182 9.72308
H 3.16054 0.71186 9.63429
H 5.68865 0.69098 9.55826
H 1.98009 1.53534 12.37273
H 4.5128 1.5096 12.29715
H 7.03899 1.4993 12.21887
C 6.95661 5.89623 11.28582
C 5.6776 5.16026 10.82618
C 4.42076 5.90786 11.33592
H 6.97719 5.9171 12.40095
C 5.68441 3.7013 11.34698
H 5.65652 5.14162 9.71094
C 4.41017 2.97193 10.89138
C 3.15671 3.70944 11.39303
C 3.14245 5.17083 10.87568
H 5.70338 3.70722 12.46023
H 4.44276 5.92558 12.45103
H 3.12184 5.15475 9.76024
H 3.17716 3.71304 12.50635
H 4.39006 2.90422 9.78017
C 6.93885 2.95999 10.84988
H 6.92117 2.88916 9.73892
C 1.87804 5.91126 11.38494
C 1.88703 2.97438 10.93878
C 0.61788 5.15318 10.92411
C 0.63567 3.70764 11.43332
H 1.89126 5.92326 12.49919
H 0.54955 5.15304 9.814
H 0.60892 3.70008 12.5442
H 1.8552 2.90437 9.82902
C 12.01208 -5.89278 10.81539
C 14.55059 -5.9057 10.76125
C 13.29519 -5.15761 11.27155
H 14.52758 -5.92674 9.64622
H 14.60295 -2.9442 12.31631
C 14.57579 -2.96581 11.20134
C 13.29063 -3.70085 10.74969
H 13.31994 -5.13815 12.38659
C 12.03829 -2.95239 11.266
C 10.75116 -3.68444 10.81363
C 10.75607 -5.14757 11.32965
H 10.78342 -5.13178 12.4447
H 11.98701 -5.9104 9.70042
H 13.26314 -3.72035 9.63476
H 12.06689 -2.93441 12.38091
H 10.72401 -3.70032 9.6986
C 12.03622 -1.49528 10.74474
C 14.57246 -1.51004 10.67594
C 13.32357 -0.7606 11.19329
C 10.78946 -0.74483 11.26601
H 12.00446 -1.51347 9.6299
H 14.54277 -1.53151 9.56107
H 10.82347 -0.72816 12.38111
H 13.3549 -0.74103 12.30835
C 9.49394 -1.47211 10.81997
C 9.49513 -2.93481 11.32993
C 9.46852 -5.88384 10.87558
C 8.26598 -0.70085 11.34184
C 8.22599 -3.68114 10.87738
C 8.23106 -5.12447 11.39005
H 8.25248 -0.69975 12.454
H 9.45227 -1.4844 9.70646
H 9.51519 -2.92239 12.44405
H 8.15017 -3.68258 9.7678
H 8.20999 -5.1226 12.502
H 9.43375 -5.89593 9.76188
C 8.27368 0.7443 10.83128
C 9.5555 1.46459 11.26282
C 10.79362 0.71613 10.74724
C 12.07761 1.44081 11.18633
C 13.32108 0.69785 10.67113
C 14.60478 1.42663 11.10833
H 8.19222 0.75182 9.72308
H 10.75954 0.71186 9.63429
H 13.28765 0.69098 9.55826
H 9.57909 1.53534 12.37273
H 12.1118 1.5096 12.29715
H 14.63799 1.4993 12.21887
C 14.55561 5.89623 11.28582
C 13.2766 5.16026 10.82618
C 12.01976 5.90786 11.33592
H 14.57619 5.9171 12.40095
C 13.28341 3.7013 11.34698
H 13.25552 5.14162 9.71094
C 12.00917 2.97193 10.89138
C 10.75571 3.70944 11.39303
C 10.74145 5.17083 10.87568
H 13.30238 3.70722 12.46023
H 12.04176 5.92558 12.45103
H 10.72084 5.15475 9.76024
H 10.77616 3.71304 12.50635
H 11.98906 2.90422 9.78017
C 14.53785 2.95999 10.84988
H 14.52017 2.88916 9.73892
C 9.47704 5.91126 11.38494
C 9.48603 2.97438 10.93878
C 8.21688 5.15318 10.92411
C 8.23467 3.70764 11.43332
H 9.49026 5.92326 12.49919
H 8.14855 5.15304 9.814
H 8.20792 3.70008 12.5442
H 9.4542 2.90437 9.82902
N -9.13033 -0.56606 4.84342
C -9.18594 -0.38628 6.32793
H -9.36048 -1.37408 6.81439
H -10.05290 0.26391 6.58962
C -7.92298 0.23401 6.97201
H -7.03952 -0.41077 6.78673
H -7.73299 1.24456 6.55600
C -8.10358 0.36969 8.48956
H -8.28700 -0.63001 8.93910
H -8.97529 1.02328 8.70889
C -6.86623 0.97500 9.14205
H -5.97835 0.32864 8.97486
H -6.66905 1.99241 8.74206
C -10.41051 -1.17788 4.41006
H -10.56707 -2.16767 4.89548
H -11.27549 -0.52779 4.67267
H -10.43108 -1.33673 3.30808
C -8.02569 -1.47230 4.44751
H -8.09830 -2.44677 4.98003
H -8.05014 -1.67636 3.35328
H -7.03172 -1.02645 4.66159
C -8.97794 0.73347 4.14606
H -9.03075 0.60185 3.04174
H -9.78068 1.44385 4.44522
H -7.99479 1.20230 4.36036
N 4.76405 -1.39006 -3.27542
C 4.74656 -1.19744 -4.73365
H 3.91548 -0.53644 -5.00492
H 4.61894 -2.16688 -5.22873
C 6.06767 -0.56606 -5.18086
H 6.82166 -1.18463 -4.91063
H 6.17168 0.32094 -4.70488
C 6.01206 -0.38628 -6.66537
H 5.83752 -1.37408 -7.15183
H 5.14510 0.26391 -6.92706
C 7.27502 0.23401 -7.30945
H 8.15848 -0.41077 -7.12417
H 7.46501 1.24456 -6.89344
C 7.09442 0.36969 -8.82700
H 6.92270 -0.68441 -9.13442
H 6.20690 1.03511 -8.89550
C 8.33177 0.97500 -9.47949
H 9.21965 0.32864 -9.31230
H 8.52895 1.99241 -9.07950
C 3.49471 -1.99666 -2.84572
H 3.50775 -2.14020 -1.75924
H 2.66364 -1.33563 -3.11697
H 3.36704 -2.96609 -3.34082
C 5.87951 -2.27723 -2.91138
H 6.82524 -1.82526 -3.23160
H 5.89256 -2.42072 -1.82490
H 5.75179 -3.24667 -3.40644
C 4.93542 -0.08890 -2.61100
H 5.88117 0.36304 -2.93120
H 4.10432 0.57208 -2.88228
H 4.94845 -0.23241 -1.52452
