1090

C        -10.77113       -5.95009      -10.99777
C         -8.23262       -5.96301      -10.94363
C         -9.48802       -5.21492      -11.45393
H         -8.25563       -5.98405       -9.82860
H         -8.18026       -3.00151      -12.49869
C         -8.20742       -3.02312      -11.38372
C         -9.49258       -3.75816      -10.93207
H         -9.46327       -5.19546      -12.56897
C        -10.74492       -3.00970      -11.44838
C        -12.03205       -3.74175      -10.99601
C        -12.02714       -5.20488      -11.51203
H        -11.99979       -5.18909      -12.62708
H        -10.79620       -5.96771       -9.88280
H         -9.52007       -3.77766       -9.81714
H        -10.71632       -2.99172      -12.56329
H        -12.05920       -3.75763       -9.88098
C        -10.74699       -1.55259      -10.92712
C         -8.21075       -1.56735      -10.85832
C         -9.45964       -0.81791      -11.37567
C        -11.99375       -0.80214      -11.44839
H        -10.77875       -1.57078       -9.81228
H         -8.24044       -1.58882       -9.74345
H        -11.95974       -0.78547      -12.56349
H         -9.42831       -0.79834      -12.49073
C        -13.28927       -1.52942      -11.00235
C        -13.28808       -2.99212      -11.51231
C        -13.31469       -5.94115      -11.05796
C        -14.51723       -0.75816      -11.52422
C        -14.55722       -3.73845      -11.05976
C        -14.55215       -5.18178      -11.57243
H        -14.53073       -0.75706      -12.63638
H        -13.33094       -1.54171       -9.88884
H        -13.26802       -2.97970      -12.62643
H        -14.63304       -3.73989       -9.95018
H        -14.57322       -5.17991      -12.68438
H        -13.34946       -5.95324       -9.94426
C        -14.50953        0.68699      -11.01366
C        -13.22771        1.40728      -11.44520
C        -11.98959        0.65882      -10.92962
C        -10.70560        1.38350      -11.36871
C         -9.46213        0.64054      -10.85351
C         -8.17843        1.36932      -11.29071
H        -14.59099        0.69451       -9.90546
H        -12.02367        0.65455       -9.81667
H         -9.49556        0.63367       -9.74064
H        -13.20412        1.47803      -12.55511
H        -10.67141        1.45229      -12.47953
H         -8.14522        1.44199      -12.40125
C         -8.22760        5.83892      -11.46820
C         -9.50661        5.10295      -11.00856
C        -10.76345        5.85055      -11.51830
H         -8.20702        5.85979      -12.58333
C         -9.49980        3.64399      -11.52936
H         -9.52769        5.08431       -9.89332
C        -10.77404        2.91462      -11.07376
C        -12.02750        3.65213      -11.57541
C        -12.04176        5.11352      -11.05806
H         -9.48083        3.64991      -12.64261
H        -10.74145        5.86827      -12.63341
H        -12.06237        5.09744       -9.94262
H        -12.00705        3.65573      -12.68873
H        -10.79415        2.84691       -9.96255
C         -8.24536        2.90268      -11.03226
H         -8.26304        2.83185       -9.92130
C        -13.30617        5.85395      -11.56732
C        -13.29718        2.91707      -11.12116
C        -14.56633        5.09587      -11.10649
C        -14.54854        3.65033      -11.61570
H        -13.29295        5.86595      -12.68157
H        -14.63466        5.09573       -9.99638
H        -14.57529        3.64277      -12.72658
H        -13.32901        2.84706      -10.01140
C         -3.17213       -5.95009      -10.99777
C         -0.63362       -5.96301      -10.94363
C         -1.88902       -5.21492      -11.45393
H         -0.65663       -5.98405       -9.82860
H         -0.58126       -3.00151      -12.49869
C         -0.60842       -3.02312      -11.38372
C         -1.89358       -3.75816      -10.93207
H         -1.86427       -5.19546      -12.56897
C         -3.14592       -3.00970      -11.44838
C         -4.43305       -3.74175      -10.99601
C         -4.42814       -5.20488      -11.51203
H         -4.40079       -5.18909      -12.62708
H         -3.19720       -5.96771       -9.88280
H         -1.92107       -3.77766       -9.81714
H         -3.11732       -2.99172      -12.56329
H         -4.46020       -3.75763       -9.88098
C         -3.14799       -1.55259      -10.92712
C         -0.61175       -1.56735      -10.85832
C         -1.86064       -0.81791      -11.37567
C         -4.39475       -0.80214      -11.44839
H         -3.17975       -1.57078       -9.81228
H         -0.64144       -1.58882       -9.74345
H         -4.36074       -0.78547      -12.56349
H         -1.82931       -0.79834      -12.49073
C         -5.69027       -1.52942      -11.00235
C         -5.68908       -2.99212      -11.51231
C         -5.71569       -5.94115      -11.05796
C         -6.91823       -0.75816      -11.52422
C         -6.95822       -3.73845      -11.05976
C         -6.95315       -5.18178      -11.57243
H         -6.93173       -0.75706      -12.63638
H         -5.73194       -1.54171       -9.88884
H         -5.66902       -2.97970      -12.62643
H         -7.03404       -3.73989       -9.95018
H         -6.97422       -5.17991      -12.68438
H         -5.75046       -5.95324       -9.94426
C         -6.91053        0.68699      -11.01366
C         -5.62871        1.40728      -11.44520
C         -4.39059        0.65882      -10.92962
C         -3.10660        1.38350      -11.36871
C         -1.86313        0.64054      -10.85351
C         -0.57943        1.36932      -11.29071
H         -6.99199        0.69451       -9.90546
H         -4.42467        0.65455       -9.81667
H         -1.89656        0.63367       -9.74064
H         -5.60512        1.47803      -12.55511
H         -3.07241        1.45229      -12.47953
H         -0.54622        1.44199      -12.40125
C         -0.62860        5.83892      -11.46820
C         -1.90761        5.10295      -11.00856
C         -3.16445        5.85055      -11.51830
H         -0.60802        5.85979      -12.58333
C         -1.90080        3.64399      -11.52936
H         -1.92869        5.08431       -9.89332
C         -3.17504        2.91462      -11.07376
C         -4.42850        3.65213      -11.57541
C         -4.44276        5.11352      -11.05806
H         -1.88183        3.64991      -12.64261
H         -3.14245        5.86827      -12.63341
H         -4.46337        5.09744       -9.94262
H         -4.40805        3.65573      -12.68873
H         -3.19515        2.84691       -9.96255
C         -0.64636        2.90268      -11.03226
H         -0.66404        2.83185       -9.92130
C         -5.70717        5.85395      -11.56732
C         -5.69818        2.91707      -11.12116
C         -6.96733        5.09587      -11.10649
C         -6.94954        3.65033      -11.61570
H         -5.69395        5.86595      -12.68157
H         -7.03566        5.09573       -9.99638
H         -6.97629        3.64277      -12.72658
H         -5.73001        2.84706      -10.01140
C          4.42687       -5.95009      -10.99777
C          6.96538       -5.96301      -10.94363
C          5.70998       -5.21492      -11.45393
H          6.94237       -5.98405       -9.82860
H          7.01774       -3.00151      -12.49869
C          6.99058       -3.02312      -11.38372
C          5.70542       -3.75816      -10.93207
H          5.73473       -5.19546      -12.56897
C          4.45308       -3.00970      -11.44838
C          3.16595       -3.74175      -10.99601
C          3.17086       -5.20488      -11.51203
H          3.19821       -5.18909      -12.62708
H          4.40180       -5.96771       -9.88280
H          5.67793       -3.77766       -9.81714
H          4.48168       -2.99172      -12.56329
H          3.13880       -3.75763       -9.88098
C          4.45101       -1.55259      -10.92712
C          6.98725       -1.56735      -10.85832
C          5.73836       -0.81791      -11.37567
C          3.20425       -0.80214      -11.44839
H          4.41925       -1.57078       -9.81228
H          6.95756       -1.58882       -9.74345
H          3.23826       -0.78547      -12.56349
H          5.76969       -0.79834      -12.49073
C          1.90873       -1.52942      -11.00235
C          1.90992       -2.99212      -11.51231
C          1.88331       -5.94115      -11.05796
C          0.68077       -0.75816      -11.52422
C          0.64078       -3.73845      -11.05976
C          0.64585       -5.18178      -11.57243
H          0.66727       -0.75706      -12.63638
H          1.86706       -1.54171       -9.88884
H          1.92998       -2.97970      -12.62643
H          0.56496       -3.73989       -9.95018
H          0.62478       -5.17991      -12.68438
H          1.84854       -5.95324       -9.94426
C          0.68847        0.68699      -11.01366
C          1.97029        1.40728      -11.44520
C          3.20841        0.65882      -10.92962
C          4.49240        1.38350      -11.36871
C          5.73587        0.64054      -10.85351
C          7.01957        1.36932      -11.29071
H          0.60701        0.69451       -9.90546
H          3.17433        0.65455       -9.81667
H          5.70244        0.63367       -9.74064
H          1.99388        1.47803      -12.55511
H          4.52659        1.45229      -12.47953
H          7.05278        1.44199      -12.40125
C          6.97040        5.83892      -11.46820
C          5.69139        5.10295      -11.00856
C          4.43455        5.85055      -11.51830
H          6.99098        5.85979      -12.58333
C          5.69820        3.64399      -11.52936
H          5.67031        5.08431       -9.89332
C          4.42396        2.91462      -11.07376
C          3.17050        3.65213      -11.57541
C          3.15624        5.11352      -11.05806
H          5.71717        3.64991      -12.64261
H          4.45655        5.86827      -12.63341
H          3.13563        5.09744       -9.94262
H          3.19095        3.65573      -12.68873
H          4.40385        2.84691       -9.96255
C          6.95264        2.90268      -11.03226
H          6.93496        2.83185       -9.92130
C          1.89183        5.85395      -11.56732
C          1.90082        2.91707      -11.12116
C          0.63167        5.09587      -11.10649
C          0.64946        3.65033      -11.61570
H          1.90505        5.86595      -12.68157
H          0.56334        5.09573       -9.99638
H          0.62271        3.64277      -12.72658
H          1.86899        2.84706      -10.01140
C         12.02587       -5.95009      -10.99777
C         14.56438       -5.96301      -10.94363
C         13.30898       -5.21492      -11.45393
H         14.54137       -5.98405       -9.82860
H         14.61674       -3.00151      -12.49869
C         14.58958       -3.02312      -11.38372
C         13.30442       -3.75816      -10.93207
H         13.33373       -5.19546      -12.56897
C         12.05208       -3.00970      -11.44838
C         10.76495       -3.74175      -10.99601
C         10.76986       -5.20488      -11.51203
H         10.79721       -5.18909      -12.62708
H         12.00080       -5.96771       -9.88280
H         13.27693       -3.77766       -9.81714
H         12.08068       -2.99172      -12.56329
H         10.73780       -3.75763       -9.88098
C         12.05001       -1.55259      -10.92712
C         14.58625       -1.56735      -10.85832
C         13.33736       -0.81791      -11.37567
C         10.80325       -0.80214      -11.44839
H         12.01825       -1.57078       -9.81228
H         14.55656       -1.58882       -9.74345
H         10.83726       -0.78547      -12.56349
H         13.36869       -0.79834      -12.49073
C          9.50773       -1.52942      -11.00235
C          9.50892       -2.99212      -11.51231
C          9.48231       -5.94115      -11.05796
C          8.27977       -0.75816      -11.52422
C          8.23978       -3.73845      -11.05976
C          8.24485       -5.18178      -11.57243
H          8.26627       -0.75706      -12.63638
H          9.46606       -1.54171       -9.88884
H          9.52898       -2.97970      -12.62643
H          8.16396       -3.73989       -9.95018
H          8.22378       -5.17991      -12.68438
H          9.44754       -5.95324       -9.94426
C          8.28747        0.68699      -11.01366
C          9.56929        1.40728      -11.44520
C         10.80741        0.65882      -10.92962
C         12.09140        1.38350      -11.36871
C         13.33487        0.64054      -10.85351
C         14.61857        1.36932      -11.29071
H         10.77333        0.65455       -9.81667
H         13.30144        0.63367       -9.74064
H          9.59288        1.47803      -12.55511
H         12.12559        1.45229      -12.47953
H         14.65178        1.44199      -12.40125
C         14.56940        5.83892      -11.46820
C         13.29039        5.10295      -11.00856
C         12.03355        5.85055      -11.51830
H         14.58998        5.85979      -12.58333
C         13.29720        3.64399      -11.52936
H         13.26931        5.08431       -9.89332
C         12.02296        2.91462      -11.07376
C         10.76950        3.65213      -11.57541
C         10.75524        5.11352      -11.05806
H         13.31617        3.64991      -12.64261
H         12.05555        5.86827      -12.63341
H         10.73463        5.09744       -9.94262
H         10.78995        3.65573      -12.68873
H         12.00285        2.84691       -9.96255
C         14.55164        2.90268      -11.03226
H         14.53396        2.83185       -9.92130
C          9.49083        5.85395      -11.56732
C          9.49982        2.91707      -11.12116
C          8.23067        5.09587      -11.10649
C          8.24846        3.65033      -11.61570
H          9.50405        5.86595      -12.68157
H          8.16234        5.09573       -9.99638
H          8.22171        3.64277      -12.72658
H          9.46799        2.84706      -10.01140
C        -10.77113       -5.95009       10.63301
C         -8.23262       -5.96301       10.57887
C         -9.48802       -5.21492       11.08917
H         -8.25563       -5.98405        9.46384
H         -8.18026       -3.00151       12.13393
C         -8.20742       -3.02312       11.01896
C         -9.49258       -3.75816       10.56731
H         -9.46327       -5.19546       12.20421
C        -10.74492       -3.00970       11.08362
C        -12.03205       -3.74175       10.63125
C        -12.02714       -5.20488       11.14727
H        -11.99979       -5.18909       12.26232
H        -10.79620       -5.96771        9.51804
H         -9.52007       -3.77766        9.45238
H        -10.71632       -2.99172       12.19853
H        -12.05920       -3.75763        9.51622
C        -10.74699       -1.55259       10.56236
C         -8.21075       -1.56735       10.49356
C         -9.45964       -0.81791       11.01091
C        -11.99375       -0.80214       11.08363
H        -10.77875       -1.57078        9.44752
H         -8.24044       -1.58882        9.37869
H        -11.95974       -0.78547       12.19873
H         -9.42831       -0.79834       12.12597
C        -13.28927       -1.52942       10.63759
C        -13.28808       -2.99212       11.14755
C        -13.31469       -5.94115       10.69320
C        -14.51723       -0.75816       11.15946
C        -14.55722       -3.73845       10.69500
C        -14.55215       -5.18178       11.20767
H        -14.53073       -0.75706       12.27162
H        -13.33094       -1.54171        9.52408
H        -13.26802       -2.97970       12.26167
H        -14.63304       -3.73989        9.58542
H        -14.57322       -5.17991       12.31962
H        -13.34946       -5.95324        9.57950
C        -14.50953        0.68699       10.64890
C        -13.22771        1.40728       11.08044
C        -11.98959        0.65882       10.56486
C        -10.70560        1.38350       11.00395
C         -9.46213        0.64054       10.48875
C         -8.17843        1.36932       10.92595
H        -14.59099        0.69451        9.54070
H        -12.02367        0.65455        9.45191
H         -9.49556        0.63367        9.37588
H        -13.20412        1.47803       12.19035
H        -10.67141        1.45229       12.11477
H         -8.14522        1.44199       12.03649
C         -8.22760        5.83892       11.10344
C         -9.50661        5.10295       10.64380
C        -10.76345        5.85055       11.15354
H         -8.20702        5.85979       12.21857
C         -9.49980        3.64399       11.16460
H         -9.52769        5.08431        9.52856
C        -10.77404        2.91462       10.70900
C        -12.02750        3.65213       11.21065
C        -12.04176        5.11352       10.69330
H         -9.48083        3.64991       12.27785
H        -10.74145        5.86827       12.26865
H        -12.06237        5.09744        9.57786
H        -12.00705        3.65573       12.32397
H        -10.79415        2.84691        9.59779
C         -8.24536        2.90268       10.66750
H         -8.26304        2.83185        9.55654
C        -13.30617        5.85395       11.20256
C        -13.29718        2.91707       10.75640
C        -14.56633        5.09587       10.74173
C        -14.54854        3.65033       11.25094
H        -13.29295        5.86595       12.31681
H        -14.63466        5.09573        9.63162
H        -14.57529        3.64277       12.36182
H        -13.32901        2.84706        9.64664
C         -3.17213       -5.95009       10.63301
C         -0.63362       -5.96301       10.57887
C         -1.88902       -5.21492       11.08917
H         -0.65663       -5.98405        9.46384
H         -0.58126       -3.00151       12.13393
C         -0.60842       -3.02312       11.01896
C         -1.89358       -3.75816       10.56731
H         -1.86427       -5.19546       12.20421
C         -3.14592       -3.00970       11.08362
C         -4.43305       -3.74175       10.63125
C         -4.42814       -5.20488       11.14727
H         -4.40079       -5.18909       12.26232
H         -3.19720       -5.96771        9.51804
H         -1.92107       -3.77766        9.45238
H         -3.11732       -2.99172       12.19853
H         -4.46020       -3.75763        9.51622
C         -3.14799       -1.55259       10.56236
C         -0.61175       -1.56735       10.49356
C         -1.86064       -0.81791       11.01091
C         -4.39475       -0.80214       11.08363
H         -3.17975       -1.57078        9.44752
H         -0.64144       -1.58882        9.37869
H         -4.36074       -0.78547       12.19873
H         -1.82931       -0.79834       12.12597
C         -5.69027       -1.52942       10.63759
C         -5.68908       -2.99212       11.14755
C         -5.71569       -5.94115       10.69320
C         -6.91823       -0.75816       11.15946
C         -6.95822       -3.73845       10.69500
C         -6.95315       -5.18178       11.20767
H         -6.93173       -0.75706       12.27162
H         -5.73194       -1.54171        9.52408
H         -5.66902       -2.97970       12.26167
H         -7.03404       -3.73989        9.58542
H         -6.97422       -5.17991       12.31962
H         -5.75046       -5.95324        9.57950
C         -6.91053        0.68699       10.64890
C         -5.62871        1.40728       11.08044
C         -4.39059        0.65882       10.56486
C         -3.10660        1.38350       11.00395
C         -1.86313        0.64054       10.48875
C         -0.57943        1.36932       10.92595
H         -4.42467        0.65455        9.45191
H         -1.89656        0.63367        9.37588
H         -5.60512        1.47803       12.19035
H         -3.07241        1.45229       12.11477
H         -0.54622        1.44199       12.03649
C         -0.62860        5.83892       11.10344
C         -1.90761        5.10295       10.64380
C         -3.16445        5.85055       11.15354
H         -0.60802        5.85979       12.21857
C         -1.90080        3.64399       11.16460
H         -1.92869        5.08431        9.52856
C         -3.17504        2.91462       10.70900
C         -4.42850        3.65213       11.21065
C         -4.44276        5.11352       10.69330
H         -1.88183        3.64991       12.27785
H         -3.14245        5.86827       12.26865
H         -4.46337        5.09744        9.57786
H         -4.40805        3.65573       12.32397
H         -3.19515        2.84691        9.59779
C         -0.64636        2.90268       10.66750
H         -0.66404        2.83185        9.55654
C         -5.70717        5.85395       11.20256
C         -5.69818        2.91707       10.75640
C         -6.96733        5.09587       10.74173
C         -6.94954        3.65033       11.25094
H         -5.69395        5.86595       12.31681
H         -7.03566        5.09573        9.63162
H         -6.97629        3.64277       12.36182
H         -5.73001        2.84706        9.64664
C          4.42687       -5.95009       10.63301
C          6.96538       -5.96301       10.57887
C          5.70998       -5.21492       11.08917
H          6.94237       -5.98405        9.46384
H          7.01774       -3.00151       12.13393
C          6.99058       -3.02312       11.01896
C          5.70542       -3.75816       10.56731
H          5.73473       -5.19546       12.20421
C          4.45308       -3.00970       11.08362
C          3.16595       -3.74175       10.63125
C          3.17086       -5.20488       11.14727
H          3.19821       -5.18909       12.26232
H          4.40180       -5.96771        9.51804
H          5.67793       -3.77766        9.45238
H          4.48168       -2.99172       12.19853
H          3.13880       -3.75763        9.51622
C          4.45101       -1.55259       10.56236
C          6.98725       -1.56735       10.49356
C          5.73836       -0.81791       11.01091
C          3.20425       -0.80214       11.08363
H          4.41925       -1.57078        9.44752
H          6.95756       -1.58882        9.37869
H          3.23826       -0.78547       12.19873
H          5.76969       -0.79834       12.12597
C          1.90873       -1.52942       10.63759
C          1.90992       -2.99212       11.14755
C          1.88331       -5.94115       10.69320
C          0.68077       -0.75816       11.15946
C          0.64078       -3.73845       10.69500
C          0.64585       -5.18178       11.20767
H          0.66727       -0.75706       12.27162
H          1.86706       -1.54171        9.52408
H          1.92998       -2.97970       12.26167
H          0.56496       -3.73989        9.58542
H          0.62478       -5.17991       12.31962
H          1.84854       -5.95324        9.57950
C          0.68847        0.68699       10.64890
C          1.97029        1.40728       11.08044
C          3.20841        0.65882       10.56486
C          4.49240        1.38350       11.00395
C          5.73587        0.64054       10.48875
C          7.01957        1.36932       10.92595
H          0.60701        0.69451        9.54070
H          3.17433        0.65455        9.45191
H          5.70244        0.63367        9.37588
H          1.99388        1.47803       12.19035
H          4.52659        1.45229       12.11477
H          7.05278        1.44199       12.03649
C          6.97040        5.83892       11.10344
C          5.69139        5.10295       10.64380
C          4.43455        5.85055       11.15354
H          6.99098        5.85979       12.21857
C          5.69820        3.64399       11.16460
H          5.67031        5.08431        9.52856
C          4.42396        2.91462       10.70900
C          3.17050        3.65213       11.21065
C          3.15624        5.11352       10.69330
H          5.71717        3.64991       12.27785
H          4.45655        5.86827       12.26865
H          3.13563        5.09744        9.57786
H          3.19095        3.65573       12.32397
H          4.40385        2.84691        9.59779
C          6.95264        2.90268       10.66750
H          6.93496        2.83185        9.55654
C          1.89183        5.85395       11.20256
C          1.90082        2.91707       10.75640
C          0.63167        5.09587       10.74173
C          0.64946        3.65033       11.25094
H          1.90505        5.86595       12.31681
H          0.56334        5.09573        9.63162
H          0.62271        3.64277       12.36182
H          1.86899        2.84706        9.64664
C         12.02587       -5.95009       10.63301
C         14.56438       -5.96301       10.57887
C         13.30898       -5.21492       11.08917
H         14.54137       -5.98405        9.46384
H         14.61674       -3.00151       12.13393
C         14.58958       -3.02312       11.01896
C         13.30442       -3.75816       10.56731
H         13.33373       -5.19546       12.20421
C         12.05208       -3.00970       11.08362
C         10.76495       -3.74175       10.63125
C         10.76986       -5.20488       11.14727
H         10.79721       -5.18909       12.26232
H         12.00080       -5.96771        9.51804
H         13.27693       -3.77766        9.45238
H         12.08068       -2.99172       12.19853
H         10.73780       -3.75763        9.51622
C         12.05001       -1.55259       10.56236
C         14.58625       -1.56735       10.49356
C         13.33736       -0.81791       11.01091
C         10.80325       -0.80214       11.08363
H         12.01825       -1.57078        9.44752
H         14.55656       -1.58882        9.37869
H         10.83726       -0.78547       12.19873
H         13.36869       -0.79834       12.12597
C          9.50773       -1.52942       10.63759
C          9.50892       -2.99212       11.14755
C          9.48231       -5.94115       10.69320
C          8.27977       -0.75816       11.15946
C          8.23978       -3.73845       10.69500
C          8.24485       -5.18178       11.20767
H          8.26627       -0.75706       12.27162
H          9.46606       -1.54171        9.52408
H          9.52898       -2.97970       12.26167
H          8.16396       -3.73989        9.58542
H          8.22378       -5.17991       12.31962
H          9.44754       -5.95324        9.57950
C          8.28747        0.68699       10.64890
C          9.56929        1.40728       11.08044
C         10.80741        0.65882       10.56486
C         12.09140        1.38350       11.00395
C         13.33487        0.64054       10.48875
C         14.61857        1.36932       10.92595
H          8.20601        0.69451        9.54070
H         10.77333        0.65455        9.45191
H         13.30144        0.63367        9.37588
H          9.59288        1.47803       12.19035
H         12.12559        1.45229       12.11477
H         14.65178        1.44199       12.03649
C         14.56940        5.83892       11.10344
C         13.29039        5.10295       10.64380
C         12.03355        5.85055       11.15354
H         14.58998        5.85979       12.21857
C         13.29720        3.64399       11.16460
H         13.26931        5.08431        9.52856
C         12.02296        2.91462       10.70900
C         10.76950        3.65213       11.21065
C         10.75524        5.11352       10.69330
H         13.31617        3.64991       12.27785
H         12.05555        5.86827       12.26865
H         10.73463        5.09744        9.57786
H         10.78995        3.65573       12.32397
H         12.00285        2.84691        9.59779
C         14.55164        2.90268       10.66750
H         14.53396        2.83185        9.55654
C          9.49083        5.85395       11.20256
C          9.49982        2.91707       10.75640
C          8.23067        5.09587       10.74173
C          8.24846        3.65033       11.25094
H          9.50405        5.86595       12.31681
H          8.16234        5.09573        9.63162
H          8.22171        3.64277       12.36182
H          9.46799        2.84706        9.64664
N        -10.42309       -1.45899        2.84066
C        -10.44058       -1.26637        4.29889
H        -11.27166       -0.60537        4.57016
H        -10.56820       -2.23581        4.79397
C         -9.11947       -0.63499        4.74610
H         -8.36548       -1.25356        4.47587
H         -9.01546        0.25201        4.27011
C         -9.17508       -0.45521        6.23061
H         -9.34962       -1.44301        6.71707
H        -10.04204        0.19498        6.49230
C         -7.91212        0.16508        6.87469
H         -7.02866       -0.47970        6.68941
H         -7.72213        1.17563        6.45868
C         -8.09272        0.30076        8.39224
H         -8.26444       -0.75334        8.69966
H         -8.98024        0.96618        8.46074
C         -6.85537        0.90607        9.04473
H         -5.96749        0.25971        8.87754
H         -6.65819        1.92348        8.64474
C        -11.69244       -2.06559        2.41096
H        -11.67940       -2.20913        1.32448
H        -12.52350       -1.40456        2.68221
H        -11.82010       -3.03502        2.90606
C         -9.30763       -2.34616        2.47662
H         -8.36190       -1.89419        2.79684
H         -9.29458       -2.48965        1.39014
H         -9.43535       -3.31560        2.97168
C        -10.25172       -0.15783        2.17624
H         -9.30597        0.29411        2.49644
H        -11.08282        0.50315        2.44752
H        -10.23869       -0.30134        1.08976
N          4.77784       -1.44737       -3.45780
C          4.76035       -1.25475       -4.91603
H          3.92927       -0.59375       -5.18730
H          4.63273       -2.22419       -5.41111
C          6.08146       -0.62337       -5.36324
H          6.83545       -1.24194       -5.09301
H          6.18547        0.26363       -4.88726
C          6.02585       -0.44359       -6.84775
H          5.85131       -1.43139       -7.33421
H          5.15889        0.20660       -7.10944
C          7.28881        0.17670       -7.49183
H          8.17227       -0.46808       -7.30655
H          7.47880        1.18725       -7.07582
C          7.10821        0.31238       -9.00938
H          6.93843       -0.72710       -9.31249
H          6.23306        0.96871       -9.07693
C          8.34556        0.91769       -9.66187
H          9.23344        0.27133       -9.49468
H          8.54274        1.93510       -9.26188
C          3.50850       -2.05397       -3.02810
H          3.52154       -2.19751       -1.94162
H          2.67743       -1.39294       -3.29935
H          3.38083       -3.02340       -3.52320
C          5.89330       -2.33454       -3.09376
H          6.83903       -1.88257       -3.41398
H          5.90635       -2.47803       -2.00728
H          5.76558       -3.30398       -3.58882
C          4.94921       -0.14621       -2.79338
H          5.89496        0.30573       -3.11358
H          4.11811        0.51477       -3.06466
H          4.96224       -0.28972       -1.70690
O         -6.42988       -3.26206       -3.87060
H         -6.51862       -4.15435       -4.20783
H         -6.00843       -3.36077       -3.01596
O         -4.90963        0.98671        3.37949
H         -5.13901        0.06104        3.28850
H         -5.29996        1.41502        2.61663
O          7.53856       -0.10179        1.51109
H          7.57755       -1.05751        1.56427
H          7.13305        0.08300        0.66304
O          2.71327        1.96921       -3.99475
H          2.48389        1.04354       -4.08574
H          2.32294        2.39752       -4.75761
O          8.47364       -0.89463        4.78913
H          8.24426       -1.82030        4.69814
H          8.08331       -0.46632        4.02627
O         10.86778        0.64998       -4.14041
H         10.63840       -0.27569       -4.23140
H         10.47745        1.07829       -4.90327
O         10.35201       -0.56760        0.79134
H         10.68401       -1.08282        0.05508
H          9.83493        0.13244        0.39092
O          5.17515       -0.19487        4.14175
H          6.07909       -0.49877        4.23283
H          4.83253       -0.66118        3.37826
O          4.68889        0.46088        1.27802
H          4.67758       -0.44194        0.95777
H          4.26576        0.97389        0.58842
O         -6.85647        3.21306       -3.10317
H         -7.58294        2.58865       -3.09196
H         -7.04797        3.80316       -3.83314
O         -0.76186        2.34882       -3.78623
H         -1.51691        1.76610       -3.87623
H         -0.88392        3.01868       -4.46013
O         -2.19040        0.83953        4.86876
H         -2.99025        0.31357        4.83181
H         -2.27858        1.47521        4.15749
O          2.01422       -0.04791        4.36852
H          2.72548       -0.20667        3.74669
H          1.37030        0.46840        3.88216
O          1.33687        0.97423        1.03161
H          0.59956        0.37912        1.17292
H          1.10495        1.47471        0.24835
O         -2.91310        1.17756        1.63988
H         -2.88633        1.91238        1.02581
H         -2.73484        1.56476        2.49781
O        -10.94766        3.53575       -2.77256
H        -11.17704        2.61008       -2.86355
H        -11.33799        3.96406       -3.53542
O        -10.91440        3.50812        0.51420
H        -10.45056        3.02542       -0.17108
H        -11.47369        4.12860        0.04519
O        -12.15707        3.28193        2.82844
H        -12.96410        3.09159        3.30826
H        -12.44630        3.65739        1.99588
O        -12.58990        2.83676        5.57254
H        -11.91223        2.41811        5.04031
H        -13.17518        3.25827        4.94204
O         -2.63865       -2.88517       -5.82992
H         -3.42155       -3.42510       -5.71454
H         -1.90390       -3.49618       -5.76221
O         -4.94689       -3.99096       -5.51882
H         -5.53159       -4.59409       -5.05826
H         -4.39763       -4.55019       -6.06958
O         -1.38502       -1.65888        0.10504
H         -1.61440       -2.58455        0.01405
H         -1.77535       -1.23057       -0.65782
O         -7.39014       -3.88685        2.66126
H         -7.61952       -4.81252        2.57027
H         -7.78047       -3.45854        1.89840
O         12.93369       -0.86929        5.41676
H         12.70431       -1.79496        5.32577
H         12.54336       -0.44098        4.65390
O         12.47076       -1.18053       -2.16715
H         12.24138       -2.10620       -2.25814
H         12.08043       -0.75222       -2.93001
O          2.19967        4.15443        4.58088
H          1.35464        3.75950        4.36244
H          2.50672        4.55047        3.76441
O          1.21203       -3.79196        5.05660
H          1.74883       -3.60760        4.28485
H          0.32187       -3.90004        4.71940
O          7.69599        3.13234        1.26233
H          8.36506        2.55479        0.89282
H          7.02465        3.20092        0.58235
O         11.36754        3.99691       -5.59614
H         11.13816        3.07124       -5.68713
H         10.97721        4.42522       -6.35900
O         -8.99662       -4.26463       -2.33545
H         -9.89200       -4.02877       -2.58124
H         -8.43620       -3.75874       -2.92517
O         12.05005        2.54218        2.85241
H         11.82067        1.61651        2.76142
H         11.65972        2.97049        2.08955
O          4.07058        1.28445        5.86511
H          4.92994        0.86306        5.90622
H          3.44022        0.56307        5.86987
O         -9.68736        1.39018       -6.04732
H         -9.16205        0.65868       -5.72064
H        -10.58331        1.05344       -6.08773
O          3.91775        0.87881       -5.59626
H          4.01427        0.47653       -6.46032
H          3.20181        1.50778       -5.69417
O        -12.42747        1.20992       -4.05975
H        -12.65685        0.28425       -4.15074
H        -12.81780        1.63823       -4.82261
O          0.75052        3.03287        2.61612
H          1.19438        2.89725        3.45418
H          1.45098        3.23369        1.99420
O          0.90809        3.80424        0.00298
H          1.58688        3.35916        0.51181
H          1.26492        3.86833       -0.88377
O          3.75633        4.32140        3.08184
H          4.19379        3.88395        3.81329
H          4.25093        4.05914        2.30444
O          9.76743        1.07687        4.07790
H          9.53805        0.15120        3.98691
H          9.37710        1.50518        3.31504
O          1.83095       -2.41583        1.85183
H          1.60157       -3.34150        1.76084
H          1.44062       -1.98752        1.08897
O         -3.15658       -2.89326        2.99783
H         -3.38596       -3.81893        2.90684
H         -3.54691       -2.46495        2.23497
O         -5.22400        0.01759        4.86891
H         -5.78448        0.54967        4.30277
H         -4.51991        0.60593        5.14437
O         -4.85913       -3.22420       -0.18333
H         -5.29275       -3.66822       -0.91311
H         -5.46926       -2.53659        0.08631
O         -8.86672       -3.90791        0.76349
H         -9.09610       -4.83358        0.67250
H         -9.25705       -3.47960        0.00063
O         12.90103        0.81220       -5.47197
H         13.05324        0.47645       -4.58774
H         12.81067        0.03244       -6.02113
O         -2.09252        1.17464       -1.85323
H         -2.32190        0.24897       -1.94422
H         -2.48285        1.60295       -2.61609
O         10.59196        3.75508        0.23934
H          9.94004        3.37370       -0.34999
H         10.26876        3.56732        1.12141
O         -1.31989       -1.37438       -3.79690
H         -1.78802       -1.96148       -3.20199
H         -1.04897       -1.92855       -4.52988
O        -11.28046       -1.12269       -1.17981
H        -11.55315       -1.66910       -0.44168
H        -11.52775       -1.61948       -1.96072
O         -7.23565        0.22897       -0.91848
H         -7.02453        0.75883       -1.68817
H         -7.97149        0.67918       -0.50180
O         -0.38012        1.00715        5.10760
H          0.47973        1.26657        5.44093
H         -0.96906        1.71936        5.35993
O          8.40969        1.55199        5.84276
H          8.12617        2.42864        5.58034
H          9.36670        1.59388        5.85388
O         -4.65190       -4.54001        2.48852
H         -5.60000       -4.63917        2.58353
H         -4.53055       -4.12298        1.63463
O          4.68357       -2.99735        0.62987
H          4.45419       -3.92302        0.53888
H          4.29324       -2.56904       -0.13299
O          7.57120       -3.40149        3.47383
H          8.41811       -3.39280        3.92154
H          7.09207       -2.65473        3.83514
O         10.12089        1.16910       -1.40660
H         10.47976        1.33686       -2.27885
H          9.17365        1.27424       -1.50379
O         -0.63157        0.49862        3.13148
H         -1.54679        0.50133        3.41452
H         -0.64088        0.89278        2.25837
O         -0.56192        4.27591       -4.43577
H         -1.08729        4.62011       -5.15914
H         -0.97349        4.62297       -3.64335
O          0.03911        3.65177        5.69618
H         -0.11116        2.72263        5.51765
H         -0.26286        4.10742        4.90945
O         12.71404        0.71614        0.49990
H         12.48466       -0.20953        0.40891
H         12.32371        1.14445       -0.26296
O          6.36047        1.25372        2.59913
H          6.68682        1.93336        3.19019
H          6.77315        0.44357        2.90097
O         -1.19559       -2.42873        5.23392
H         -1.92456       -2.99814        5.48319
H         -1.60177       -1.59193        5.00470
O         -4.50536        3.42448        4.42683
H         -3.67826        2.98376        4.22830
H         -4.98546        3.43585        3.59789
O         -6.77393        1.91814        3.28806
H         -6.20454        2.58297        3.67737
H         -7.49927        2.40923        2.90015
O          5.98980        3.04384       -5.70642
H          6.14664        2.10068       -5.76648
H          5.04441        3.14589       -5.82302
O          6.08743        2.45607        4.59941
H          6.99368        2.52961        4.29763
H          5.86134        1.53250        4.48250
O         -3.31810       -0.47722       -3.90706
H         -3.43820       -0.24798       -2.98468
H         -3.08854        0.34630       -4.33936
O         -3.77200        4.03108       -4.94591
H         -3.94061        3.99998       -4.00338
H         -2.96562        3.52901       -5.07023
O         -2.70705        3.88134       -2.25673
H         -3.48995        3.34142       -2.14135
H         -1.97230        3.27034       -2.18902
O          3.14668       -3.92043       -6.01757
H          2.36379       -4.46035       -5.90219
H          3.88143       -4.53143       -5.94986
O          2.44174       -4.79505        5.69641
H          1.65884       -5.33497        5.81179
H          3.17649       -5.40605        5.76412
O          5.14276       -3.67273        2.96320
H          4.35986       -4.21265        3.07858
H          5.87751       -4.28373        3.03091
O         -0.88122       -3.20630        3.56718
H         -1.66412       -3.74623        3.68256
H         -0.14648       -3.81731        3.63489
O         -2.56955       -4.36031        5.53360
H         -3.37805       -4.06856        5.95666
H         -2.79416       -4.45318        4.60695
O         -6.12465       -3.77133        5.38941
H         -5.26369       -3.56477        5.02356
H         -6.53681       -4.34677        4.74383
O         -7.13234        3.57849        5.15663
H         -7.22823        3.02128        4.38328
H         -6.20902        3.50598        5.40154
O          1.10394       -0.77480       -4.01700
H          1.70511       -0.61642       -3.28813
H          1.65863       -1.08896       -4.73212
O          2.71305       -0.44860        1.00623
H          3.20472        0.10195        0.39556
H          3.18963       -1.27931        1.02999
O          9.12577       -4.01721       -0.29302
H          8.34287       -4.55714       -0.17765
H          9.86052       -4.62822       -0.22532
O          7.60037       -4.44372        2.51308
H          7.91379       -4.39387        1.60918
H          8.22973       -5.00878        2.96293
O         11.19379       -4.52497        1.93745
H         10.61751       -3.76036        1.90547
H         11.97683       -4.22604        2.40141
O          8.77648       -3.42972       -1.49939
H          8.17442       -2.91009       -2.03350
H          8.62766       -4.33676       -1.76936
O          5.57827       -4.73514       -4.07736
H          5.01509       -4.28203       -4.70608
H          5.12699       -4.65324       -3.23629
O          8.44825        3.53707        4.25693
H          7.69408        3.66020        3.67915
H          8.16450        3.86976        5.10932
O          8.23798       -3.37143        5.64490
H          8.33860       -4.22193        6.07420
H          9.13141       -3.04750        5.52396
O          8.48988       -3.93895       -5.71493
H          7.75453       -4.45702       -6.04450
H          8.29301       -3.03738       -5.97218
O         -9.92512       -1.42865       -4.86229
H        -10.51817       -2.02753       -4.40689
H         -9.87422       -1.76379       -5.75831
O          2.96703        4.63523       -2.11496
H          2.57328        3.82110       -1.79886
H          2.97974        4.55037       -3.06911
O          4.15130        4.41246       -4.48183
H          3.55647        3.67218       -4.35561
H          4.91196        4.04506       -4.93369
O          7.89885        4.55859       -5.70558
H          7.61278        4.00132       -4.98076
H          8.23417        3.95223       -6.36714
O          4.64249        2.14246        1.24659
H          5.13955        2.30456        0.44384
H          5.25339        2.33360        1.95935
O          2.76032       -3.45046        0.98954
H          3.01995       -3.20439        1.87825
H          3.31626       -2.92371        0.41401
O          9.27866        4.11871       -3.46743
H          9.90859        3.82858       -4.12832
H          9.77433        4.70244       -2.89183
O          9.75256       -2.57746       -3.26268
H          9.58369       -2.08138       -4.06464
H         10.53834       -2.17958       -2.88584
O         -3.80945       -0.17166       -0.66183
H         -3.99392       -0.11124        0.27629
H         -3.51495        0.70451       -0.91354
O         -5.19879        3.26975        1.54460
H         -5.98169        2.72983        1.65998
H         -4.46404        2.65875        1.61230
O          0.14500        1.25356       -1.95579
H          0.26821        1.78898       -2.74059
H          0.46929        1.79343       -1.23389
O         -5.24111        1.71440       -1.31273
H         -5.35520        1.46708       -2.23119
H         -4.52903        1.15899       -0.99300
O         -6.43237       -1.41214       -5.83352
H         -7.21527       -1.95206       -5.71814
H         -5.69763       -2.02314       -5.76581
O         -6.17247        1.52604       -3.64448
H         -6.29287        1.07272       -4.47980
H         -5.94001        0.83769       -3.02006
O          4.03125        3.72314        5.72864
H          3.17083        3.31275        5.82362
H          4.64555        2.99342        5.63975
O         11.41239        1.96897        5.72714
H         11.60058        2.62983        6.39468
H         10.77223        2.37998        5.14488
O          3.66470       -3.06366        4.36079
H          3.21814       -2.88841        3.53156
H          4.59406       -3.11920        4.13502
O         -0.62050        0.50898        0.00273
H         -1.39576        0.46924        0.56412
H         -0.92818        0.89588       -0.81788
O          2.46747        0.82345       -1.09087
H          1.72899        0.76117       -0.48380
H          2.08707        0.68481       -1.95911
O          0.87959       -3.12307       -2.31697
H          0.55834       -3.59900       -1.55012
H          0.91762       -3.77661       -3.01640
O         -1.37758        3.36019        0.09158
H         -1.10793        2.96479       -0.73830
H         -1.49742        2.62214        0.69050
O         -2.09507       -1.66388        1.81387
H         -2.81418       -2.10214        1.35718
H         -1.67995       -2.34965        2.33842
O         -0.19080       -1.08228       -1.78924
H         -0.54227       -0.19155       -1.81793
H         -0.81754       -1.61216       -2.28340
O          7.41692        2.30653       -0.81295
H          6.63402        1.76661       -0.69757
H          8.15166        1.69553       -0.74524
O        -11.66830       -0.61240       -6.47460
H        -11.31464       -0.81341       -5.60726
H        -12.60993       -0.50028       -6.33852
O        -12.51606        1.15173       -0.99377
H        -12.68414        1.20980       -0.05242
H        -12.52571        2.05815       -1.30373
O         -8.66217       -4.19405        5.16940
H         -8.06099       -4.03566        5.89828
H         -8.10748       -4.50821        4.45429
O          2.56500        2.70052       -6.77893
H          1.78210        2.16060       -6.66355
H          3.29975        2.08952       -6.71122
O         -2.52993        2.80256       -6.55871
H         -3.31283        2.26263       -6.44333
H         -1.79519        2.19155       -6.49100
O         -9.24459        2.24588       -7.46345
H        -10.02749        1.70596       -7.34807
H         -8.50984        1.63488       -7.39574
O         11.07369        0.44311       -7.62777
H         10.29079       -0.09681       -7.51239
H         11.80844       -0.16789       -7.56006
O         -1.38213        0.78135       -7.48534
H         -2.05789        1.43267       -7.67740
H         -0.67728        1.27284       -7.06180
O          9.35070        0.58191        7.11521
H          8.56780        0.04199        7.23059
H         10.08545       -0.02909        7.18291
O        -11.00621        2.38830        7.07920
H        -11.78910        1.84838        7.19458
H        -10.27146        1.77730        7.14691
O        -12.71770        0.90996        4.21211
H        -12.61303        0.50561        3.34996
H        -13.13982        0.23957        4.75078
O          6.25690        0.10188        6.17381
H          5.55931        0.52289        6.67768
H          6.89291        0.79735        6.00184
O          1.60276        0.78764        6.69929
H          0.81986        0.24772        6.81467
H          2.33751        0.17664        6.76700
O         -9.46302        2.57371        0.88787
H        -10.24592        2.03378        1.00325
H         -8.72827        1.96270        0.95557
O         -9.97621        2.74347        3.24063
H        -10.55779        2.69796        4.00054
H         -9.67759        3.65325        3.21108
O          0.66340       -2.18068        6.90623
H         -0.11949       -2.72060        7.02160
H          1.39815       -2.79168        6.97393
O         -1.51590       -4.79742        6.93604
H         -0.70360       -4.48073        6.53901
H         -2.07779       -4.02426        7.00144
O          1.69103        2.60144        6.77892
H          2.37209        3.21885        6.50927
H          0.87847        3.10881        6.76920
O          6.84010        3.53163        6.64681
H          6.28635        4.19707        6.23655
H          7.71970        3.91112        6.65408
O         -9.60723        3.74580        5.83276
H         -9.15684        3.06579        6.33525
H        -10.41199        3.33084        5.51982
O         -6.29244       -0.17183        0.52337
H         -5.73197       -0.12720       -0.25229
H         -5.77177        0.21548        1.22810
O          7.59807        3.31575       -2.68822
H          6.64838        3.21233       -2.61638
H          7.96499        2.54416       -2.25488
O         -8.69592       -2.86555        7.23420
H         -7.98918       -2.22280        7.16231
H         -9.45545       -2.36612        7.53662
O        -12.32102       -2.79710        6.73002
H        -11.99639       -1.90492        6.85803
H        -11.55763       -3.36027        6.86358
O         -9.45404       -0.36990       -2.23072
H         -9.46403        0.55539       -1.98272
O          9.95215       -2.23711        2.90744
H          9.94217       -1.31182        3.15544
O         -8.16682       -2.31391       -2.87888
H         -7.75978       -1.66846       -3.45808
H         -7.98255       -2.00223       -1.99194
O          3.13904        0.73274       -8.26083
H          2.33141        1.20290       -8.47164
H          3.84129        1.36717       -8.40954
O         -4.66073        0.28621        7.56254
H         -5.56236        0.25174        7.24062
H         -4.21038        0.89335        6.97404
O         -1.44101        0.54090       -4.70089
H         -0.49245        0.67332       -4.72211
H         -1.77643        1.02922       -5.45375
O          7.08290       -2.82897        7.72056
H          6.30001       -3.36889        7.83593
H          7.81765       -3.43997        7.78826
O          3.66080       -1.42439        7.65556
H          3.16847       -0.73254        8.09909
H          4.48609       -1.01348        7.39515
O         11.90353       -0.89114        7.50638
H         12.21974       -0.00779        7.31283
H         11.20688       -0.76907        8.15257
O         -2.12821        2.22277        7.11576
H         -2.77012        2.28355        6.40723
H         -2.06424        1.28744        7.31282
O         -3.54814       -0.76809       -7.23758
H         -3.95058       -1.36084       -7.87354
H         -2.92112       -1.30940       -6.75634
O         -6.51226        0.32576       -6.80330
H         -6.62399        1.27597       -6.85198
H         -5.56807        0.19146       -6.71259
O         -6.56490       -2.17838       -7.82990
H         -7.34780       -2.71831       -7.71452
H         -5.83015       -2.78939       -7.76219
O          0.38634        0.23953       -5.83683
H          1.02432       -0.24426       -6.36284
H          0.90487        0.87230       -5.33834
O         -0.31691       -2.76039       -6.99234
H         -1.10968       -3.28402       -6.86952
H          0.40571       -3.38630       -6.93045
O          0.91317        3.76800       -7.25724
H          0.09865        3.89776       -7.74457
H          1.60556        3.80012       -7.91855
O         -6.21374        3.46468       -6.82416
H         -6.63373        3.52449       -7.68311
H         -5.32219        3.78743       -6.96109
O         -8.87835       -0.45945       -7.59948
H         -9.66125       -0.99937       -7.48410
H         -8.14360       -1.07045       -7.53177
