850

C        -10.83372       -5.92348       -9.99936
C         -8.29521       -5.93640       -9.94522
C         -9.55061       -5.18831      -10.45552
H         -8.31822       -5.95744       -8.83019
H         -8.24285       -2.97490      -11.50028
C         -8.27001       -2.99651      -10.38531
C         -9.55517       -3.73155       -9.93366
H         -9.52586       -5.16885      -11.57056
C        -10.80751       -2.98309      -10.44997
C        -12.09464       -3.71514       -9.99760
C        -12.08973       -5.17827      -10.51362
H        -12.06238       -5.16248      -11.62867
H        -10.85879       -5.94110       -8.88439
H         -9.58266       -3.75105       -8.81873
H        -10.77891       -2.96511      -11.56488
H        -12.12179       -3.73102       -8.88257
C        -10.80958       -1.52598       -9.92871
C         -8.27334       -1.54074       -9.85991
C         -9.52223       -0.79130      -10.37726
C        -12.05634       -0.77553      -10.44998
H        -10.84134       -1.54417       -8.81387
H         -8.30303       -1.56221       -8.74504
H        -12.02233       -0.75886      -11.56508
H         -9.49090       -0.77173      -11.49232
C        -13.35186       -1.50281      -10.00394
C        -13.35067       -2.96551      -10.51390
C        -13.37728       -5.91454      -10.05955
C        -14.57982       -0.73155      -10.52581
C        -14.61981       -3.71184      -10.06135
C        -14.61474       -5.15517      -10.57402
H        -14.59332       -0.73045      -11.63797
H        -13.39353       -1.51510       -8.89043
H        -13.33061       -2.95309      -11.62802
H        -14.69563       -3.71328       -8.95177
H        -14.63581       -5.15330      -11.68597
H        -13.41205       -5.92663       -8.94585
C        -14.57212        0.71360      -10.01525
C        -13.29030        1.43389      -10.44679
C        -12.05218        0.68543       -9.93121
C        -10.76819        1.41011      -10.37030
C         -9.52472        0.66715       -9.85510
C         -8.24102        1.39593      -10.29230
H        -14.65358        0.72112       -8.90705
H        -12.08626        0.68116       -8.81826
H         -9.55815        0.66028       -8.74223
H        -13.26671        1.50464      -11.55670
H        -10.73400        1.47890      -11.48112
H         -8.20781        1.46860      -11.40284
C         -8.29019        5.86553      -10.46979
C         -9.56920        5.12956      -10.01015
C        -10.82604        5.87716      -10.51989
H         -8.26961        5.88640      -11.58492
C         -9.56239        3.67060      -10.53095
H         -9.59028        5.11092       -8.89491
C        -10.83663        2.94123      -10.07535
C        -12.09009        3.67874      -10.57700
C        -12.10435        5.14013      -10.05965
H         -9.54342        3.67652      -11.64420
H        -10.80404        5.89488      -11.63500
H        -12.12496        5.12405       -8.94421
H        -12.06964        3.68234      -11.69032
H        -10.85674        2.87352       -8.96414
C         -8.30795        2.92929      -10.03385
H         -8.32563        2.85846       -8.92289
C        -13.36876        5.88056      -10.56891
C        -13.35977        2.94368      -10.12275
C        -14.62892        5.12248      -10.10808
C        -14.61113        3.67694      -10.61729
H        -13.35554        5.89256      -11.68316
H        -14.69725        5.12234       -8.99797
H        -14.63788        3.66938      -11.72817
H        -13.39160        2.87367       -9.01299
C         -3.23472       -5.92348       -9.99936
C         -0.69621       -5.93640       -9.94522
C         -1.95161       -5.18831      -10.45552
H         -0.71922       -5.95744       -8.83019
H         -0.64385       -2.97490      -11.50028
C         -0.67101       -2.99651      -10.38531
C         -1.95617       -3.73155       -9.93366
H         -1.92686       -5.16885      -11.57056
C         -3.20851       -2.98309      -10.44997
C         -4.49564       -3.71514       -9.99760
C         -4.49073       -5.17827      -10.51362
H         -4.46338       -5.16248      -11.62867
H         -3.25979       -5.94110       -8.88439
H         -1.98366       -3.75105       -8.81873
H         -3.17991       -2.96511      -11.56488
H         -4.52279       -3.73102       -8.88257
C         -3.21058       -1.52598       -9.92871
C         -0.67434       -1.54074       -9.85991
C         -1.92323       -0.79130      -10.37726
C         -4.45734       -0.77553      -10.44998
H         -3.24234       -1.54417       -8.81387
H         -0.70403       -1.56221       -8.74504
H         -4.42333       -0.75886      -11.56508
H         -1.89190       -0.77173      -11.49232
C         -5.75286       -1.50281      -10.00394
C         -5.75167       -2.96551      -10.51390
C         -5.77828       -5.91454      -10.05955
C         -6.98082       -0.73155      -10.52581
C         -7.02081       -3.71184      -10.06135
C         -7.01574       -5.15517      -10.57402
H         -6.99432       -0.73045      -11.63797
H         -5.79453       -1.51510       -8.89043
H         -5.73161       -2.95309      -11.62802
H         -7.09663       -3.71328       -8.95177
H         -7.03681       -5.15330      -11.68597
H         -5.81305       -5.92663       -8.94585
C         -6.97312        0.71360      -10.01525
C         -5.69130        1.43389      -10.44679
C         -4.45318        0.68543       -9.93121
C         -3.16919        1.41011      -10.37030
C         -1.92572        0.66715       -9.85510
C         -0.64202        1.39593      -10.29230
H         -7.05458        0.72112       -8.90705
H         -4.48726        0.68116       -8.81826
H         -1.95915        0.66028       -8.74223
H         -5.66771        1.50464      -11.55670
H         -3.13500        1.47890      -11.48112
H         -0.60881        1.46860      -11.40284
C         -0.69119        5.86553      -10.46979
C         -1.97020        5.12956      -10.01015
C         -3.22704        5.87716      -10.51989
H         -0.67061        5.88640      -11.58492
C         -1.96339        3.67060      -10.53095
H         -1.99128        5.11092       -8.89491
C         -3.23763        2.94123      -10.07535
C         -4.49109        3.67874      -10.57700
C         -4.50535        5.14013      -10.05965
H         -1.94442        3.67652      -11.64420
H         -3.20504        5.89488      -11.63500
H         -4.52596        5.12405       -8.94421
H         -4.47064        3.68234      -11.69032
H         -3.25774        2.87352       -8.96414
C         -0.70895        2.92929      -10.03385
H         -0.72663        2.85846       -8.92289
C         -5.76976        5.88056      -10.56891
C         -5.76077        2.94368      -10.12275
C         -7.02992        5.12248      -10.10808
C         -7.01213        3.67694      -10.61729
H         -5.75654        5.89256      -11.68316
H         -7.09825        5.12234       -8.99797
H         -7.03888        3.66938      -11.72817
H         -5.79260        2.87367       -9.01299
C          4.36428       -5.92348       -9.99936
C          6.90279       -5.93640       -9.94522
C          5.64739       -5.18831      -10.45552
H          6.87978       -5.95744       -8.83019
H          6.95515       -2.97490      -11.50028
C          6.92799       -2.99651      -10.38531
C          5.64283       -3.73155       -9.93366
H          5.67214       -5.16885      -11.57056
C          4.39049       -2.98309      -10.44997
C          3.10336       -3.71514       -9.99760
C          3.10827       -5.17827      -10.51362
H          3.13562       -5.16248      -11.62867
H          4.33921       -5.94110       -8.88439
H          5.61534       -3.75105       -8.81873
H          4.41909       -2.96511      -11.56488
H          3.07621       -3.73102       -8.88257
C          4.38842       -1.52598       -9.92871
C          6.92466       -1.54074       -9.85991
C          5.67577       -0.79130      -10.37726
C          3.14166       -0.77553      -10.44998
H          4.35666       -1.54417       -8.81387
H          6.89497       -1.56221       -8.74504
H          3.17567       -0.75886      -11.56508
H          5.70710       -0.77173      -11.49232
C          1.84614       -1.50281      -10.00394
C          1.84733       -2.96551      -10.51390
C          1.82072       -5.91454      -10.05955
C          0.61818       -0.73155      -10.52581
C          0.57819       -3.71184      -10.06135
C          0.58326       -5.15517      -10.57402
H          0.60468       -0.73045      -11.63797
H          1.80447       -1.51510       -8.89043
H          1.86739       -2.95309      -11.62802
H          0.50237       -3.71328       -8.95177
H          0.56219       -5.15330      -11.68597
H          1.78595       -5.92663       -8.94585
C          0.62588        0.71360      -10.01525
C          1.90770        1.43389      -10.44679
C          3.14582        0.68543       -9.93121
C          4.42981        1.41011      -10.37030
C          5.67328        0.66715       -9.85510
C          6.95698        1.39593      -10.29230
H          0.54442        0.72112       -8.90705
H          3.11174        0.68116       -8.81826
H          5.63985        0.66028       -8.74223
H          1.93129        1.50464      -11.55670
H          4.46400        1.47890      -11.48112
H          6.99019        1.46860      -11.40284
C          6.90781        5.86553      -10.46979
C          5.62880        5.12956      -10.01015
C          4.37196        5.87716      -10.51989
H          6.92839        5.88640      -11.58492
C          5.63561        3.67060      -10.53095
H          5.60772        5.11092       -8.89491
C          4.36137        2.94123      -10.07535
C          3.10791        3.67874      -10.57700
C          3.09365        5.14013      -10.05965
H          5.65458        3.67652      -11.64420
H          4.39396        5.89488      -11.63500
H          3.07304        5.12405       -8.94421
H          3.12836        3.68234      -11.69032
H          4.34126        2.87352       -8.96414
C          6.89005        2.92929      -10.03385
H          6.87237        2.85846       -8.92289
C          1.82924        5.88056      -10.56891
C          1.83823        2.94368      -10.12275
C          0.56908        5.12248      -10.10808
C          0.58687        3.67694      -10.61729
H          1.84246        5.89256      -11.68316
H          0.50075        5.12234       -8.99797
H          0.56012        3.66938      -11.72817
H          1.80640        2.87367       -9.01299
C         11.96328       -5.92348       -9.99936
C         14.50179       -5.93640       -9.94522
C         13.24639       -5.18831      -10.45552
H         14.47878       -5.95744       -8.83019
H         14.55415       -2.97490      -11.50028
C         14.52699       -2.99651      -10.38531
C         13.24183       -3.73155       -9.93366
H         13.27114       -5.16885      -11.57056
C         11.98949       -2.98309      -10.44997
C         10.70236       -3.71514       -9.99760
C         10.70727       -5.17827      -10.51362
H         10.73462       -5.16248      -11.62867
H         11.93821       -5.94110       -8.88439
H         13.21434       -3.75105       -8.81873
H         12.01809       -2.96511      -11.56488
H         10.67521       -3.73102       -8.88257
C         11.98742       -1.52598       -9.92871
C         14.52366       -1.54074       -9.85991
C         13.27477       -0.79130      -10.37726
C         10.74066       -0.77553      -10.44998
H         11.95566       -1.54417       -8.81387
H         14.49397       -1.56221       -8.74504
H         10.77467       -0.75886      -11.56508
H         13.30610       -0.77173      -11.49232
C          9.44514       -1.50281      -10.00394
C          9.44633       -2.96551      -10.51390
C          9.41972       -5.91454      -10.05955
C          8.21718       -0.73155      -10.52581
C          8.17719       -3.71184      -10.06135
C          8.18226       -5.15517      -10.57402
H          8.20368       -0.73045      -11.63797
H          9.40347       -1.51510       -8.89043
H          9.46639       -2.95309      -11.62802
H          8.10137       -3.71328       -8.95177
H          8.16119       -5.15330      -11.68597
H          9.38495       -5.92663       -8.94585
C          8.22488        0.71360      -10.01525
C          9.50670        1.43389      -10.44679
C         10.74482        0.68543       -9.93121
C         12.02881        1.41011      -10.37030
C         13.27228        0.66715       -9.85510
C         14.55598        1.39593      -10.29230
H          8.14342        0.72112       -8.90705
H         10.71074        0.68116       -8.81826
H         13.23885        0.66028       -8.74223
H          9.53029        1.50464      -11.55670
H         12.06300        1.47890      -11.48112
H         14.58919        1.46860      -11.40284
C         14.50681        5.86553      -10.46979
C         13.22780        5.12956      -10.01015
C         11.97096        5.87716      -10.51989
H         14.52739        5.88640      -11.58492
C         13.23461        3.67060      -10.53095
H         13.20672        5.11092       -8.89491
C         11.96037        2.94123      -10.07535
C         10.70691        3.67874      -10.57700
C         10.69265        5.14013      -10.05965
H         13.25358        3.67652      -11.64420
H         11.99296        5.89488      -11.63500
H         10.67204        5.12405       -8.94421
H         10.72736        3.68234      -11.69032
H         11.94026        2.87352       -8.96414
C         14.48905        2.92929      -10.03385
H         14.47137        2.85846       -8.92289
C          9.42824        5.88056      -10.56891
C          9.43723        2.94368      -10.12275
C          8.16808        5.12248      -10.10808
C          8.18587        3.67694      -10.61729
H          9.44146        5.89256      -11.68316
H          8.09975        5.12234       -8.99797
H          8.15912        3.66938      -11.72817
H          9.40540        2.87367       -9.01299
C        -10.83372       -5.92348       10.00064
C         -8.29521       -5.93640       10.05478
C         -9.55061       -5.18831        9.54448
H         -8.31822       -5.95744       11.16981
H         -8.24285       -2.97490        8.49972
C         -8.27001       -2.99651        9.61469
C         -9.55517       -3.73155       10.06634
H         -9.52586       -5.16885        8.42944
C        -10.80751       -2.98309        9.55003
C        -12.09464       -3.71514       10.00240
C        -12.08973       -5.17827        9.48638
H        -12.06238       -5.16248        8.37133
H        -10.85879       -5.94110       11.11561
H         -9.58266       -3.75105       11.18127
H        -10.77891       -2.96511        8.43512
H        -12.12179       -3.73102       11.11743
C        -10.80958       -1.52598       10.07129
C         -8.27334       -1.54074       10.14009
C         -9.52223       -0.79130        9.62274
C        -12.05634       -0.77553        9.55002
H        -10.84134       -1.54417       11.18613
H         -8.30303       -1.56221       11.25496
H        -12.02233       -0.75886        8.43492
H         -9.49090       -0.77173        8.50768
C        -13.35186       -1.50281        9.99606
C        -13.35067       -2.96551        9.48610
C        -13.37728       -5.91454        9.94045
C        -14.57982       -0.73155        9.47419
C        -14.61981       -3.71184        9.93865
C        -14.61474       -5.15517        9.42598
H        -14.59332       -0.73045        8.36203
H        -13.39353       -1.51510       11.10957
H        -13.33061       -2.95309        8.37198
H        -14.69563       -3.71328       11.04823
H        -14.63581       -5.15330        8.31403
H        -13.41205       -5.92663       11.05415
C        -14.57212        0.71360        9.98475
C        -13.29030        1.43389        9.55321
C        -12.05218        0.68543       10.06879
C        -10.76819        1.41011        9.62970
C         -9.52472        0.66715       10.14490
C         -8.24102        1.39593        9.70770
H        -14.65358        0.72112       11.09295
H        -12.08626        0.68116       11.18174
H         -9.55815        0.66028       11.25777
H        -13.26671        1.50464        8.44330
H        -10.73400        1.47890        8.51888
H         -8.20781        1.46860        8.59716
C         -8.29019        5.86553        9.53021
C         -9.56920        5.12956        9.98985
C        -10.82604        5.87716        9.48011
H         -8.26961        5.88640        8.41508
C         -9.56239        3.67060        9.46905
H         -9.59028        5.11092       11.10509
C        -10.83663        2.94123        9.92465
C        -12.09009        3.67874        9.42300
C        -12.10435        5.14013        9.94035
H         -9.54342        3.67652        8.35580
H        -10.80404        5.89488        8.36500
H        -12.12496        5.12405       11.05579
H        -12.06964        3.68234        8.30968
H        -10.85674        2.87352       11.03586
C         -8.30795        2.92929        9.96615
H         -8.32563        2.85846       11.07711
C        -13.36876        5.88056        9.43109
C        -13.35977        2.94368        9.87725
C        -14.62892        5.12248        9.89192
C        -14.61113        3.67694        9.38271
H        -13.35554        5.89256        8.31684
H        -14.69725        5.12234       11.00203
H        -14.63788        3.66938        8.27183
H        -13.39160        2.87367       10.98701
C         -3.23472       -5.92348       10.00064
C         -0.69621       -5.93640       10.05478
C         -1.95161       -5.18831        9.54448
H         -0.71922       -5.95744       11.16981
H         -0.64385       -2.97490        8.49972
C         -0.67101       -2.99651        9.61469
C         -1.95617       -3.73155       10.06634
H         -1.92686       -5.16885        8.42944
C         -3.20851       -2.98309        9.55003
C         -4.49564       -3.71514       10.00240
C         -4.49073       -5.17827        9.48638
H         -4.46338       -5.16248        8.37133
H         -3.25979       -5.94110       11.11561
H         -1.98366       -3.75105       11.18127
H         -3.17991       -2.96511        8.43512
H         -4.52279       -3.73102       11.11743
C         -3.21058       -1.52598       10.07129
C         -0.67434       -1.54074       10.14009
C         -1.92323       -0.79130        9.62274
C         -4.45734       -0.77553        9.55002
H         -3.24234       -1.54417       11.18613
H         -0.70403       -1.56221       11.25496
H         -1.89190       -0.77173        8.50768
C         -5.75286       -1.50281        9.99606
C         -5.75167       -2.96551        9.48610
C         -5.77828       -5.91454        9.94045
C         -6.98082       -0.73155        9.47419
C         -7.02081       -3.71184        9.93865
C         -7.01574       -5.15517        9.42598
H         -6.99432       -0.73045        8.36203
H         -5.79453       -1.51510       11.10957
H         -5.73161       -2.95309        8.37198
H         -7.09663       -3.71328       11.04823
H         -7.03681       -5.15330        8.31403
H         -5.81305       -5.92663       11.05415
C         -6.97312        0.71360        9.98475
C         -5.69130        1.43389        9.55321
C         -4.45318        0.68543       10.06879
C         -3.16919        1.41011        9.62970
C         -1.92572        0.66715       10.14490
C         -0.64202        1.39593        9.70770
H         -7.05458        0.72112       11.09295
H         -4.48726        0.68116       11.18174
H         -1.95915        0.66028       11.25777
H         -5.66771        1.50464        8.44330
H         -3.13500        1.47890        8.51888
H         -0.60881        1.46860        8.59716
C         -0.69119        5.86553        9.53021
C         -1.97020        5.12956        9.98985
C         -3.22704        5.87716        9.48011
H         -0.67061        5.88640        8.41508
C         -1.96339        3.67060        9.46905
H         -1.99128        5.11092       11.10509
C         -3.23763        2.94123        9.92465
C         -4.49109        3.67874        9.42300
C         -4.50535        5.14013        9.94035
H         -1.94442        3.67652        8.35580
H         -3.20504        5.89488        8.36500
H         -4.52596        5.12405       11.05579
H         -4.47064        3.68234        8.30968
H         -3.25774        2.87352       11.03586
C         -0.70895        2.92929        9.96615
H         -0.72663        2.85846       11.07711
C         -5.76976        5.88056        9.43109
C         -5.76077        2.94368        9.87725
C         -7.02992        5.12248        9.89192
C         -7.01213        3.67694        9.38271
H         -5.75654        5.89256        8.31684
H         -7.09825        5.12234       11.00203
H         -7.03888        3.66938        8.27183
H         -5.79260        2.87367       10.98701
C          4.36428       -5.92348       10.00064
C          6.90279       -5.93640       10.05478
C          5.64739       -5.18831        9.54448
H          6.87978       -5.95744       11.16981
H          6.95515       -2.97490        8.49972
C          6.92799       -2.99651        9.61469
C          5.64283       -3.73155       10.06634
H          5.67214       -5.16885        8.42944
C          4.39049       -2.98309        9.55003
C          3.10336       -3.71514       10.00240
C          3.10827       -5.17827        9.48638
H          3.13562       -5.16248        8.37133
H          4.33921       -5.94110       11.11561
H          5.61534       -3.75105       11.18127
H          4.41909       -2.96511        8.43512
H          3.07621       -3.73102       11.11743
C          4.38842       -1.52598       10.07129
C          6.92466       -1.54074       10.14009
C          5.67577       -0.79130        9.62274
C          3.14166       -0.77553        9.55002
H          4.35666       -1.54417       11.18613
H          6.89497       -1.56221       11.25496
H          3.17567       -0.75886        8.43492
C          1.84614       -1.50281        9.99606
C          1.84733       -2.96551        9.48610
C          1.82072       -5.91454        9.94045
C          0.61818       -0.73155        9.47419
C          0.57819       -3.71184        9.93865
C          0.58326       -5.15517        9.42598
H          0.60468       -0.73045        8.36203
H          1.80447       -1.51510       11.10957
H          1.86739       -2.95309        8.37198
H          0.50237       -3.71328       11.04823
H          0.56219       -5.15330        8.31403
H          1.78595       -5.92663       11.05415
C          0.62588        0.71360        9.98475
C          1.90770        1.43389        9.55321
C          3.14582        0.68543       10.06879
C          4.42981        1.41011        9.62970
C          5.67328        0.66715       10.14490
C          6.95698        1.39593        9.70770
H          0.54442        0.72112       11.09295
H          3.11174        0.68116       11.18174
H          5.63985        0.66028       11.25777
H          1.93129        1.50464        8.44330
H          4.46400        1.47890        8.51888
H          6.99019        1.46860        8.59716
C          6.90781        5.86553        9.53021
C          5.62880        5.12956        9.98985
C          4.37196        5.87716        9.48011
H          6.92839        5.88640        8.41508
C          5.63561        3.67060        9.46905
H          5.60772        5.11092       11.10509
C          4.36137        2.94123        9.92465
C          3.10791        3.67874        9.42300
C          3.09365        5.14013        9.94035
H          5.65458        3.67652        8.35580
H          4.39396        5.89488        8.36500
H          3.07304        5.12405       11.05579
H          3.12836        3.68234        8.30968
H          4.34126        2.87352       11.03586
C          6.89005        2.92929        9.96615
H          6.87237        2.85846       11.07711
C          1.82924        5.88056        9.43109
C          1.83823        2.94368        9.87725
C          0.56908        5.12248        9.89192
C          0.58687        3.67694        9.38271
H          1.84246        5.89256        8.31684
H          0.50075        5.12234       11.00203
H          0.56012        3.66938        8.27183
H          1.80640        2.87367       10.98701
C         11.96328       -5.92348       10.00064
C         14.50179       -5.93640       10.05478
C         13.24639       -5.18831        9.54448
H         14.47878       -5.95744       11.16981
H         14.55415       -2.97490        8.49972
C         14.52699       -2.99651        9.61469
C         13.24183       -3.73155       10.06634
H         13.27114       -5.16885        8.42944
C         11.98949       -2.98309        9.55003
C         10.70236       -3.71514       10.00240
C         10.70727       -5.17827        9.48638
H         10.73462       -5.16248        8.37133
H         11.93821       -5.94110       11.11561
H         13.21434       -3.75105       11.18127
H         12.01809       -2.96511        8.43512
H         10.67521       -3.73102       11.11743
C         11.98742       -1.52598       10.07129
C         14.52366       -1.54074       10.14009
C         13.27477       -0.79130        9.62274
C         10.74066       -0.77553        9.55002
H         11.95566       -1.54417       11.18613
H         14.49397       -1.56221       11.25496
H         10.77467       -0.75886        8.43492
H         13.30610       -0.77173        8.50768
C          9.44514       -1.50281        9.99606
C          9.44633       -2.96551        9.48610
C          9.41972       -5.91454        9.94045
C          8.21718       -0.73155        9.47419
C          8.17719       -3.71184        9.93865
C          8.18226       -5.15517        9.42598
H          8.20368       -0.73045        8.36203
H          9.40347       -1.51510       11.10957
H          9.46639       -2.95309        8.37198
H          8.10137       -3.71328       11.04823
H          8.16119       -5.15330        8.31403
H          9.38495       -5.92663       11.05415
C          8.22488        0.71360        9.98475
C          9.50670        1.43389        9.55321
C         10.74482        0.68543       10.06879
C         12.02881        1.41011        9.62970
C         13.27228        0.66715       10.14490
C         14.55598        1.39593        9.70770
H          8.14342        0.72112       11.09295
H         10.71074        0.68116       11.18174
H         13.23885        0.66028       11.25777
H          9.53029        1.50464        8.44330
H         12.06300        1.47890        8.51888
H         14.58919        1.46860        8.59716
C         14.50681        5.86553        9.53021
C         13.22780        5.12956        9.98985
C         11.97096        5.87716        9.48011
H         14.52739        5.88640        8.41508
C         13.23461        3.67060        9.46905
H         13.20672        5.11092       11.10509
C         11.96037        2.94123        9.92465
C         10.70691        3.67874        9.42300
C         10.69265        5.14013        9.94035
H         13.25358        3.67652        8.35580
H         11.99296        5.89488        8.36500
H         10.67204        5.12405       11.05579
H         10.72736        3.68234        8.30968
H         11.94026        2.87352       11.03586
C         14.48905        2.92929        9.96615
H         14.47137        2.85846       11.07711
C          9.42824        5.88056        9.43109
C          9.43723        2.94368        9.87725
C          8.16808        5.12248        9.89192
C          8.18587        3.67694        9.38271
H          9.44146        5.89256        8.31684
H          8.09975        5.12234       11.00203
H          8.15912        3.66938        8.27183
H          9.40540        2.87367       10.98701
N         -5.66469       -1.57560        5.80143
C         -5.72030       -1.39582        7.28594
H         -6.57107       -0.74410        7.51544
H         -5.88172       -2.42250        7.63392
C         -4.45734       -0.77553        7.93002
H         -3.57388       -1.42031        7.74474
H         -4.26735        0.23502        7.51401
C         -6.94487       -2.18742        5.36807
H         -7.10143       -3.17721        5.85349
H         -7.80985       -1.53733        5.63068
H         -6.96544       -2.34627        4.26609
C         -4.56005       -2.48184        5.40552
H         -4.63266       -3.45631        5.93804
H         -4.58450       -2.68590        4.31129
H         -3.56608       -2.03599        5.61960
C         -5.51230       -0.27607        5.10407
H         -5.56511       -0.40769        3.99975
H         -6.31504        0.43431        5.40323
H         -4.52915        0.19276        5.31837
N          2.14175       -3.09878        1.71731
C          2.08708       -2.92201        3.17663
H          1.26879       -2.23889        3.43150
H          1.91552       -3.89256        3.65604
C          3.41296       -2.33652        3.66978
H          4.23127       -3.01962        3.41492
H          3.58453       -1.36595        3.19043
C          5.67577       -0.79130        8.00274
H          6.56365       -1.43766        7.83555
H          5.87295        0.22611        7.60275
C          4.43842       -1.39661        7.35025
H          4.26864       -2.43609        7.65336
H          3.57644       -0.75013        7.55092
C          4.61902       -1.53229        5.83270
H          5.50248       -2.17707        5.64742
H          4.80901       -0.52174        5.41669
C          3.35606       -2.15258        5.18862
H          3.18152       -3.14038        5.67508
H          2.48910       -1.50239        5.45031
C          2.37208       -1.79615        1.07393
H          3.32124       -1.37704        1.42703
H          1.55377       -1.11305        1.32878
H          2.41285       -1.92785       -0.01337
C          0.86782       -3.66130        1.24349
H          0.90857       -3.79302        0.15619
H          0.04956       -2.97813        1.49833
H          0.69623       -4.63182        1.72292
C          3.24004       -4.01565        1.37529
H          4.18918       -3.59650        1.72837
H          3.28078       -4.14735        0.28800
H          3.06840       -4.98617        1.85470
O         -5.99053        0.14140       -0.99213
H         -6.00051        1.06669       -0.74413
H         -5.97908        0.14156       -1.95006
O         -6.40127        1.47358       -4.16282
H         -5.63671        1.85281       -3.72762
H         -6.23230        1.58160       -5.09960
O        -13.67044        0.18347       -3.50098
H        -13.68042        1.10876       -3.25298
H        -13.65899        0.18363       -4.45891
O        -13.60412       -2.30004        0.05991
H        -12.85202       -1.71227       -0.02143
H        -13.32681       -3.11672       -0.35710
O        -12.97776        0.58571        1.86871
H        -12.98774        1.51100        2.11671
H        -12.96631        0.58587        0.91078
O        -11.48274       -0.51943       -3.24259
H        -11.49272        0.40586       -2.99459
H        -11.47129       -0.51927       -4.20052
O        -11.05001        0.68615       -0.81912
H        -10.09842        0.66307       -0.92732
H        -11.33766       -0.21655       -0.96104
O        -10.75093        1.16108        1.83076
H        -11.15476        1.39397        0.99384
H        -10.64736        0.20920        1.79972
O        -13.16899        1.40316        4.07106
H        -12.21313        1.33924        4.07453
H        -13.47678        0.50847        3.92087
O        -10.22039        1.00978        4.08240
H        -10.48683        1.80288        3.61574
H        -11.01522        0.47830        4.14196
O         -9.02665        1.93287       -4.75968
H         -8.52585        1.45417       -5.42136
H         -9.76195        1.35872       -4.54185
O         -8.47217        1.92761       -2.28575
H         -7.62245        2.02706       -1.85464
H         -8.39268        1.12923       -2.80923
O         -9.03423        1.91624        3.47356
H         -9.04422        2.84153        3.72156
H         -9.02278        1.91640        2.51563
O         -3.96385        0.83682       -1.12697
H         -3.27937        1.43224       -1.43473
H         -4.12374        0.24230       -1.86096
O         -2.86449        0.94364        1.03955
H         -2.29514        1.67162        0.78724
H         -3.08337        0.50354        0.21726
O         -1.57298        1.03654        3.55305
H         -1.32415        1.96151        3.53650
H         -1.89053        0.84934        2.66881
O          0.72734        0.91104        3.20379
H          0.71736        1.83633        3.45179
H          0.73879        0.91120        2.24586
O         -0.37637        0.73367        1.28765
H         -0.38635        1.65896        1.53565
H         -0.36492        0.73383        0.32972
O         -1.39324        0.53122       -0.86411
H         -1.40322        1.45651       -0.61611
H         -1.38179        0.53138       -1.82204
O         -1.74067        0.58707       -3.41805
H         -1.46471        1.32474       -3.96344
H         -1.52692       -0.19369       -3.93038
O          0.06096        0.67738       -4.79793
H          0.89040        0.59499       -5.27016
H         -0.49201       -0.02434       -5.14374
O          2.44495        0.66298       -4.43825
H          3.35771        0.86479       -4.64782
H          2.32474       -0.24883       -4.70640
O          5.56986        0.51743       -4.28276
H          6.33723        0.69801       -4.82709
H          5.03038       -0.07802       -4.80446
O          5.60827        0.32231       -1.91565
H          5.59829        1.24760       -1.66765
H          5.61972        0.32247       -2.87358
O          5.91870        0.85168        0.35655
H          6.70887        1.17829       -0.07557
H          5.38132        0.49039       -0.34946
O          7.19980        1.03559        2.40282
H          8.10376        1.34561        2.46997
H          7.11045        0.72531        1.50087
O         10.11870        1.03081        3.47320
H          9.28094        1.48597        3.56673
H         10.17781        0.80887        2.54314
O          8.93075        0.82617       -0.02999
H          9.77340        1.08341        0.34622
H          9.14808        0.41752       -0.86876
O          8.28469        0.45092       -2.08570
H          7.50672        1.00987       -2.07607
H          8.43477        0.25078       -3.01047
O          8.76910        0.33979       -4.31547
H          9.62401        0.76979       -4.36008
H          8.67483       -0.11227       -5.15483
O         11.33787       -0.00124       -4.28664
H         11.32789        0.92405       -4.03864
H         11.34932       -0.00108       -5.24457
O         10.78089        0.64093       -1.81386
H         11.66232        0.84592       -1.49948
H         10.91304        0.21191       -2.66017
O         11.73704        1.02918        0.88636
H         12.64605        0.73441        0.95399
H         11.42937        0.69290        0.04373
O         12.05623        1.04408        3.90482
H         11.64778        1.32705        3.08576
H         12.98881        0.96219        3.70147
O         14.13316        0.80356        2.07379
H         14.01277        0.75639        1.12455
H         13.32242        1.18955        2.40767
O         13.38987        0.02758       -3.87905
H         12.90976        0.67626       -3.36285
H         13.26129        0.29183       -4.79086
O         13.45053        0.25567       -0.93735
H         14.06659        0.91909       -0.62413
H         12.91278        0.70529       -1.59036
O          1.04228        4.05718       -3.58651
H          1.03230        4.98247       -3.33851
H          1.05373        4.05734       -4.54444
O          1.26575        5.27346       -1.50106
H          0.95557        5.25036       -0.59496
H          1.00240        4.43162       -1.87483
O          1.07427        3.87652        1.09332
H          0.49347        4.61947        1.26199
H          1.26621        3.91971        0.15574
O          0.58437        5.16107        3.23686
H          1.12463        4.38358        3.38310
H          0.72051        5.38800        2.31613
O          1.30051       -4.86074       -4.21000
H          1.29053       -3.93545       -3.96200
H          1.31196       -4.86058       -5.16793
O          0.80280       -5.54680        3.91771
H          0.79282       -4.62151        4.16571
H          0.81425       -5.54665        2.95978
O          8.67290        3.37537       -2.52759
H          8.66292        4.30066       -2.27959
H          8.68435        3.37553       -3.48552
O        -10.75591       -4.64533       -3.49227
H        -10.76589       -3.72004       -3.24427
H        -10.74446       -4.64517       -4.45020
O          4.53846        4.46781        0.00188
H          3.85057        3.80171        0.03160
H          4.51477        4.80896       -0.89300
O          3.21928        2.69896        3.17895
H          2.53116        2.04931        3.32797
H          3.37532        2.68253        2.23389
O         -3.22907       -4.75546       -4.07071
H         -3.23905       -3.83017       -3.82271
H         -3.21762       -4.75530       -5.02864
O         -2.06511       -2.84414       -2.88527
H         -2.06008       -2.11569       -3.50744
H         -1.67234       -3.57801       -3.35954
O         -5.99877       -4.79818        2.87799
H         -6.00875       -3.87289        3.12599
H         -5.98732       -4.79802        1.92006
O         -8.21286        4.38820        3.35480
H         -8.70450        3.58681        3.17087
H         -7.80716        4.23948        4.20982
O        -10.77354        4.27200        0.83265
H        -10.63340        3.94541       -0.05699
H        -10.53896        3.54056        1.40512
O         -3.17288        2.75221       -3.75103
H         -3.18286        3.67750       -3.50303
H         -3.16143        2.75237       -4.70896
O         -5.43032        4.39266        1.64062
H         -5.44030        5.31795        1.88862
H         -5.41887        4.39282        0.68269
O         -2.68820        4.65066        0.66297
H         -2.69818        5.57595        0.91097
H         -2.67675        4.65082       -0.29496
O          6.74558        3.40696        2.31871
H          6.73560        4.33225        2.56671
H          6.75703        3.40712        1.36078
O          0.96466        0.17620       -1.70741
H          0.95467        1.10149       -1.45941
H          0.97611        0.17635       -2.66534
O         11.92859        3.81866       -2.38723
H         11.91618        4.74426       -2.14049
H         11.94955        3.81764       -3.34500
O          8.72942        4.26503        3.51103
H          8.80867        5.18822        3.75437
H          8.64055        4.26679        2.55716
O          5.52197       -4.44548        3.37308
H          5.51199       -3.52019        3.62108
H          5.53342       -4.44532        2.41515
O          7.26082       -3.22915        1.50348
H          7.25084       -2.30386        1.75148
H          7.27227       -3.22899        0.54555
O          9.35605       -1.60127        3.24286
H          9.88378       -2.39531        3.33640
H          9.40767       -1.16737        4.09540
O         12.45412       -2.26507        0.32593
H         12.36538       -3.15736       -0.01130
H         12.87557       -2.36378        1.18057
O         12.95329       -4.62871       -1.56954
H         12.94331       -3.70342       -1.32154
H         12.96474       -4.62856       -2.52747
O         -9.07680       -4.51425        4.14653
H         -9.37060       -3.60374        4.19564
H         -9.03565       -4.71134        3.20992
O         -7.84704       -5.02302        0.98906
H         -7.76080       -4.11517        1.28256
H         -7.80811       -4.97923        0.03286
O        -12.99779       -5.82679        1.63717
H        -13.00777       -4.90150        1.88517
H        -12.98634       -5.82663        0.67924
O          9.26426       -5.10942       -1.80888
H          9.25427       -4.18413       -1.56088
H          9.27571       -5.10927       -2.76681
O        -13.07847       -4.48662       -2.40226
H        -13.08845       -3.56133       -2.15426
H        -13.06702       -4.48647       -3.36019
O        -13.21397        3.91186        2.43251
H        -13.22395        4.83715        2.68051
H        -13.20252        3.91201        1.47458
O         -8.16710        2.64940        0.03972
H         -8.15565        2.64956       -0.91822
H         -8.17708        3.57469        0.28772
O         -5.36346        4.52204       -2.28129
H         -5.37344        5.44733       -2.03330
H         -5.35201        4.52220       -3.23923
O          7.56141        1.77939        4.17683
H          7.37707        2.42714        3.49551
H          7.70781        0.95841        3.70533
O         13.22293        3.97806        3.21705
H         13.64840        3.65216        4.01111
H         13.41239        3.32057        2.54655
O         -9.58822       -0.30917       -2.18860
H         -9.59821        0.61612       -1.94060
O         10.95584       -4.75246        2.33310
H         10.94586       -3.82717        2.58110
