973

C        -10.83018       -5.91710      -10.01539
C         -8.29167       -5.93002       -9.96125
C         -9.54707       -5.18193      -10.47155
H         -8.31468       -5.95106       -8.84622
H         -8.23931       -2.96852      -11.51631
C         -8.26647       -2.99013      -10.40134
C         -9.55163       -3.72517       -9.94969
H         -9.52232       -5.16247      -11.58659
C        -10.80397       -2.97671      -10.46600
C        -12.09110       -3.70876      -10.01363
C        -12.08619       -5.17189      -10.52965
H        -12.05884       -5.15610      -11.64470
H        -10.85525       -5.93472       -8.90042
H         -9.57912       -3.74467       -8.83476
H        -10.77537       -2.95873      -11.58091
H        -12.11825       -3.72464       -8.89860
C        -10.80604       -1.51960       -9.94474
C         -8.26980       -1.53436       -9.87594
C         -9.51869       -0.78492      -10.39329
C        -12.05280       -0.76915      -10.46601
H        -10.83780       -1.53779       -8.82990
H         -8.29949       -1.55583       -8.76107
H        -12.01879       -0.75248      -11.58111
H         -9.48736       -0.76535      -11.50835
C        -13.34832       -1.49643      -10.01997
C        -13.34713       -2.95913      -10.52993
C        -13.37374       -5.90816      -10.07558
C        -14.57628       -0.72517      -10.54184
C        -14.61627       -3.70546      -10.07738
C        -14.61120       -5.14879      -10.59005
H        -14.58978       -0.72407      -11.65400
H        -13.38999       -1.50872       -8.90646
H        -13.32707       -2.94671      -11.64405
H        -14.69209       -3.70690       -8.96780
H        -14.63227       -5.14692      -11.70200
H        -13.40851       -5.92025       -8.96188
C        -14.56858        0.71998      -10.03128
C        -13.28676        1.44027      -10.46282
C        -12.04864        0.69181       -9.94724
C        -10.76465        1.41649      -10.38633
C         -9.52118        0.67353       -9.87113
C         -8.23748        1.40231      -10.30833
H        -14.65004        0.72750       -8.92308
H        -12.08272        0.68754       -8.83429
H         -9.55461        0.66666       -8.75826
H        -13.26317        1.51102      -11.57273
H        -10.73046        1.48528      -11.49715
H         -8.20427        1.47498      -11.41887
C         -8.28665        5.87191      -10.48582
C         -9.56566        5.13594      -10.02618
C        -10.82250        5.88354      -10.53592
H         -8.26607        5.89278      -11.60095
C         -9.55885        3.67698      -10.54698
H         -9.58674        5.11730       -8.91094
C        -10.83309        2.94761      -10.09138
C        -12.08655        3.68512      -10.59303
C        -12.10081        5.14651      -10.07568
H         -9.53988        3.68290      -11.66023
H        -10.80050        5.90126      -11.65103
H        -12.12142        5.13043       -8.96024
H        -12.06610        3.68872      -11.70635
H        -10.85320        2.87990       -8.98017
C         -8.30441        2.93567      -10.04988
H         -8.32209        2.86484       -8.93892
C        -13.36522        5.88694      -10.58494
C        -13.35623        2.95006      -10.13878
C        -14.62538        5.12886      -10.12411
C        -14.60759        3.68332      -10.63332
H        -13.35200        5.89894      -11.69919
H        -14.69371        5.12872       -9.01400
H        -14.63434        3.67576      -11.74420
H        -13.38806        2.88005       -9.02902
C         -3.23118       -5.91710      -10.01539
C         -0.69267       -5.93002       -9.96125
C         -1.94807       -5.18193      -10.47155
H         -0.71568       -5.95106       -8.84622
H         -0.64031       -2.96852      -11.51631
C         -0.66747       -2.99013      -10.40134
C         -1.95263       -3.72517       -9.94969
H         -1.92332       -5.16247      -11.58659
C         -3.20497       -2.97671      -10.46600
C         -4.49210       -3.70876      -10.01363
C         -4.48719       -5.17189      -10.52965
H         -4.45984       -5.15610      -11.64470
H         -3.25625       -5.93472       -8.90042
H         -1.98012       -3.74467       -8.83476
H         -3.17637       -2.95873      -11.58091
H         -4.51925       -3.72464       -8.89860
C         -3.20704       -1.51960       -9.94474
C         -0.67080       -1.53436       -9.87594
C         -1.91969       -0.78492      -10.39329
C         -4.45380       -0.76915      -10.46601
H         -3.23880       -1.53779       -8.82990
H         -0.70049       -1.55583       -8.76107
H         -4.41979       -0.75248      -11.58111
H         -1.88836       -0.76535      -11.50835
C         -5.74932       -1.49643      -10.01997
C         -5.74813       -2.95913      -10.52993
C         -5.77474       -5.90816      -10.07558
C         -6.97728       -0.72517      -10.54184
C         -7.01727       -3.70546      -10.07738
C         -7.01220       -5.14879      -10.59005
H         -6.99078       -0.72407      -11.65400
H         -5.79099       -1.50872       -8.90646
H         -5.72807       -2.94671      -11.64405
H         -7.09309       -3.70690       -8.96780
H         -7.03327       -5.14692      -11.70200
H         -5.80951       -5.92025       -8.96188
C         -6.96958        0.71998      -10.03128
C         -5.68776        1.44027      -10.46282
C         -4.44964        0.69181       -9.94724
C         -3.16565        1.41649      -10.38633
C         -1.92218        0.67353       -9.87113
C         -0.63848        1.40231      -10.30833
H         -7.05104        0.72750       -8.92308
H         -4.48372        0.68754       -8.83429
H         -1.95561        0.66666       -8.75826
H         -5.66417        1.51102      -11.57273
H         -3.13146        1.48528      -11.49715
H         -0.60527        1.47498      -11.41887
C         -0.68765        5.87191      -10.48582
C         -1.96666        5.13594      -10.02618
C         -3.22350        5.88354      -10.53592
H         -0.66707        5.89278      -11.60095
C         -1.95985        3.67698      -10.54698
H         -1.98774        5.11730       -8.91094
C         -3.23409        2.94761      -10.09138
C         -4.48755        3.68512      -10.59303
C         -4.50181        5.14651      -10.07568
H         -1.94088        3.68290      -11.66023
H         -3.20150        5.90126      -11.65103
H         -4.52242        5.13043       -8.96024
H         -4.46710        3.68872      -11.70635
H         -3.25420        2.87990       -8.98017
C         -0.70541        2.93567      -10.04988
H         -0.72309        2.86484       -8.93892
C         -5.76622        5.88694      -10.58494
C         -5.75723        2.95006      -10.13878
C         -7.02638        5.12886      -10.12411
C         -7.00859        3.68332      -10.63332
H         -5.75300        5.89894      -11.69919
H         -7.09471        5.12872       -9.01400
H         -7.03534        3.67576      -11.74420
H         -5.78906        2.88005       -9.02902
C          4.36782       -5.91710      -10.01539
C          6.90633       -5.93002       -9.96125
C          5.65093       -5.18193      -10.47155
H          6.88332       -5.95106       -8.84622
H          6.95869       -2.96852      -11.51631
C          6.93153       -2.99013      -10.40134
C          5.64637       -3.72517       -9.94969
H          5.67568       -5.16247      -11.58659
C          4.39403       -2.97671      -10.46600
C          3.10690       -3.70876      -10.01363
C          3.11181       -5.17189      -10.52965
H          3.13916       -5.15610      -11.64470
H          4.34275       -5.93472       -8.90042
H          5.61888       -3.74467       -8.83476
H          4.42263       -2.95873      -11.58091
H          3.07975       -3.72464       -8.89860
C          4.39196       -1.51960       -9.94474
C          6.92820       -1.53436       -9.87594
C          5.67931       -0.78492      -10.39329
C          3.14520       -0.76915      -10.46601
H          4.36020       -1.53779       -8.82990
H          6.89851       -1.55583       -8.76107
H          3.17921       -0.75248      -11.58111
H          5.71064       -0.76535      -11.50835
C          1.84968       -1.49643      -10.01997
C          1.85087       -2.95913      -10.52993
C          1.82426       -5.90816      -10.07558
C          0.62172       -0.72517      -10.54184
C          0.58173       -3.70546      -10.07738
C          0.58680       -5.14879      -10.59005
H          0.60822       -0.72407      -11.65400
H          1.80801       -1.50872       -8.90646
H          1.87093       -2.94671      -11.64405
H          0.50591       -3.70690       -8.96780
H          0.56573       -5.14692      -11.70200
H          1.78949       -5.92025       -8.96188
C          0.62942        0.71998      -10.03128
C          1.91124        1.44027      -10.46282
C          3.14936        0.69181       -9.94724
C          4.43335        1.41649      -10.38633
C          5.67682        0.67353       -9.87113
C          6.96052        1.40231      -10.30833
H          0.54796        0.72750       -8.92308
H          3.11528        0.68754       -8.83429
H          5.64339        0.66666       -8.75826
H          1.93483        1.51102      -11.57273
H          4.46754        1.48528      -11.49715
H          6.99373        1.47498      -11.41887
C          6.91135        5.87191      -10.48582
C          5.63234        5.13594      -10.02618
C          4.37550        5.88354      -10.53592
H          6.93193        5.89278      -11.60095
C          5.63915        3.67698      -10.54698
H          5.61126        5.11730       -8.91094
C          4.36491        2.94761      -10.09138
C          3.11145        3.68512      -10.59303
C          3.09719        5.14651      -10.07568
H          5.65812        3.68290      -11.66023
H          4.39750        5.90126      -11.65103
H          3.07658        5.13043       -8.96024
H          3.13190        3.68872      -11.70635
H          4.34480        2.87990       -8.98017
C          6.89359        2.93567      -10.04988
H          6.87591        2.86484       -8.93892
C          1.83278        5.88694      -10.58494
C          1.84177        2.95006      -10.13878
C          0.57262        5.12886      -10.12411
C          0.59041        3.68332      -10.63332
H          1.84600        5.89894      -11.69919
H          0.50429        5.12872       -9.01400
H          0.56366        3.67576      -11.74420
H          1.80994        2.88005       -9.02902
C         11.96682       -5.91710      -10.01539
C         14.50533       -5.93002       -9.96125
C         13.24993       -5.18193      -10.47155
H         14.48232       -5.95106       -8.84622
H         14.55769       -2.96852      -11.51631
C         14.53053       -2.99013      -10.40134
C         13.24537       -3.72517       -9.94969
H         13.27468       -5.16247      -11.58659
C         11.99303       -2.97671      -10.46600
C         10.70590       -3.70876      -10.01363
C         10.71081       -5.17189      -10.52965
H         10.73816       -5.15610      -11.64470
H         11.94175       -5.93472       -8.90042
H         13.21788       -3.74467       -8.83476
H         12.02163       -2.95873      -11.58091
H         10.67875       -3.72464       -8.89860
C         11.99096       -1.51960       -9.94474
C         14.52720       -1.53436       -9.87594
C         13.27831       -0.78492      -10.39329
C         10.74420       -0.76915      -10.46601
H         11.95920       -1.53779       -8.82990
H         14.49751       -1.55583       -8.76107
H         10.77821       -0.75248      -11.58111
H         13.30964       -0.76535      -11.50835
C          9.44868       -1.49643      -10.01997
C          9.44987       -2.95913      -10.52993
C          9.42326       -5.90816      -10.07558
C          8.22072       -0.72517      -10.54184
C          8.18073       -3.70546      -10.07738
C          8.18580       -5.14879      -10.59005
H          8.20722       -0.72407      -11.65400
H          9.40701       -1.50872       -8.90646
H          9.46993       -2.94671      -11.64405
H          8.10491       -3.70690       -8.96780
H          8.16473       -5.14692      -11.70200
H          9.38849       -5.92025       -8.96188
C          8.22842        0.71998      -10.03128
C          9.51024        1.44027      -10.46282
C         10.74836        0.69181       -9.94724
C         12.03235        1.41649      -10.38633
C         13.27582        0.67353       -9.87113
C         14.55952        1.40231      -10.30833
H          8.14696        0.72750       -8.92308
H         10.71428        0.68754       -8.83429
H         13.24239        0.66666       -8.75826
H          9.53383        1.51102      -11.57273
H         12.06654        1.48528      -11.49715
H         14.59273        1.47498      -11.41887
C         14.51035        5.87191      -10.48582
C         13.23134        5.13594      -10.02618
C         11.97450        5.88354      -10.53592
H         14.53093        5.89278      -11.60095
C         13.23815        3.67698      -10.54698
H         13.21026        5.11730       -8.91094
C         11.96391        2.94761      -10.09138
C         10.71045        3.68512      -10.59303
C         10.69619        5.14651      -10.07568
H         13.25712        3.68290      -11.66023
H         11.99650        5.90126      -11.65103
H         10.67558        5.13043       -8.96024
H         10.73090        3.68872      -11.70635
H         11.94380        2.87990       -8.98017
C         14.49259        2.93567      -10.04988
H         14.47491        2.86484       -8.93892
C          9.43178        5.88694      -10.58494
C          9.44077        2.95006      -10.13878
C          8.17162        5.12886      -10.12411
C          8.18941        3.68332      -10.63332
H          9.44500        5.89894      -11.69919
H          8.10329        5.12872       -9.01400
H          8.16266        3.67576      -11.74420
H          9.40894        2.88005       -9.02902
C        -10.83018       -5.91710        9.98461
C         -8.29167       -5.93002       10.03875
C         -9.54707       -5.18193        9.52845
H         -8.31468       -5.95106       11.15378
H         -8.23931       -2.96852        8.48369
C         -8.26647       -2.99013        9.59866
C         -9.55163       -3.72517       10.05031
H         -9.52232       -5.16247        8.41341
C        -10.80397       -2.97671        9.53400
C        -12.09110       -3.70876        9.98637
C        -12.08619       -5.17189        9.47035
H        -12.05884       -5.15610        8.35530
H        -10.85525       -5.93472       11.09958
H         -9.57912       -3.74467       11.16524
H        -10.77537       -2.95873        8.41909
H        -12.11825       -3.72464       11.10140
C        -10.80604       -1.51960       10.05526
C         -8.26980       -1.53436       10.12406
C         -9.51869       -0.78492        9.60671
C        -12.05280       -0.76915        9.53399
H        -10.83780       -1.53779       11.17010
H         -8.29949       -1.55583       11.23893
H        -12.01879       -0.75248        8.41889
H         -9.48736       -0.76535        8.49165
C        -13.34832       -1.49643        9.98003
C        -13.34713       -2.95913        9.47007
C        -13.37374       -5.90816        9.92442
C        -14.57628       -0.72517        9.45816
C        -14.61627       -3.70546        9.92262
C        -14.61120       -5.14879        9.40995
H        -14.58978       -0.72407        8.34600
H        -13.38999       -1.50872       11.09354
H        -13.32707       -2.94671        8.35595
H        -14.69209       -3.70690       11.03220
H        -14.63227       -5.14692        8.29800
H        -13.40851       -5.92025       11.03812
C        -14.56858        0.71998        9.96872
C        -13.28676        1.44027        9.53718
C        -12.04864        0.69181       10.05276
C        -10.76465        1.41649        9.61367
C         -9.52118        0.67353       10.12887
C         -8.23748        1.40231        9.69167
H        -14.65004        0.72750       11.07692
H        -12.08272        0.68754       11.16571
H         -9.55461        0.66666       11.24174
H        -13.26317        1.51102        8.42727
H        -10.73046        1.48528        8.50285
H         -8.20427        1.47498        8.58113
C         -8.28665        5.87191        9.51418
C         -9.56566        5.13594        9.97382
C        -10.82250        5.88354        9.46408
H         -8.26607        5.89278        8.39905
C         -9.55885        3.67698        9.45302
H         -9.58674        5.11730       11.08906
C        -10.83309        2.94761        9.90862
C        -12.08655        3.68512        9.40697
C        -12.10081        5.14651        9.92432
H         -9.53988        3.68290        8.33977
H        -10.80050        5.90126        8.34897
H        -12.12142        5.13043       11.03976
H        -12.06610        3.68872        8.29365
H        -10.85320        2.87990       11.01983
C         -8.30441        2.93567        9.95012
H         -8.32209        2.86484       11.06108
C        -13.36522        5.88694        9.41506
C        -13.35623        2.95006        9.86122
C        -14.62538        5.12886        9.87589
C        -14.60759        3.68332        9.36668
H        -13.35200        5.89894        8.30081
H        -14.69371        5.12872       10.98600
H        -14.63434        3.67576        8.25580
H        -13.38806        2.88005       10.97098
C         -3.23118       -5.91710        9.98461
C         -0.69267       -5.93002       10.03875
C         -1.94807       -5.18193        9.52845
H         -0.71568       -5.95106       11.15378
H         -0.64031       -2.96852        8.48369
C         -0.66747       -2.99013        9.59866
C         -1.95263       -3.72517       10.05031
H         -1.92332       -5.16247        8.41341
C         -3.20497       -2.97671        9.53400
C         -4.49210       -3.70876        9.98637
C         -4.48719       -5.17189        9.47035
H         -4.45984       -5.15610        8.35530
H         -3.25625       -5.93472       11.09958
H         -1.98012       -3.74467       11.16524
H         -3.17637       -2.95873        8.41909
H         -4.51925       -3.72464       11.10140
C         -3.20704       -1.51960       10.05526
C         -0.67080       -1.53436       10.12406
C         -1.91969       -0.78492        9.60671
C         -4.45380       -0.76915        9.53399
H         -3.23880       -1.53779       11.17010
H         -0.70049       -1.55583       11.23893
H         -1.88836       -0.76535        8.49165
C         -5.74932       -1.49643        9.98003
C         -5.74813       -2.95913        9.47007
C         -5.77474       -5.90816        9.92442
C         -6.97728       -0.72517        9.45816
C         -7.01727       -3.70546        9.92262
C         -7.01220       -5.14879        9.40995
H         -6.99078       -0.72407        8.34600
H         -5.79099       -1.50872       11.09354
H         -5.72807       -2.94671        8.35595
H         -7.09309       -3.70690       11.03220
H         -7.03327       -5.14692        8.29800
H         -5.80951       -5.92025       11.03812
C         -6.96958        0.71998        9.96872
C         -5.68776        1.44027        9.53718
C         -4.44964        0.69181       10.05276
C         -3.16565        1.41649        9.61367
C         -1.92218        0.67353       10.12887
C         -0.63848        1.40231        9.69167
H         -7.05104        0.72750       11.07692
H         -4.48372        0.68754       11.16571
H         -1.95561        0.66666       11.24174
H         -5.66417        1.51102        8.42727
H         -3.13146        1.48528        8.50285
H         -0.60527        1.47498        8.58113
C         -0.68765        5.87191        9.51418
C         -1.96666        5.13594        9.97382
C         -3.22350        5.88354        9.46408
H         -0.66707        5.89278        8.39905
C         -1.95985        3.67698        9.45302
H         -1.98774        5.11730       11.08906
C         -3.23409        2.94761        9.90862
C         -4.48755        3.68512        9.40697
C         -4.50181        5.14651        9.92432
H         -1.94088        3.68290        8.33977
H         -3.20150        5.90126        8.34897
H         -4.52242        5.13043       11.03976
H         -4.46710        3.68872        8.29365
H         -3.25420        2.87990       11.01983
C         -0.70541        2.93567        9.95012
H         -0.72309        2.86484       11.06108
C         -5.76622        5.88694        9.41506
C         -5.75723        2.95006        9.86122
C         -7.02638        5.12886        9.87589
C         -7.00859        3.68332        9.36668
H         -5.75300        5.89894        8.30081
H         -7.09471        5.12872       10.98600
H         -7.03534        3.67576        8.25580
H         -5.78906        2.88005       10.97098
C          4.36782       -5.91710        9.98461
C          6.90633       -5.93002       10.03875
C          5.65093       -5.18193        9.52845
H          6.88332       -5.95106       11.15378
H          6.95869       -2.96852        8.48369
C          6.93153       -2.99013        9.59866
C          5.64637       -3.72517       10.05031
H          5.67568       -5.16247        8.41341
C          4.39403       -2.97671        9.53400
C          3.10690       -3.70876        9.98637
C          3.11181       -5.17189        9.47035
H          3.13916       -5.15610        8.35530
H          4.34275       -5.93472       11.09958
H          5.61888       -3.74467       11.16524
H          4.42263       -2.95873        8.41909
H          3.07975       -3.72464       11.10140
C          4.39196       -1.51960       10.05526
C          6.92820       -1.53436       10.12406
C          5.67931       -0.78492        9.60671
C          3.14520       -0.76915        9.53399
H          4.36020       -1.53779       11.17010
H          6.89851       -1.55583       11.23893
H          3.17921       -0.75248        8.41889
C          1.84968       -1.49643        9.98003
C          1.85087       -2.95913        9.47007
C          1.82426       -5.90816        9.92442
C          0.62172       -0.72517        9.45816
C          0.58173       -3.70546        9.92262
C          0.58680       -5.14879        9.40995
H          0.60822       -0.72407        8.34600
H          1.80801       -1.50872       11.09354
H          1.87093       -2.94671        8.35595
H          0.50591       -3.70690       11.03220
H          0.56573       -5.14692        8.29800
H          1.78949       -5.92025       11.03812
C          0.62942        0.71998        9.96872
C          1.91124        1.44027        9.53718
C          3.14936        0.69181       10.05276
C          4.43335        1.41649        9.61367
C          5.67682        0.67353       10.12887
C          6.96052        1.40231        9.69167
H          0.54796        0.72750       11.07692
H          3.11528        0.68754       11.16571
H          5.64339        0.66666       11.24174
H          1.93483        1.51102        8.42727
H          4.46754        1.48528        8.50285
H          6.99373        1.47498        8.58113
C          6.91135        5.87191        9.51418
C          5.63234        5.13594        9.97382
C          4.37550        5.88354        9.46408
H          6.93193        5.89278        8.39905
C          5.63915        3.67698        9.45302
H          5.61126        5.11730       11.08906
C          4.36491        2.94761        9.90862
C          3.11145        3.68512        9.40697
C          3.09719        5.14651        9.92432
H          5.65812        3.68290        8.33977
H          4.39750        5.90126        8.34897
H          3.07658        5.13043       11.03976
H          3.13190        3.68872        8.29365
H          4.34480        2.87990       11.01983
C          6.89359        2.93567        9.95012
H          6.87591        2.86484       11.06108
C          1.83278        5.88694        9.41506
C          1.84177        2.95006        9.86122
C          0.57262        5.12886        9.87589
C          0.59041        3.68332        9.36668
H          1.84600        5.89894        8.30081
H          0.50429        5.12872       10.98600
H          0.56366        3.67576        8.25580
H          1.80994        2.88005       10.97098
C         11.96682       -5.91710        9.98461
C         14.50533       -5.93002       10.03875
C         13.24993       -5.18193        9.52845
H         14.48232       -5.95106       11.15378
H         14.55769       -2.96852        8.48369
C         14.53053       -2.99013        9.59866
C         13.24537       -3.72517       10.05031
H         13.27468       -5.16247        8.41341
C         11.99303       -2.97671        9.53400
C         10.70590       -3.70876        9.98637
C         10.71081       -5.17189        9.47035
H         10.73816       -5.15610        8.35530
H         11.94175       -5.93472       11.09958
H         13.21788       -3.74467       11.16524
H         12.02163       -2.95873        8.41909
H         10.67875       -3.72464       11.10140
C         11.99096       -1.51960       10.05526
C         14.52720       -1.53436       10.12406
C         13.27831       -0.78492        9.60671
C         10.74420       -0.76915        9.53399
H         11.95920       -1.53779       11.17010
H         14.49751       -1.55583       11.23893
H         10.77821       -0.75248        8.41889
H         13.30964       -0.76535        8.49165
C          9.44868       -1.49643        9.98003
C          9.44987       -2.95913        9.47007
C          9.42326       -5.90816        9.92442
C          8.22072       -0.72517        9.45816
C          8.18073       -3.70546        9.92262
C          8.18580       -5.14879        9.40995
H          8.20722       -0.72407        8.34600
H          9.40701       -1.50872       11.09354
H          9.46993       -2.94671        8.35595
H          8.10491       -3.70690       11.03220
H          8.16473       -5.14692        8.29800
H          9.38849       -5.92025       11.03812
C          8.22842        0.71998        9.96872
C          9.51024        1.44027        9.53718
C         10.74836        0.69181       10.05276
C         12.03235        1.41649        9.61367
C         13.27582        0.67353       10.12887
C         14.55952        1.40231        9.69167
H          8.14696        0.72750       11.07692
H         10.71428        0.68754       11.16571
H         13.24239        0.66666       11.24174
H          9.53383        1.51102        8.42727
H         12.06654        1.48528        8.50285
H         14.59273        1.47498        8.58113
C         14.51035        5.87191        9.51418
C         13.23134        5.13594        9.97382
C         11.97450        5.88354        9.46408
H         14.53093        5.89278        8.39905
C         13.23815        3.67698        9.45302
H         13.21026        5.11730       11.08906
C         11.96391        2.94761        9.90862
C         10.71045        3.68512        9.40697
C         10.69619        5.14651        9.92432
H         13.25712        3.68290        8.33977
H         11.99650        5.90126        8.34897
H         10.67558        5.13043       11.03976
H         10.73090        3.68872        8.29365
H         11.94380        2.87990       11.01983
C         14.49259        2.93567        9.95012
H         14.47491        2.86484       11.06108
C          9.43178        5.88694        9.41506
C          9.44077        2.95006        9.86122
C          8.17162        5.12886        9.87589
C          8.18941        3.68332        9.36668
H          9.44500        5.89894        8.30081
H          8.10329        5.12872       10.98600
H          8.16266        3.67576        8.25580
H          9.40894        2.88005       10.97098
N         -5.66115       -1.56922        5.78540
C         -5.71676       -1.38944        7.26991
H         -6.56753       -0.73772        7.49941
H         -5.87818       -2.41612        7.61789
C         -4.45380       -0.76915        7.91399
H         -3.57034       -1.41393        7.72871
H         -4.26381        0.24140        7.49798
C         -6.94133       -2.18104        5.35204
H         -7.09789       -3.17083        5.83746
H         -7.80631       -1.53095        5.61465
H         -6.96190       -2.33989        4.25006
C         -4.55651       -2.47546        5.38949
H         -4.62912       -3.44993        5.92201
H         -4.58096       -2.67952        4.29526
H         -3.56254       -2.02961        5.60357
C         -5.50876       -0.26969        5.08804
H         -5.56157       -0.40131        3.98372
H         -6.31150        0.44069        5.38720
H         -4.52561        0.19914        5.30234
N          2.14529       -3.09240        1.70128
C          2.09062       -2.91563        3.16060
H          1.27233       -2.23251        3.41547
H          1.91906       -3.88618        3.64001
C          3.41650       -2.33014        3.65375
H          4.23481       -3.01324        3.39889
H          3.58807       -1.35957        3.17440
C          5.67931       -0.78492        7.98671
H          6.56719       -1.43128        7.81952
H          5.87649        0.23249        7.58672
C          4.44196       -1.39023        7.33422
H          4.27218       -2.42971        7.63733
H          3.57998       -0.74375        7.53489
C          4.62256       -1.52591        5.81667
H          5.50602       -2.17069        5.63139
H          4.81255       -0.51536        5.40066
C          3.35960       -2.14620        5.17259
H          3.18506       -3.13400        5.65905
H          2.49264       -1.49601        5.43428
C          2.37562       -1.78977        1.05790
H          3.32478       -1.37066        1.41100
H          1.55731       -1.10667        1.31275
H          2.41639       -1.92147       -0.02940
C          0.87136       -3.65492        1.22746
H          0.91211       -3.78664        0.14016
H          0.05310       -2.97175        1.48230
H          0.69977       -4.62544        1.70689
C          3.24358       -4.00927        1.35926
H          4.19272       -3.59012        1.71234
H          3.28432       -4.14097        0.27197
H          3.07194       -4.97979        1.83867
O         -5.98699        0.14778       -1.00816
H         -5.99697        1.07307       -0.76016
H         -5.97554        0.14794       -1.96609
O         -6.39773        1.47996       -4.17885
H         -5.63317        1.85919       -3.74365
H         -6.22876        1.58798       -5.11563
O        -13.66690        0.18985       -3.51701
H        -13.67688        1.11514       -3.26901
H        -13.65545        0.19001       -4.47494
O        -13.60058       -2.29366        0.04388
H        -12.84848       -1.70589       -0.03746
H        -13.32327       -3.11034       -0.37313
O        -12.97422        0.59209        1.85268
H        -12.98420        1.51738        2.10068
H        -12.96277        0.59225        0.89475
O        -11.47920       -0.51305       -3.25862
H        -11.48918        0.41224       -3.01062
H        -11.46775       -0.51289       -4.21655
O        -11.04647        0.69253       -0.83515
H        -10.09488        0.66945       -0.94335
H        -11.33412       -0.21017       -0.97707
O        -10.74739        1.16746        1.81473
H        -11.15122        1.40035        0.97781
H        -10.64382        0.21558        1.78369
O        -13.16545        1.40954        4.05503
H        -12.20959        1.34562        4.05850
H        -13.47324        0.51485        3.90484
O        -10.21685        1.01616        4.06637
H        -10.48329        1.80926        3.59971
H        -11.01168        0.48468        4.12593
O         -9.02311        1.93925       -4.77571
H         -8.52231        1.46055       -5.43739
H         -9.75841        1.36510       -4.55788
O         -8.46863        1.93399       -2.30178
H         -7.61891        2.03344       -1.87067
H         -8.38914        1.13561       -2.82526
O         -9.03069        1.92262        3.45753
H         -9.04068        2.84791        3.70553
H         -9.01924        1.92278        2.49960
O         -3.96031        0.84320       -1.14300
H         -3.27583        1.43862       -1.45076
H         -4.12020        0.24868       -1.87699
O         -2.86095        0.95002        1.02352
H         -2.29160        1.67800        0.77121
H         -3.07983        0.50992        0.20123
O         -1.56944        1.04292        3.53702
H         -1.32061        1.96789        3.52047
H         -1.88699        0.85572        2.65278
O          0.73088        0.91742        3.18776
H          0.72090        1.84271        3.43576
H          0.74233        0.91758        2.22983
O         -0.37283        0.74005        1.27162
H         -0.38281        1.66534        1.51962
H         -0.36138        0.74021        0.31369
O         -1.38970        0.53760       -0.88014
H         -1.39968        1.46289       -0.63214
H         -1.37825        0.53776       -1.83807
O         -1.73713        0.59345       -3.43408
H         -1.46117        1.33112       -3.97947
H         -1.52338       -0.18731       -3.94641
O          0.06450        0.68376       -4.81396
H          0.89394        0.60137       -5.28619
H         -0.48847       -0.01796       -5.15977
O          2.44849        0.66936       -4.45428
H          3.36125        0.87117       -4.66385
H          2.32828       -0.24245       -4.72243
O          5.57340        0.52381       -4.29879
H          6.34077        0.70439       -4.84312
H          5.03392       -0.07164       -4.82049
O          5.61181        0.32869       -1.93168
H          5.60183        1.25398       -1.68368
H          5.62326        0.32885       -2.88961
O          5.92224        0.85806        0.34052
H          6.71241        1.18467       -0.09160
H          5.38486        0.49677       -0.36549
O          7.20334        1.04197        2.38679
H          8.10730        1.35199        2.45394
H          7.11399        0.73169        1.48484
O         10.12224        1.03719        3.45717
H          9.28448        1.49235        3.55070
H         10.18135        0.81525        2.52711
O          8.93429        0.83255       -0.04602
H          9.77694        1.08979        0.33019
H          9.15162        0.42390       -0.88479
O          8.28823        0.45730       -2.10173
H          7.51026        1.01625       -2.09210
H          8.43831        0.25716       -3.02650
O          8.77264        0.34617       -4.33150
H          9.62755        0.77617       -4.37611
H          8.67837       -0.10589       -5.17086
O         11.34141        0.00514       -4.30267
H         11.33143        0.93043       -4.05467
H         11.35286        0.00530       -5.26060
O         10.78443        0.64731       -1.82989
H         11.66586        0.85230       -1.51551
H         10.91658        0.21829       -2.67620
O         11.74058        1.03556        0.87033
H         12.64959        0.74079        0.93796
H         11.43291        0.69928        0.02770
O         12.05977        1.05046        3.88879
H         11.65132        1.33343        3.06973
H         12.99235        0.96857        3.68544
O         14.13670        0.80994        2.05776
H         14.01631        0.76277        1.10852
H         13.32596        1.19593        2.39164
O         13.39341        0.03396       -3.89508
H         12.91330        0.68264       -3.37888
H         13.26483        0.29821       -4.80689
O         13.45407        0.26205       -0.95338
H         14.07013        0.92547       -0.64016
H         12.91632        0.71167       -1.60639
O          1.04582        4.06356       -3.60254
H          1.03584        4.98885       -3.35454
H          1.05727        4.06372       -4.56047
O          1.26929        5.27984       -1.51709
H          0.95911        5.25674       -0.61099
H          1.00594        4.43800       -1.89086
O          1.07781        3.88290        1.07729
H          0.49701        4.62585        1.24596
H          1.26975        3.92609        0.13971
O          0.58791        5.16745        3.22083
H          1.12817        4.38996        3.36707
H          0.72405        5.39438        2.30010
O          1.30405       -4.85436       -4.22603
H          1.29407       -3.92907       -3.97803
H          1.31550       -4.85420       -5.18396
O          0.80634       -5.54042        3.90168
H          0.79636       -4.61513        4.14968
H          0.81779       -5.54027        2.94375
O          8.67644        3.38175       -2.54362
H          8.66646        4.30704       -2.29562
H          8.68789        3.38191       -3.50155
O        -10.75237       -4.63895       -3.50830
H        -10.76235       -3.71366       -3.26030
H        -10.74092       -4.63879       -4.46623
O          4.54200        4.47419       -0.01415
H          3.85411        3.80809        0.01557
H          4.51831        4.81534       -0.90903
O          3.22282        2.70534        3.16292
H          2.53470        2.05569        3.31194
H          3.37886        2.68891        2.21786
O         -3.22553       -4.74908       -4.08674
H         -3.23551       -3.82379       -3.83874
H         -3.21408       -4.74892       -5.04467
O         -2.06157       -2.83776       -2.90130
H         -2.05654       -2.10931       -3.52347
H         -1.66880       -3.57163       -3.37557
O         -5.99523       -4.79180        2.86196
H         -6.00521       -3.86651        3.10996
H         -5.98378       -4.79164        1.90403
O         -8.20932        4.39458        3.33877
H         -8.70096        3.59319        3.15484
H         -7.80362        4.24586        4.19379
O        -10.77000        4.27838        0.81662
H        -10.62986        3.95179       -0.07302
H        -10.53542        3.54694        1.38909
O         -3.16934        2.75859       -3.76706
H         -3.17932        3.68388       -3.51906
H         -3.15789        2.75875       -4.72499
O         -5.42678        4.39904        1.62459
H         -5.43676        5.32433        1.87259
H         -5.41533        4.39920        0.66666
O         -2.68466        4.65704        0.64694
H         -2.69464        5.58233        0.89494
H         -2.67321        4.65720       -0.31099
O          6.74912        3.41334        2.30268
H          6.73914        4.33863        2.55068
H          6.76057        3.41350        1.34475
O         11.93213        3.82504       -2.40326
H         11.91972        4.75064       -2.15652
H         11.95309        3.82402       -3.36103
O          8.73296        4.27141        3.49500
H          8.81221        5.19460        3.73834
H          8.64409        4.27317        2.54113
O          5.52551       -4.43910        3.35705
H          5.51553       -3.51381        3.60505
H          5.53696       -4.43894        2.39912
O          7.26436       -3.22277        1.48745
H          7.25438       -2.29748        1.73545
H          7.27581       -3.22261        0.52952
O          9.35959       -1.59489        3.22683
H          9.88732       -2.38893        3.32037
H          9.41121       -1.16099        4.07937
O         12.45766       -2.25869        0.30990
H         12.36892       -3.15098       -0.02733
H         12.87911       -2.35740        1.16454
O         12.95683       -4.62233       -1.58557
H         12.94685       -3.69704       -1.33757
H         12.96828       -4.62218       -2.54350
O         -9.07326       -4.50787        4.13050
H         -9.36706       -3.59736        4.17961
H         -9.03211       -4.70496        3.19389
O         -7.84350       -5.01664        0.97303
H         -7.75726       -4.10879        1.26653
H         -7.80457       -4.97285        0.01683
O        -11.62091       -4.49748        1.22568
H        -11.74371       -3.55604        1.35366
H        -11.65109       -4.62471        0.27664
O          9.26780       -5.10304       -1.82491
H          9.25781       -4.17775       -1.57691
H          9.27925       -5.10289       -2.78284
O        -13.07493       -4.48024       -2.41829
H        -13.08491       -3.55495       -2.17029
H        -13.06348       -4.48009       -3.37622
O        -13.21043        3.91824        2.41648
H        -13.22041        4.84353        2.66448
H        -13.19898        3.91839        1.45855
O         -8.16356        2.65578        0.02369
H         -8.15211        2.65594       -0.93425
H         -8.17354        3.58107        0.27169
O         -5.35992        4.52842       -2.29732
H         -5.36990        5.45371       -2.04933
H         -5.34847        4.52858       -3.25526
O          7.56495        1.78577        4.16080
H          7.38061        2.43352        3.47948
H          7.71135        0.96479        3.68930
O         13.22647        3.98444        3.20102
H         13.65194        3.65854        3.99508
H         13.41593        3.32695        2.53052
O        -12.89491       -3.47013        3.94569
H        -12.31938       -3.66002        4.68763
H        -12.60360       -4.05935        3.24876
O         -8.55595       -3.35830       -1.73092
H         -8.56593       -2.43301       -1.48292
H         -8.54450       -3.35814       -2.68885
O         -6.74682        1.88163        0.53085
H         -6.29606        1.03949        0.45751
H         -6.08271        2.49086        0.85573
O         -5.98636       -1.97124        0.88555
H         -6.17476       -1.24300        0.29230
H         -5.11381       -2.27652        0.63409
O          3.69991        1.83134       -1.98145
H          3.72201        1.34209       -2.80479
H          4.02634        2.70435       -2.20296
O         -2.50078       -2.42664        2.36961
H         -2.53349       -1.75074        3.04774
H         -3.27970       -2.27678        1.83240
O         -0.59392        0.47714        4.98334
H         -1.35457        1.05368        5.06566
H          0.15640        1.06695        4.90022
O         10.99406        3.67299        4.38480
H         10.39807        4.40939        4.24242
H         10.50708        3.06388        4.94121
O        -14.40053        0.23104       -0.72713
H        -14.54817       -0.14110       -1.59746
H        -14.34933        1.17732       -0.86750
O         12.79505       -2.19883        4.05035
H         13.54233       -1.74736        4.44470
H         12.91330       -3.12133        4.28005
O          5.46992        0.38776        2.80263
H          5.12117        1.25334        3.01923
H          5.63498        0.41588        1.85938
O        -10.64171        4.15115       -5.25027
H        -11.39809        3.71753       -4.85323
H         -9.96079        3.47824       -5.28625
O         10.89705       -3.74637       -4.60859
H         10.09003       -3.50353       -4.15305
H         11.56297       -3.14667       -4.26999
O          8.16732        4.92533        0.87977
H          8.98278        5.01822        1.37389
H          7.87092        4.03159        1.05622
O         10.70325        3.74098        0.19919
H          9.85517        4.07234        0.49708
H         10.63417        3.70575       -0.75566
O          6.44831       -3.32583       -3.52325
H          7.23090       -2.77375       -3.54607
H          6.27968       -3.55486       -4.43805
O         -3.85025       -4.56548       -0.72871
H         -3.71448       -4.54330        0.21936
H         -4.49232       -3.87629       -0.90342
O         -1.57301       -4.08886        4.15408
H         -2.04579       -3.26636        4.02092
H         -0.67237       -3.82814        4.35061
O          5.86096        4.05562       -3.02316
H          5.08040        4.56602       -3.24221
H          5.94963        3.42043       -3.73480
O         -2.93637       -4.28910        3.00165
H         -3.65579       -4.25969        3.63358
H         -3.18679       -3.67312        2.31200
O         12.29312        0.25429       -6.84848
H         12.09971       -0.65141       -7.09354
H         11.48862        0.73924       -7.03658
O          7.22798        0.96229       -6.76767
H          6.28006        1.08719       -6.82768
H          7.34500        0.02475       -6.60924
O          2.46321        0.90583       -6.45924
H          3.37906        1.11723       -6.27412
H          2.18988        1.54426       -7.11913
O         -1.95358        1.52563       -6.12714
H         -1.03742        1.79931       -6.06793
H         -2.22920        1.77159       -7.01105
O         -6.03492        2.03795       -6.47154
H         -6.75528        2.02559       -7.10296
H         -5.37818        2.61989       -6.85600
O        -10.78703        2.39206       -6.62702
H        -11.56683        2.90262       -6.40569
H        -10.10530        3.04271       -6.79923
O         11.64318       -0.87004        6.37647
H         10.86455       -0.49620        5.96207
H         12.27127       -0.14803        6.42086
O          7.62018       -0.17264        6.22964
H          7.94255        0.63651        5.83074
H          8.40589       -0.68995        6.41073
O         -0.23953        0.47940        6.66231
H          0.52170        1.02759        6.46794
H         -0.95445        1.09623        6.82410
O        -10.04008        1.67641        6.19696
H        -10.72078        2.27769        6.50172
H         -9.21651        2.14865        6.32533
O        -13.51960        2.49995        6.17327
H        -13.11400        1.69241        5.85528
H        -12.78810        3.05019        6.45594
O         -0.02884       -2.19453       -5.45079
H          0.25987       -1.36950       -5.84285
H          0.77180       -2.60818       -5.12580
O          3.63617       -0.36501       -0.52798
H          3.14605       -0.06471        0.23842
H          3.49635        0.31101       -1.19221
O         -4.29646        0.25752        2.05793
H         -4.77657        0.90620        2.57413
H         -4.42504        0.52177        1.14612
O          0.63224       -1.95155        5.36843
H          0.15213       -1.30287        5.88463
H          0.50366       -1.68730        4.45662
O         -9.24346       -1.36065       -4.98833
H         -9.24419       -0.48894       -4.59101
H         -8.44879       -1.38896       -5.52261
O          8.84995       -4.12129        5.56586
H          8.05152       -3.78586        5.97544
H          8.66637       -4.11831        4.62562
O          4.55829        1.09157        4.61443
H          5.48686        0.98421        4.82419
H          4.48876        1.97048        4.23968
O          0.44651        4.22433        5.64206
H          1.23992        3.71272        5.47926
H         -0.25118        3.57527        5.74063
O         -6.80257       -3.22081       -3.71724
H         -7.54909       -2.62680       -3.62995
H         -7.18726       -4.07423       -3.92082
O          1.28277        1.30045       -2.36993
H          0.97259        1.27735       -1.46383
H          1.01942        0.45861       -2.74370
O         -3.38499       -1.50981       -5.11498
H         -4.06550       -0.94279       -5.47988
H         -3.49697       -2.35019       -5.56104
O         -9.58468       -0.30279       -2.20463
H         -9.59467        0.62250       -1.95663
O         10.95938       -4.74608        2.31707
H         10.94940       -3.82079        2.56507
