850

C   -10.83372000   -5.92348000   -9.99936000
C   -8.29521000   -5.93640000   -9.94522000
C   -9.55061000   -5.18831000   -10.45552000
H   -8.31822000   -5.95744000   -8.83019000
H   -8.24285000   -2.97490000   -11.50028000
C   -8.27001000   -2.99651000   -10.38531000
C   -9.55517000   -3.73155000   -9.93366000
H   -9.52586000   -5.16885000   -11.57056000
C   -10.80751000   -2.98309000   -10.44997000
C   -12.09464000   -3.71514000   -9.99760000
C   -12.08973000   -5.17827000   -10.51362000
H   -12.06238000   -5.16248000   -11.62867000
H   -10.85879000   -5.94110000   -8.88439000
H   -9.58266000   -3.75105000   -8.81873000
H   -10.77891000   -2.96511000   -11.56488000
H   -12.12179000   -3.73102000   -8.88257000
C   -10.80958000   -1.52598000   -9.92871000
C   -8.27334000   -1.54074000   -9.85991000
C   -9.52223000   -0.79130000   -10.37726000
C   -12.05634000   -0.77553000   -10.44998000
H   -10.84134000   -1.54417000   -8.81387000
H   -8.30303000   -1.56221000   -8.74504000
H   -12.02233000   -0.75886000   -11.56508000
H   -9.49090000   -0.77173000   -11.49232000
C   -13.35186000   -1.50281000   -10.00394000
C   -13.35067000   -2.96551000   -10.51390000
C   -13.37728000   -5.91454000   -10.05955000
C   -14.57982000   -0.73155000   -10.52581000
C   -14.61981000   -3.71184000   -10.06135000
C   -14.61474000   -5.15517000   -10.57402000
H   -14.59332000   -0.73045000   -11.63797000
H   -13.39353000   -1.51510000   -8.89043000
H   -13.33061000   -2.95309000   -11.62802000
H   -14.69563000   -3.71328000   -8.95177000
H   -14.63581000   -5.15330000   -11.68597000
H   -13.41205000   -5.92663000   -8.94585000
C   -14.57212000   0.71360000   -10.01525000
C   -13.29030000   1.43389000   -10.44679000
C   -12.05218000   0.68543000   -9.93121000
C   -10.76819000   1.41011000   -10.37030000
C   -9.52472000   0.66715000   -9.85510000
C   -8.24102000   1.39593000   -10.29230000
H   -14.65358000   0.72112000   -8.90705000
H   -12.08626000   0.68116000   -8.81826000
H   -9.55815000   0.66028000   -8.74223000
H   -13.26671000   1.50464000   -11.55670000
H   -10.73400000   1.47890000   -11.48112000
H   -8.20781000   1.46860000   -11.40284000
C   -8.29019000   5.86553000   -10.46979000
C   -9.56920000   5.12956000   -10.01015000
C   -10.82604000   5.87716000   -10.51989000
H   -8.26961000   5.88640000   -11.58492000
C   -9.56239000   3.67060000   -10.53095000
H   -9.59028000   5.11092000   -8.89491000
C   -10.83663000   2.94123000   -10.07535000
C   -12.09009000   3.67874000   -10.57700000
C   -12.10435000   5.14013000   -10.05965000
H   -9.54342000   3.67652000   -11.64420000
H   -10.80404000   5.89488000   -11.63500000
H   -12.12496000   5.12405000   -8.94421000
H   -12.06964000   3.68234000   -11.69032000
H   -10.85674000   2.87352000   -8.96414000
C   -8.30795000   2.92929000   -10.03385000
H   -8.32563000   2.85846000   -8.92289000
C   -13.36876000   5.88056000   -10.56891000
C   -13.35977000   2.94368000   -10.12275000
C   -14.62892000   5.12248000   -10.10808000
C   -14.61113000   3.67694000   -10.61729000
H   -13.35554000   5.89256000   -11.68316000
H   -14.69725000   5.12234000   -8.99797000
H   -14.63788000   3.66938000   -11.72817000
H   -13.39160000   2.87367000   -9.01299000
C   -3.23472000   -5.92348000   -9.99936000
C   -0.69621000   -5.93640000   -9.94522000
C   -1.95161000   -5.18831000   -10.45552000
H   -0.71922000   -5.95744000   -8.83019000
H   -0.64385000   -2.97490000   -11.50028000
C   -0.67101000   -2.99651000   -10.38531000
C   -1.95617000   -3.73155000   -9.93366000
H   -1.92686000   -5.16885000   -11.57056000
C   -3.20851000   -2.98309000   -10.44997000
C   -4.49564000   -3.71514000   -9.99760000
C   -4.49073000   -5.17827000   -10.51362000
H   -4.46338000   -5.16248000   -11.62867000
H   -3.25979000   -5.94110000   -8.88439000
H   -1.98366000   -3.75105000   -8.81873000
H   -3.17991000   -2.96511000   -11.56488000
H   -4.52279000   -3.73102000   -8.88257000
C   -3.21058000   -1.52598000   -9.92871000
C   -0.67434000   -1.54074000   -9.85991000
C   -1.92323000   -0.79130000   -10.37726000
C   -4.45734000   -0.77553000   -10.44998000
H   -3.24234000   -1.54417000   -8.81387000
H   -0.70403000   -1.56221000   -8.74504000
H   -4.42333000   -0.75886000   -11.56508000
H   -1.89190000   -0.77173000   -11.49232000
C   -5.75286000   -1.50281000   -10.00394000
C   -5.75167000   -2.96551000   -10.51390000
C   -5.77828000   -5.91454000   -10.05955000
C   -6.98082000   -0.73155000   -10.52581000
C   -7.02081000   -3.71184000   -10.06135000
C   -7.01574000   -5.15517000   -10.57402000
H   -6.99432000   -0.73045000   -11.63797000
H   -5.79453000   -1.51510000   -8.89043000
H   -5.73161000   -2.95309000   -11.62802000
H   -7.09663000   -3.71328000   -8.95177000
H   -7.03681000   -5.15330000   -11.68597000
H   -5.81305000   -5.92663000   -8.94585000
C   -6.97312000   0.71360000   -10.01525000
C   -5.69130000   1.43389000   -10.44679000
C   -4.45318000   0.68543000   -9.93121000
C   -3.16919000   1.41011000   -10.37030000
C   -1.92572000   0.66715000   -9.85510000
C   -0.64202000   1.39593000   -10.29230000
H   -7.05458000   0.72112000   -8.90705000
H   -4.48726000   0.68116000   -8.81826000
H   -1.95915000   0.66028000   -8.74223000
H   -5.66771000   1.50464000   -11.55670000
H   -3.13500000   1.47890000   -11.48112000
H   -0.60881000   1.46860000   -11.40284000
C   -0.69119000   5.86553000   -10.46979000
C   -1.97020000   5.12956000   -10.01015000
C   -3.22704000   5.87716000   -10.51989000
H   -0.67061000   5.88640000   -11.58492000
C   -1.96339000   3.67060000   -10.53095000
H   -1.99128000   5.11092000   -8.89491000
C   -3.23763000   2.94123000   -10.07535000
C   -4.49109000   3.67874000   -10.57700000
C   -4.50535000   5.14013000   -10.05965000
H   -1.94442000   3.67652000   -11.64420000
H   -3.20504000   5.89488000   -11.63500000
H   -4.52596000   5.12405000   -8.94421000
H   -4.47064000   3.68234000   -11.69032000
H   -3.25774000   2.87352000   -8.96414000
C   -0.70895000   2.92929000   -10.03385000
H   -0.72663000   2.85846000   -8.92289000
C   -5.76976000   5.88056000   -10.56891000
C   -5.76077000   2.94368000   -10.12275000
C   -7.02992000   5.12248000   -10.10808000
C   -7.01213000   3.67694000   -10.61729000
H   -5.75654000   5.89256000   -11.68316000
H   -7.09825000   5.12234000   -8.99797000
H   -7.03888000   3.66938000   -11.72817000
H   -5.79260000   2.87367000   -9.01299000
C   4.36428000   -5.92348000   -9.99936000
C   6.90279000   -5.93640000   -9.94522000
C   5.64739000   -5.18831000   -10.45552000
H   6.87978000   -5.95744000   -8.83019000
H   6.95515000   -2.97490000   -11.50028000
C   6.92799000   -2.99651000   -10.38531000
C   5.64283000   -3.73155000   -9.93366000
H   5.67214000   -5.16885000   -11.57056000
C   4.39049000   -2.98309000   -10.44997000
C   3.10336000   -3.71514000   -9.99760000
C   3.10827000   -5.17827000   -10.51362000
H   3.13562000   -5.16248000   -11.62867000
H   4.33921000   -5.94110000   -8.88439000
H   5.61534000   -3.75105000   -8.81873000
H   4.41909000   -2.96511000   -11.56488000
H   3.07621000   -3.73102000   -8.88257000
C   4.38842000   -1.52598000   -9.92871000
C   6.92466000   -1.54074000   -9.85991000
C   5.67577000   -0.79130000   -10.37726000
C   3.14166000   -0.77553000   -10.44998000
H   4.35666000   -1.54417000   -8.81387000
H   6.89497000   -1.56221000   -8.74504000
H   3.17567000   -0.75886000   -11.56508000
H   5.70710000   -0.77173000   -11.49232000
C   1.84614000   -1.50281000   -10.00394000
C   1.84733000   -2.96551000   -10.51390000
C   1.82072000   -5.91454000   -10.05955000
C   0.61818000   -0.73155000   -10.52581000
C   0.57819000   -3.71184000   -10.06135000
C   0.58326000   -5.15517000   -10.57402000
H   0.60468000   -0.73045000   -11.63797000
H   1.80447000   -1.51510000   -8.89043000
H   1.86739000   -2.95309000   -11.62802000
H   0.50237000   -3.71328000   -8.95177000
H   0.56219000   -5.15330000   -11.68597000
H   1.78595000   -5.92663000   -8.94585000
C   0.62588000   0.71360000   -10.01525000
C   1.90770000   1.43389000   -10.44679000
C   3.14582000   0.68543000   -9.93121000
C   4.42981000   1.41011000   -10.37030000
C   5.67328000   0.66715000   -9.85510000
C   6.95698000   1.39593000   -10.29230000
H   0.54442000   0.72112000   -8.90705000
H   3.11174000   0.68116000   -8.81826000
H   5.63985000   0.66028000   -8.74223000
H   1.93129000   1.50464000   -11.55670000
H   4.46400000   1.47890000   -11.48112000
H   6.99019000   1.46860000   -11.40284000
C   6.90781000   5.86553000   -10.46979000
C   5.62880000   5.12956000   -10.01015000
C   4.37196000   5.87716000   -10.51989000
H   6.92839000   5.88640000   -11.58492000
C   5.63561000   3.67060000   -10.53095000
H   5.60772000   5.11092000   -8.89491000
C   4.36137000   2.94123000   -10.07535000
C   3.10791000   3.67874000   -10.57700000
C   3.09365000   5.14013000   -10.05965000
H   5.65458000   3.67652000   -11.64420000
H   4.39396000   5.89488000   -11.63500000
H   3.07304000   5.12405000   -8.94421000
H   3.12836000   3.68234000   -11.69032000
H   4.34126000   2.87352000   -8.96414000
C   6.89005000   2.92929000   -10.03385000
H   6.87237000   2.85846000   -8.92289000
C   1.82924000   5.88056000   -10.56891000
C   1.83823000   2.94368000   -10.12275000
C   0.56908000   5.12248000   -10.10808000
C   0.58687000   3.67694000   -10.61729000
H   1.84246000   5.89256000   -11.68316000
H   0.50075000   5.12234000   -8.99797000
H   0.56012000   3.66938000   -11.72817000
H   1.80640000   2.87367000   -9.01299000
C   11.96328000   -5.92348000   -9.99936000
C   14.50179000   -5.93640000   -9.94522000
C   13.24639000   -5.18831000   -10.45552000
H   14.47878000   -5.95744000   -8.83019000
H   14.55415000   -2.97490000   -11.50028000
C   14.52699000   -2.99651000   -10.38531000
C   13.24183000   -3.73155000   -9.93366000
H   13.27114000   -5.16885000   -11.57056000
C   11.98949000   -2.98309000   -10.44997000
C   10.70236000   -3.71514000   -9.99760000
C   10.70727000   -5.17827000   -10.51362000
H   10.73462000   -5.16248000   -11.62867000
H   11.93821000   -5.94110000   -8.88439000
H   13.21434000   -3.75105000   -8.81873000
H   12.01809000   -2.96511000   -11.56488000
H   10.67521000   -3.73102000   -8.88257000
C   11.98742000   -1.52598000   -9.92871000
C   14.52366000   -1.54074000   -9.85991000
C   13.27477000   -0.79130000   -10.37726000
C   10.74066000   -0.77553000   -10.44998000
H   11.95566000   -1.54417000   -8.81387000
H   14.49397000   -1.56221000   -8.74504000
H   10.77467000   -0.75886000   -11.56508000
H   13.30610000   -0.77173000   -11.49232000
C   9.44514000   -1.50281000   -10.00394000
C   9.44633000   -2.96551000   -10.51390000
C   9.41972000   -5.91454000   -10.05955000
C   8.21718000   -0.73155000   -10.52581000
C   8.17719000   -3.71184000   -10.06135000
C   8.18226000   -5.15517000   -10.57402000
H   8.20368000   -0.73045000   -11.63797000
H   9.40347000   -1.51510000   -8.89043000
H   9.46639000   -2.95309000   -11.62802000
H   8.10137000   -3.71328000   -8.95177000
H   8.16119000   -5.15330000   -11.68597000
H   9.38495000   -5.92663000   -8.94585000
C   8.22488000   0.71360000   -10.01525000
C   9.50670000   1.43389000   -10.44679000
C   10.74482000   0.68543000   -9.93121000
C   12.02881000   1.41011000   -10.37030000
C   13.27228000   0.66715000   -9.85510000
C   14.55598000   1.39593000   -10.29230000
H   8.14342000   0.72112000   -8.90705000
H   10.71074000   0.68116000   -8.81826000
H   13.23885000   0.66028000   -8.74223000
H   9.53029000   1.50464000   -11.55670000
H   12.06300000   1.47890000   -11.48112000
H   14.58919000   1.46860000   -11.40284000
C   14.50681000   5.86553000   -10.46979000
C   13.22780000   5.12956000   -10.01015000
C   11.97096000   5.87716000   -10.51989000
H   14.52739000   5.88640000   -11.58492000
C   13.23461000   3.67060000   -10.53095000
H   13.20672000   5.11092000   -8.89491000
C   11.96037000   2.94123000   -10.07535000
C   10.70691000   3.67874000   -10.57700000
C   10.69265000   5.14013000   -10.05965000
H   13.25358000   3.67652000   -11.64420000
H   11.99296000   5.89488000   -11.63500000
H   10.67204000   5.12405000   -8.94421000
H   10.72736000   3.68234000   -11.69032000
H   11.94026000   2.87352000   -8.96414000
C   14.48905000   2.92929000   -10.03385000
H   14.47137000   2.85846000   -8.92289000
C   9.42824000   5.88056000   -10.56891000
C   9.43723000   2.94368000   -10.12275000
C   8.16808000   5.12248000   -10.10808000
C   8.18587000   3.67694000   -10.61729000
H   9.44146000   5.89256000   -11.68316000
H   8.09975000   5.12234000   -8.99797000
H   8.15912000   3.66938000   -11.72817000
H   9.40540000   2.87367000   -9.01299000
C   -10.83372000   -5.92348000   10.00064000
C   -8.29521000   -5.93640000   10.05478000
C   -9.55061000   -5.18831000   9.54448000
H   -8.31822000   -5.95744000   11.16981000
H   -8.24285000   -2.97490000   8.49972000
C   -8.27001000   -2.99651000   9.61469000
C   -9.55517000   -3.73155000   10.06634000
H   -9.52586000   -5.16885000   8.42944000
C   -10.80751000   -2.98309000   9.55003000
C   -12.09464000   -3.71514000   10.00240000
C   -12.08973000   -5.17827000   9.48638000
H   -12.06238000   -5.16248000   8.37133000
H   -10.85879000   -5.94110000   11.11561000
H   -9.58266000   -3.75105000   11.18127000
H   -10.77891000   -2.96511000   8.43512000
H   -12.12179000   -3.73102000   11.11743000
C   -10.80958000   -1.52598000   10.07129000
C   -8.27334000   -1.54074000   10.14009000
C   -9.52223000   -0.79130000   9.62274000
C   -12.05634000   -0.77553000   9.55002000
H   -10.84134000   -1.54417000   11.18613000
H   -8.30303000   -1.56221000   11.25496000
H   -12.02233000   -0.75886000   8.43492000
H   -9.49090000   -0.77173000   8.50768000
C   -13.35186000   -1.50281000   9.99606000
C   -13.35067000   -2.96551000   9.48610000
C   -13.37728000   -5.91454000   9.94045000
C   -14.57982000   -0.73155000   9.47419000
C   -14.61981000   -3.71184000   9.93865000
C   -14.61474000   -5.15517000   9.42598000
H   -14.59332000   -0.73045000   8.36203000
H   -13.39353000   -1.51510000   11.10957000
H   -13.33061000   -2.95309000   8.37198000
H   -14.69563000   -3.71328000   11.04823000
H   -14.63581000   -5.15330000   8.31403000
H   -13.41205000   -5.92663000   11.05415000
C   -14.57212000   0.71360000   9.98475000
C   -13.29030000   1.43389000   9.55321000
C   -12.05218000   0.68543000   10.06879000
C   -10.76819000   1.41011000   9.62970000
C   -9.52472000   0.66715000   10.14490000
C   -8.24102000   1.39593000   9.70770000
H   -14.65358000   0.72112000   11.09295000
H   -12.08626000   0.68116000   11.18174000
H   -9.55815000   0.66028000   11.25777000
H   -13.26671000   1.50464000   8.44330000
H   -10.73400000   1.47890000   8.51888000
H   -8.20781000   1.46860000   8.59716000
C   -8.29019000   5.86553000   9.53021000
C   -9.56920000   5.12956000   9.98985000
C   -10.82604000   5.87716000   9.48011000
H   -8.26961000   5.88640000   8.41508000
C   -9.56239000   3.67060000   9.46905000
H   -9.59028000   5.11092000   11.10509000
C   -10.83663000   2.94123000   9.92465000
C   -12.09009000   3.67874000   9.42300000
C   -12.10435000   5.14013000   9.94035000
H   -9.54342000   3.67652000   8.35580000
H   -10.80404000   5.89488000   8.36500000
H   -12.12496000   5.12405000   11.05579000
H   -12.06964000   3.68234000   8.30968000
H   -10.85674000   2.87352000   11.03586000
C   -8.30795000   2.92929000   9.96615000
H   -8.32563000   2.85846000   11.07711000
C   -13.36876000   5.88056000   9.43109000
C   -13.35977000   2.94368000   9.87725000
C   -14.62892000   5.12248000   9.89192000
C   -14.61113000   3.67694000   9.38271000
H   -13.35554000   5.89256000   8.31684000
H   -14.69725000   5.12234000   11.00203000
H   -14.63788000   3.66938000   8.27183000
H   -13.39160000   2.87367000   10.98701000
C   -3.23472000   -5.92348000   10.00064000
C   -0.69621000   -5.93640000   10.05478000
C   -1.95161000   -5.18831000   9.54448000
H   -0.71922000   -5.95744000   11.16981000
H   -0.64385000   -2.97490000   8.49972000
C   -0.67101000   -2.99651000   9.61469000
C   -1.95617000   -3.73155000   10.06634000
H   -1.92686000   -5.16885000   8.42944000
C   -3.20851000   -2.98309000   9.55003000
C   -4.49564000   -3.71514000   10.00240000
C   -4.49073000   -5.17827000   9.48638000
H   -4.46338000   -5.16248000   8.37133000
H   -3.25979000   -5.94110000   11.11561000
H   -1.98366000   -3.75105000   11.18127000
H   -3.17991000   -2.96511000   8.43512000
H   -4.52279000   -3.73102000   11.11743000
C   -3.21058000   -1.52598000   10.07129000
C   -0.67434000   -1.54074000   10.14009000
C   -1.92323000   -0.79130000   9.62274000
C   -4.45734000   -0.77553000   9.55002000
H   -3.24234000   -1.54417000   11.18613000
H   -0.70403000   -1.56221000   11.25496000
H   -1.89190000   -0.77173000   8.50768000
C   -5.75286000   -1.50281000   9.99606000
C   -5.75167000   -2.96551000   9.48610000
C   -5.77828000   -5.91454000   9.94045000
C   -6.98082000   -0.73155000   9.47419000
C   -7.02081000   -3.71184000   9.93865000
C   -7.01574000   -5.15517000   9.42598000
H   -6.99432000   -0.73045000   8.36203000
H   -5.79453000   -1.51510000   11.10957000
H   -5.73161000   -2.95309000   8.37198000
H   -7.09663000   -3.71328000   11.04823000
H   -7.03681000   -5.15330000   8.31403000
H   -5.81305000   -5.92663000   11.05415000
C   -6.97312000   0.71360000   9.98475000
C   -5.69130000   1.43389000   9.55321000
C   -4.45318000   0.68543000   10.06879000
C   -3.16919000   1.41011000   9.62970000
C   -1.92572000   0.66715000   10.14490000
C   -0.64202000   1.39593000   9.70770000
H   -7.05458000   0.72112000   11.09295000
H   -4.48726000   0.68116000   11.18174000
H   -1.95915000   0.66028000   11.25777000
H   -5.66771000   1.50464000   8.44330000
H   -3.13500000   1.47890000   8.51888000
H   -0.60881000   1.46860000   8.59716000
C   -0.69119000   5.86553000   9.53021000
C   -1.97020000   5.12956000   9.98985000
C   -3.22704000   5.87716000   9.48011000
H   -0.67061000   5.88640000   8.41508000
C   -1.96339000   3.67060000   9.46905000
H   -1.99128000   5.11092000   11.10509000
C   -3.23763000   2.94123000   9.92465000
C   -4.49109000   3.67874000   9.42300000
C   -4.50535000   5.14013000   9.94035000
H   -1.94442000   3.67652000   8.35580000
H   -3.20504000   5.89488000   8.36500000
H   -4.52596000   5.12405000   11.05579000
H   -4.47064000   3.68234000   8.30968000
H   -3.25774000   2.87352000   11.03586000
C   -0.70895000   2.92929000   9.96615000
H   -0.72663000   2.85846000   11.07711000
C   -5.76976000   5.88056000   9.43109000
C   -5.76077000   2.94368000   9.87725000
C   -7.02992000   5.12248000   9.89192000
C   -7.01213000   3.67694000   9.38271000
H   -5.75654000   5.89256000   8.31684000
H   -7.09825000   5.12234000   11.00203000
H   -7.03888000   3.66938000   8.27183000
H   -5.79260000   2.87367000   10.98701000
C   4.36428000   -5.92348000   10.00064000
C   6.90279000   -5.93640000   10.05478000
C   5.64739000   -5.18831000   9.54448000
H   6.87978000   -5.95744000   11.16981000
H   6.95515000   -2.97490000   8.49972000
C   6.92799000   -2.99651000   9.61469000
C   5.64283000   -3.73155000   10.06634000
H   5.67214000   -5.16885000   8.42944000
C   4.39049000   -2.98309000   9.55003000
C   3.10336000   -3.71514000   10.00240000
C   3.10827000   -5.17827000   9.48638000
H   3.13562000   -5.16248000   8.37133000
H   4.33921000   -5.94110000   11.11561000
H   5.61534000   -3.75105000   11.18127000
H   4.41909000   -2.96511000   8.43512000
H   3.07621000   -3.73102000   11.11743000
C   4.38842000   -1.52598000   10.07129000
C   6.92466000   -1.54074000   10.14009000
C   5.67577000   -0.79130000   9.62274000
C   3.14166000   -0.77553000   9.55002000
H   4.35666000   -1.54417000   11.18613000
H   6.89497000   -1.56221000   11.25496000
H   3.17567000   -0.75886000   8.43492000
C   1.84614000   -1.50281000   9.99606000
C   1.84733000   -2.96551000   9.48610000
C   1.82072000   -5.91454000   9.94045000
C   0.61818000   -0.73155000   9.47419000
C   0.57819000   -3.71184000   9.93865000
C   0.58326000   -5.15517000   9.42598000
H   0.60468000   -0.73045000   8.36203000
H   1.80447000   -1.51510000   11.10957000
H   1.86739000   -2.95309000   8.37198000
H   0.50237000   -3.71328000   11.04823000
H   0.56219000   -5.15330000   8.31403000
H   1.78595000   -5.92663000   11.05415000
C   0.62588000   0.71360000   9.98475000
C   1.90770000   1.43389000   9.55321000
C   3.14582000   0.68543000   10.06879000
C   4.42981000   1.41011000   9.62970000
C   5.67328000   0.66715000   10.14490000
C   6.95698000   1.39593000   9.70770000
H   0.54442000   0.72112000   11.09295000
H   3.11174000   0.68116000   11.18174000
H   5.63985000   0.66028000   11.25777000
H   1.93129000   1.50464000   8.44330000
H   4.46400000   1.47890000   8.51888000
H   6.99019000   1.46860000   8.59716000
C   6.90781000   5.86553000   9.53021000
C   5.62880000   5.12956000   9.98985000
C   4.37196000   5.87716000   9.48011000
H   6.92839000   5.88640000   8.41508000
C   5.63561000   3.67060000   9.46905000
H   5.60772000   5.11092000   11.10509000
C   4.36137000   2.94123000   9.92465000
C   3.10791000   3.67874000   9.42300000
C   3.09365000   5.14013000   9.94035000
H   5.65458000   3.67652000   8.35580000
H   4.39396000   5.89488000   8.36500000
H   3.07304000   5.12405000   11.05579000
H   3.12836000   3.68234000   8.30968000
H   4.34126000   2.87352000   11.03586000
C   6.89005000   2.92929000   9.96615000
H   6.87237000   2.85846000   11.07711000
C   1.82924000   5.88056000   9.43109000
C   1.83823000   2.94368000   9.87725000
C   0.56908000   5.12248000   9.89192000
C   0.58687000   3.67694000   9.38271000
H   1.84246000   5.89256000   8.31684000
H   0.50075000   5.12234000   11.00203000
H   0.56012000   3.66938000   8.27183000
H   1.80640000   2.87367000   10.98701000
C   11.96328000   -5.92348000   10.00064000
C   14.50179000   -5.93640000   10.05478000
C   13.24639000   -5.18831000   9.54448000
H   14.47878000   -5.95744000   11.16981000
H   14.55415000   -2.97490000   8.49972000
C   14.52699000   -2.99651000   9.61469000
C   13.24183000   -3.73155000   10.06634000
H   13.27114000   -5.16885000   8.42944000
C   11.98949000   -2.98309000   9.55003000
C   10.70236000   -3.71514000   10.00240000
C   10.70727000   -5.17827000   9.48638000
H   10.73462000   -5.16248000   8.37133000
H   11.93821000   -5.94110000   11.11561000
H   13.21434000   -3.75105000   11.18127000
H   12.01809000   -2.96511000   8.43512000
H   10.67521000   -3.73102000   11.11743000
C   11.98742000   -1.52598000   10.07129000
C   14.52366000   -1.54074000   10.14009000
C   13.27477000   -0.79130000   9.62274000
C   10.74066000   -0.77553000   9.55002000
H   11.95566000   -1.54417000   11.18613000
H   14.49397000   -1.56221000   11.25496000
H   10.77467000   -0.75886000   8.43492000
H   13.30610000   -0.77173000   8.50768000
C   9.44514000   -1.50281000   9.99606000
C   9.44633000   -2.96551000   9.48610000
C   9.41972000   -5.91454000   9.94045000
C   8.21718000   -0.73155000   9.47419000
C   8.17719000   -3.71184000   9.93865000
C   8.18226000   -5.15517000   9.42598000
H   8.20368000   -0.73045000   8.36203000
H   9.40347000   -1.51510000   11.10957000
H   9.46639000   -2.95309000   8.37198000
H   8.10137000   -3.71328000   11.04823000
H   8.16119000   -5.15330000   8.31403000
H   9.38495000   -5.92663000   11.05415000
C   8.22488000   0.71360000   9.98475000
C   9.50670000   1.43389000   9.55321000
C   10.74482000   0.68543000   10.06879000
C   12.02881000   1.41011000   9.62970000
C   13.27228000   0.66715000   10.14490000
C   14.55598000   1.39593000   9.70770000
H   8.14342000   0.72112000   11.09295000
H   10.71074000   0.68116000   11.18174000
H   13.23885000   0.66028000   11.25777000
H   9.53029000   1.50464000   8.44330000
H   12.06300000   1.47890000   8.51888000
H   14.58919000   1.46860000   8.59716000
C   14.50681000   5.86553000   9.53021000
C   13.22780000   5.12956000   9.98985000
C   11.97096000   5.87716000   9.48011000
H   14.52739000   5.88640000   8.41508000
C   13.23461000   3.67060000   9.46905000
H   13.20672000   5.11092000   11.10509000
C   11.96037000   2.94123000   9.92465000
C   10.70691000   3.67874000   9.42300000
C   10.69265000   5.14013000   9.94035000
H   13.25358000   3.67652000   8.35580000
H   11.99296000   5.89488000   8.36500000
H   10.67204000   5.12405000   11.05579000
H   10.72736000   3.68234000   8.30968000
H   11.94026000   2.87352000   11.03586000
C   14.48905000   2.92929000   9.96615000
H   14.47137000   2.85846000   11.07711000
C   9.42824000   5.88056000   9.43109000
C   9.43723000   2.94368000   9.87725000
C   8.16808000   5.12248000   9.89192000
C   8.18587000   3.67694000   9.38271000
H   9.44146000   5.89256000   8.31684000
H   8.09975000   5.12234000   11.00203000
H   8.15912000   3.66938000   8.27183000
H   9.40540000   2.87367000   10.98701000
N   -3.69732850   -0.79323124   5.35232209
C   -3.25225182   -0.81187727   6.86465163
H   -2.81878049   -1.74064333   7.14610917
H   -2.58099368   0.01752890   7.01135730
C   -4.50216902   -0.74126705   7.91821958
H   -5.03298910   0.14434386   7.61688301
H   -5.26024324   -1.44027208   7.66736438
C   -4.53450178   0.40872827   5.07835739
H   -5.31531227   0.17020526   4.41870579
H   -4.97976007   0.87848136   5.90850965
H   -3.77803465   1.13135046   4.67493364
C   -4.44677871   -2.15624021   4.86339371
H   -4.97546980   -1.97611225   3.95316681
H   -3.59788323   -2.88821293   4.79331340
H   -5.03593553   -2.51746783   5.71665883
C   -2.41263724   -0.73811383   4.61269508
H   -1.88025454   0.22969950   4.91020143
H   -1.78752241   -1.53805243   4.96939435
H   -2.57082139   -0.74189833   3.53461235
N   6.38644874   0.96666482   1.02244295
C   6.82299196   0.55511582   2.49437353
H   7.57091758   -0.18547656   2.34535950
H   7.26451966   1.45177305   2.95136424
C   5.66124260   0.11698592   3.41603964
H   5.06877795   1.04260905   3.58683364
H   5.12812834   -0.75825883   3.01930801
C   5.67142657   -0.67505850   8.02470144
H   6.48323510   0.01545667   7.73293973
H   4.81845627   -0.00547892   7.76505795
C   5.60376803   -1.75161646   6.89708435
H   6.63096080   -2.11679284   6.62685163
H   4.98032752   -2.63565774   7.08888878
C   5.09381637   -1.11196670   5.58420833
H   4.30223512   -0.34766753   5.74949197
H   4.62792651   -1.89018291   5.01498381
C   6.19992679   -0.32484416   4.85073339
H   6.47427059   0.64429717   5.34309203
H   7.07325195   -1.01797947   4.73120312
C   5.87876890   -0.29795160   0.41510571
H   5.84737842   -0.16384040   -0.66593399
H   4.95083427   -0.46624514   0.82707921
H   6.51434545   -1.08832044   0.55339672
C   7.61913954   1.23077632   0.22862937
H   8.31814235   0.44690468   0.39170448
H   7.91953820   2.23480026   0.45362385
H   7.46099508   1.30142157   -0.87846695
C   5.40248687   2.15478888   1.04681612
H   4.91473409   2.10465730   0.09163935
H   5.99896503   3.12477312   1.23603750
H   4.65699189   2.01139204   1.79835751
O   -5.29232953   -10.60096793   1.88797483
H   -4.76668647   -11.24899308   1.28859755
H   -3.10105286   16.14944198   2.68824157
O   3.45893227   -7.27215815   6.29250310
H   3.17126124   -8.03222883   6.75651681
H   2.69932396   -6.71071687   6.15708279
O   9.78606294   23.15048119   -2.99813361
H   9.08844824   22.43943289   -3.04003422
H   10.52039326   22.73172912   -2.48208792
O   -28.33292799   43.67234484   -0.09568155
H   -28.04815160   44.47879974   0.33698985
H   -27.94580308   42.92774237   0.43656178
O   4.23388863   -4.67655467   -2.04805188
H   3.70174296   -3.97817237   -2.43211061
H   3.63663697   -5.28249044   -1.62954610
O   10.94595055   -10.10610187   1.67732452
H   9.97136504   -9.95992444   1.82417331
H   11.34777348   -9.43057569   2.20061306
O   6.85545991   -3.06445577   3.09445650
H   7.63364384   -3.60856152   3.23902883
H   6.13439181   -3.68831981   2.85558044
O   -17.16731970   -9.83128795   -2.01467589
H   -16.55365200   -9.65427279   -1.28127787
H   -16.71151593   3.86631187   -2.76789442
O   22.69635721   -7.41890809   0.27390029
H   23.08649531   -7.65548938   -0.53485556
H   23.33279997   -7.57611783   0.94434005
O   8.89143384   17.05078319   3.38799023
H   8.35606512   17.34189659   4.13973085
H   8.35185631   17.42910852   2.67104639
O   -28.11374044   -2.52899308   -3.61221542
H   -28.63604629   -2.13618459   -4.38281447
H   -28.18186025   -3.44924040   -3.87221285
O   -2.31332182   48.80277918   -0.63511092
H   -2.08999641   49.59969124   -1.06156840
H   -2.58976130   49.02293041   0.28750995
O   -1.39935966   23.28693523   5.64843882
H   -1.21785518   22.70853525   6.42295027
H   -1.28841560   22.65613734   4.90399494
O   -11.65008125   36.12523472   -4.74858645
H   -12.08653895   36.35876173   -3.92974699
H   -10.75704630   36.46568954   -4.66166972
O   -22.60437261   38.88409761   -4.65524670
H   -22.15830351   39.35094999   -5.37886151
H   -21.91260557   38.67705719   -4.02914022
O   -9.03857915   -12.20819452   -1.60953722
H   -9.42773322   -12.17640129   -0.74539439
H   -8.15128943   -12.22763193   -1.23016749
O   -0.34485695   -3.54306918   -2.75655177
H   -1.11601333   -3.16509348   -2.30817523
H   0.17573859   -2.93716227   -3.28896495
O   -20.64319148   15.64161830   -1.71391944
H   -19.93568918   15.82726564   -2.27641492
H   -20.28607936   15.92446607   -0.87204635
O   -31.93651592   -5.57578536   3.36025386
H   -32.41612397   -5.04928025   2.75461269
H   -31.58869779   -6.33509420   2.88022639
O   9.38381430   2.07649139   -4.83547657
H   9.20346188   2.45007172   -3.97074540
H   9.63124211   1.13124169   -4.83655253
O   -3.58210778   7.39598291   -3.05191080
H   -2.96391803   7.32719206   -3.82024338
H   -3.20271571   7.98114076   -2.35055505
O   -6.08786749   -4.98028490   -4.10015897
H   -6.93644714   -5.43771884   -3.77594686
H   -5.20570664   -5.38385875   -3.92836407
O   26.59040458   0.93049665   0.50737113
H   24.05920045   -2.26361744   -1.56219884
H   26.56387017   1.39961066   -0.35563150
O   -18.61021988   26.58423603   -4.50197895
H   -18.24821605   26.68892643   -5.34796271
H   -18.58672478   25.57781540   -4.38469432
O   27.94887146   -15.33390279   -1.73547346
H   27.03496269   -14.96172160   -1.72475133
H   28.23251430   -15.06560604   -0.84282452
O   26.87912674   32.20433407   4.45487802
H   27.39839234   32.70791536   3.74902461
H   26.69707363   31.32655500   4.15366607
O   16.07247522   10.88250131   3.79059648
H   16.07467828   11.00523866   2.84353536
H   15.67152614   10.00007303   3.83362943
O   8.13617237   18.02539035   -2.57992957
H   8.79042336   17.89733675   -1.85697936
H   7.98899980   18.99288576   -2.65883581
O   20.26461894   11.59478713   3.45417402
H   20.12104302   10.93671404   4.19329679
H   19.36481259   11.66128194   2.97472979
O   32.21578734   -17.04914423   5.66213772
H   21.87603534   29.45254777   -3.98187492
H   32.01836646   -16.11643674   5.37312690
O   -14.10404364   13.67636830   -0.40200584
H   -14.01157703   13.81352876   0.50922168
H   -14.94249868   14.11596747   -0.64182931
O   23.77528510   -18.51720674   4.07975427
H   20.54631656   26.99491472   -4.82521016
H   23.63122633   -18.90738317   3.20950872
O   20.42157036   26.13936212   -5.18752369
H   25.38567307   20.84738846   -1.39283708
H   19.45707346   25.95308697   -5.03790409
O   -8.58752779   37.05411754   -4.35281366
H   -9.09754496   37.82649778   -4.62645960
H   -7.71197453   37.35441811   -4.04955481
O   4.62245396   17.22191176   5.41039144
H   4.02907669   17.59416258   4.80105389
H   5.00290120   18.06173539   5.72349088
O   32.75071305   -13.31942320   -2.15395500
H   33.53004061   -13.50401456   -2.69370599
H   32.67694594   -14.14461625   -1.65249815
O   -5.88572147   -0.31601980   2.39917104
H   -5.15405552   -0.01276039   1.74895886
H   -6.09649950   -1.28996228   2.18043026
O   -13.51296757   11.22378942   0.89093035
H   -5.90218768   -11.14006095   2.35977197
H   -13.60033199   11.97815076   0.24318127
O   13.35263409   -34.01297160   -4.03803943
H   12.86836106   -34.29725815   -4.80116900
H   14.19772196   -33.69916419   -4.41775490
O   35.82605861   61.32541802   2.36618743
H   36.21516990   60.69010819   1.73897796
H   34.95301141   61.36316401   2.01591703
O   9.09086107   37.57685968   5.40954391
H   8.91638493   36.63390722   5.38853157
H   8.51509307   37.95750293   6.13109958
O   40.70463160   32.35996570   -0.51945469
H   40.23275082   32.22134243   0.28100454
H   34.06569042   33.44970044   0.09677662
O   10.41778072   51.31470652   2.98531397
H   9.76356983   51.62559520   3.57904912
H   10.67484892   50.39594809   3.16241400
O   -2.55582444   25.68490957   1.33821143
H   -3.21463016   26.38921544   0.78950411
H   -1.66415833   26.06036007   1.35290721
O   -20.14407855   34.34367447   4.04557970
H   -20.03360669   46.85561860   4.42722240
H   -20.33349287   34.28188667   3.07935728
O   -1.95245961   -20.15413858   6.24090128
H   -2.14675327   -19.73294993   5.40695232
H   -2.33653854   -21.04166666   6.09508174
O   21.95691001   30.20064238   -3.37104396
H   21.55071694   29.84663620   -2.59909552
H   23.36556915   -19.16774436   4.69633929
O   -20.39449511   7.15249874   -3.53976651
H   -20.56429253   6.96176810   -4.45826335
H   -20.25124041   6.35725124   -3.04344976
O   -30.86154915   13.40175219   -4.18364176
H   -29.98654725   13.58975085   -3.84957731
H   -31.53540666   13.49659988   -3.46641840
O   0.42053859   14.31138771   2.07741065
H   0.01721131   15.09630034   1.72392547
H   1.34678856   14.30733997   1.89467953
O   7.62635761   8.09885741   5.24726180
H   7.00938286   7.50560819   4.83151791
H   8.47138109   7.69418893   5.39915489
O   -16.48039036   49.46476909   0.63788773
H   -16.66467334   48.79710702   -0.00659817
H   -16.82683165   50.29139972   0.24443449
O   -33.92326001   -30.55188506   1.93885398
H   -33.76964671   -29.59308721   1.72422299
H   -34.81928727   -30.61762184   2.22036844
O   7.20331278   31.35650973   1.53996987
H   7.52315673   31.24599756   0.58560511
H   6.16654589   32.42775237   0.65345556
O   4.84079676   58.52829551   3.15821339
H   4.94373303   59.45259880   3.44302174
H   5.67887133   58.34995040   2.69643232
O   30.74019110   -15.68866111   -6.07027259
H   29.92949764   -15.31305607   -5.71838001
H   30.90737436   -15.30518083   -6.95820698
O   13.87054008   -12.02657289   0.47142077
H   13.36465785   -12.29396903   1.22694719
H   13.33954724   -11.40694838   -0.04306809
O   8.64088131   33.36985562   1.89545466
H   7.94203546   33.97291380   1.54924163
H   8.11426759   32.53609872   1.94037661
O   -21.42197129   38.06590081   -0.59711611
H   -21.41543596   37.48387452   -1.40265605
H   -21.29473717   37.50161144   0.21562959
O   9.18029013   18.59816725   -5.26980259
H   8.51437599   18.13128285   -4.72875977
H   9.27496206   17.99054479   -6.02197352
O   25.80898634   8.39095921   -6.80835917
H   26.58150729   8.64020601   -6.35872172
H   25.12183347   8.81667996   -6.29556674
O   24.86098999   20.07129600   -1.36305900
H   11.87580268   62.98891444   -0.43769194
H   24.69156621   19.81049636   -2.26547019
O   -44.56926258   -16.54534901   -1.72400628
H   -44.81174398   -17.33618352   -2.09018810
H   -43.72883148   -16.35012060   -2.07745205
O   -9.07022923   -12.15977097   4.84006937
H   -8.79788414   -13.06140584   4.56089928
H   -9.85480648   -11.91617219   4.37722703
O   -12.94694122   -12.86884165   3.89590293
H   -13.16949962   -13.04226308   4.80741936
H   -12.89610295   -13.77403267   3.44208193
O   -6.17353316   1.03395292   -1.02926151
H   -5.83534333   14.95623656   -1.72429000
H   -14.07555404   10.63737300   0.41844800
O   30.92397120   -6.04193763   5.18215694
H   30.16775136   -5.94882222   4.58568090
H   30.44896817   -5.88699589   6.04472141
O   -1.02184194   18.70231641   2.27904385
H   -0.11185206   18.43682564   2.15895519
H   -1.33131415   18.95503809   1.41679464
O   -1.36983405   -4.65708476   -5.78232922
H   -0.82282175   -3.97210315   -6.26550688
H   -0.79505491   -5.24358733   -5.23438606
O   -27.24271646   6.71183105   0.88425856
H   -35.76236332   0.71139003   -0.48903016
H   -26.94432923   6.16371371   1.72748625
O   24.75633560   30.51051547   -2.64111646
H   23.88308492   30.29362935   -3.03114914
H   24.82161606   31.41982780   -2.37006584
O   -6.00237048   -1.70996684   -2.23055587
H   -6.33756761   -0.83936536   -1.95939889
H   11.07445368   6.17157593   -0.23353697
O   28.69381094   2.56001174   0.86058835
H   28.71792177   2.95726149   0.02327441
H   28.02234426   1.84552194   0.78605724
O   -24.70328981   19.59655209   0.02754017
H   -24.51995024   19.23231897   -0.84313294
H   1.21918825   -4.25232179   5.29866335
O   -2.68786779   16.34074261   3.52637149
H   -1.95071974   16.83011332   3.14828969
O   11.10902203   62.54370732   -0.09230781
H   10.95357259   62.84143205   0.80373512
