850

C   -10.83372000   -5.92348000   -9.99936000
C   -8.29521000   -5.93640000   -9.94522000
C   -9.55061000   -5.18831000   -10.45552000
H   -8.31822000   -5.95744000   -8.83019000
H   -8.24285000   -2.97490000   -11.50028000
C   -8.27001000   -2.99651000   -10.38531000
C   -9.55517000   -3.73155000   -9.93366000
H   -9.52586000   -5.16885000   -11.57056000
C   -10.80751000   -2.98309000   -10.44997000
C   -12.09464000   -3.71514000   -9.99760000
C   -12.08973000   -5.17827000   -10.51362000
H   -12.06238000   -5.16248000   -11.62867000
H   -10.85879000   -5.94110000   -8.88439000
H   -9.58266000   -3.75105000   -8.81873000
H   -10.77891000   -2.96511000   -11.56488000
H   -12.12179000   -3.73102000   -8.88257000
C   -10.80958000   -1.52598000   -9.92871000
C   -8.27334000   -1.54074000   -9.85991000
C   -9.52223000   -0.79130000   -10.37726000
C   -12.05634000   -0.77553000   -10.44998000
H   -10.84134000   -1.54417000   -8.81387000
H   -8.30303000   -1.56221000   -8.74504000
H   -12.02233000   -0.75886000   -11.56508000
H   -9.49090000   -0.77173000   -11.49232000
C   -13.35186000   -1.50281000   -10.00394000
C   -13.35067000   -2.96551000   -10.51390000
C   -13.37728000   -5.91454000   -10.05955000
C   -14.57982000   -0.73155000   -10.52581000
C   -14.61981000   -3.71184000   -10.06135000
C   -14.61474000   -5.15517000   -10.57402000
H   -14.59332000   -0.73045000   -11.63797000
H   -13.39353000   -1.51510000   -8.89043000
H   -13.33061000   -2.95309000   -11.62802000
H   -14.69563000   -3.71328000   -8.95177000
H   -14.63581000   -5.15330000   -11.68597000
H   -13.41205000   -5.92663000   -8.94585000
C   -14.57212000   0.71360000   -10.01525000
C   -13.29030000   1.43389000   -10.44679000
C   -12.05218000   0.68543000   -9.93121000
C   -10.76819000   1.41011000   -10.37030000
C   -9.52472000   0.66715000   -9.85510000
C   -8.24102000   1.39593000   -10.29230000
H   -14.65358000   0.72112000   -8.90705000
H   -12.08626000   0.68116000   -8.81826000
H   -9.55815000   0.66028000   -8.74223000
H   -13.26671000   1.50464000   -11.55670000
H   -10.73400000   1.47890000   -11.48112000
H   -8.20781000   1.46860000   -11.40284000
C   -8.29019000   5.86553000   -10.46979000
C   -9.56920000   5.12956000   -10.01015000
C   -10.82604000   5.87716000   -10.51989000
H   -8.26961000   5.88640000   -11.58492000
C   -9.56239000   3.67060000   -10.53095000
H   -9.59028000   5.11092000   -8.89491000
C   -10.83663000   2.94123000   -10.07535000
C   -12.09009000   3.67874000   -10.57700000
C   -12.10435000   5.14013000   -10.05965000
H   -9.54342000   3.67652000   -11.64420000
H   -10.80404000   5.89488000   -11.63500000
H   -12.12496000   5.12405000   -8.94421000
H   -12.06964000   3.68234000   -11.69032000
H   -10.85674000   2.87352000   -8.96414000
C   -8.30795000   2.92929000   -10.03385000
H   -8.32563000   2.85846000   -8.92289000
C   -13.36876000   5.88056000   -10.56891000
C   -13.35977000   2.94368000   -10.12275000
C   -14.62892000   5.12248000   -10.10808000
C   -14.61113000   3.67694000   -10.61729000
H   -13.35554000   5.89256000   -11.68316000
H   -14.69725000   5.12234000   -8.99797000
H   -14.63788000   3.66938000   -11.72817000
H   -13.39160000   2.87367000   -9.01299000
C   -3.23472000   -5.92348000   -9.99936000
C   -0.69621000   -5.93640000   -9.94522000
C   -1.95161000   -5.18831000   -10.45552000
H   -0.71922000   -5.95744000   -8.83019000
H   -0.64385000   -2.97490000   -11.50028000
C   -0.67101000   -2.99651000   -10.38531000
C   -1.95617000   -3.73155000   -9.93366000
H   -1.92686000   -5.16885000   -11.57056000
C   -3.20851000   -2.98309000   -10.44997000
C   -4.49564000   -3.71514000   -9.99760000
C   -4.49073000   -5.17827000   -10.51362000
H   -4.46338000   -5.16248000   -11.62867000
H   -3.25979000   -5.94110000   -8.88439000
H   -1.98366000   -3.75105000   -8.81873000
H   -3.17991000   -2.96511000   -11.56488000
H   -4.52279000   -3.73102000   -8.88257000
C   -3.21058000   -1.52598000   -9.92871000
C   -0.67434000   -1.54074000   -9.85991000
C   -1.92323000   -0.79130000   -10.37726000
C   -4.45734000   -0.77553000   -10.44998000
H   -3.24234000   -1.54417000   -8.81387000
H   -0.70403000   -1.56221000   -8.74504000
H   -4.42333000   -0.75886000   -11.56508000
H   -1.89190000   -0.77173000   -11.49232000
C   -5.75286000   -1.50281000   -10.00394000
C   -5.75167000   -2.96551000   -10.51390000
C   -5.77828000   -5.91454000   -10.05955000
C   -6.98082000   -0.73155000   -10.52581000
C   -7.02081000   -3.71184000   -10.06135000
C   -7.01574000   -5.15517000   -10.57402000
H   -6.99432000   -0.73045000   -11.63797000
H   -5.79453000   -1.51510000   -8.89043000
H   -5.73161000   -2.95309000   -11.62802000
H   -7.09663000   -3.71328000   -8.95177000
H   -7.03681000   -5.15330000   -11.68597000
H   -5.81305000   -5.92663000   -8.94585000
C   -6.97312000   0.71360000   -10.01525000
C   -5.69130000   1.43389000   -10.44679000
C   -4.45318000   0.68543000   -9.93121000
C   -3.16919000   1.41011000   -10.37030000
C   -1.92572000   0.66715000   -9.85510000
C   -0.64202000   1.39593000   -10.29230000
H   -7.05458000   0.72112000   -8.90705000
H   -4.48726000   0.68116000   -8.81826000
H   -1.95915000   0.66028000   -8.74223000
H   -5.66771000   1.50464000   -11.55670000
H   -3.13500000   1.47890000   -11.48112000
H   -0.60881000   1.46860000   -11.40284000
C   -0.69119000   5.86553000   -10.46979000
C   -1.97020000   5.12956000   -10.01015000
C   -3.22704000   5.87716000   -10.51989000
H   -0.67061000   5.88640000   -11.58492000
C   -1.96339000   3.67060000   -10.53095000
H   -1.99128000   5.11092000   -8.89491000
C   -3.23763000   2.94123000   -10.07535000
C   -4.49109000   3.67874000   -10.57700000
C   -4.50535000   5.14013000   -10.05965000
H   -1.94442000   3.67652000   -11.64420000
H   -3.20504000   5.89488000   -11.63500000
H   -4.52596000   5.12405000   -8.94421000
H   -4.47064000   3.68234000   -11.69032000
H   -3.25774000   2.87352000   -8.96414000
C   -0.70895000   2.92929000   -10.03385000
H   -0.72663000   2.85846000   -8.92289000
C   -5.76976000   5.88056000   -10.56891000
C   -5.76077000   2.94368000   -10.12275000
C   -7.02992000   5.12248000   -10.10808000
C   -7.01213000   3.67694000   -10.61729000
H   -5.75654000   5.89256000   -11.68316000
H   -7.09825000   5.12234000   -8.99797000
H   -7.03888000   3.66938000   -11.72817000
H   -5.79260000   2.87367000   -9.01299000
C   4.36428000   -5.92348000   -9.99936000
C   6.90279000   -5.93640000   -9.94522000
C   5.64739000   -5.18831000   -10.45552000
H   6.87978000   -5.95744000   -8.83019000
H   6.95515000   -2.97490000   -11.50028000
C   6.92799000   -2.99651000   -10.38531000
C   5.64283000   -3.73155000   -9.93366000
H   5.67214000   -5.16885000   -11.57056000
C   4.39049000   -2.98309000   -10.44997000
C   3.10336000   -3.71514000   -9.99760000
C   3.10827000   -5.17827000   -10.51362000
H   3.13562000   -5.16248000   -11.62867000
H   4.33921000   -5.94110000   -8.88439000
H   5.61534000   -3.75105000   -8.81873000
H   4.41909000   -2.96511000   -11.56488000
H   3.07621000   -3.73102000   -8.88257000
C   4.38842000   -1.52598000   -9.92871000
C   6.92466000   -1.54074000   -9.85991000
C   5.67577000   -0.79130000   -10.37726000
C   3.14166000   -0.77553000   -10.44998000
H   4.35666000   -1.54417000   -8.81387000
H   6.89497000   -1.56221000   -8.74504000
H   3.17567000   -0.75886000   -11.56508000
H   5.70710000   -0.77173000   -11.49232000
C   1.84614000   -1.50281000   -10.00394000
C   1.84733000   -2.96551000   -10.51390000
C   1.82072000   -5.91454000   -10.05955000
C   0.61818000   -0.73155000   -10.52581000
C   0.57819000   -3.71184000   -10.06135000
C   0.58326000   -5.15517000   -10.57402000
H   0.60468000   -0.73045000   -11.63797000
H   1.80447000   -1.51510000   -8.89043000
H   1.86739000   -2.95309000   -11.62802000
H   0.50237000   -3.71328000   -8.95177000
H   0.56219000   -5.15330000   -11.68597000
H   1.78595000   -5.92663000   -8.94585000
C   0.62588000   0.71360000   -10.01525000
C   1.90770000   1.43389000   -10.44679000
C   3.14582000   0.68543000   -9.93121000
C   4.42981000   1.41011000   -10.37030000
C   5.67328000   0.66715000   -9.85510000
C   6.95698000   1.39593000   -10.29230000
H   0.54442000   0.72112000   -8.90705000
H   3.11174000   0.68116000   -8.81826000
H   5.63985000   0.66028000   -8.74223000
H   1.93129000   1.50464000   -11.55670000
H   4.46400000   1.47890000   -11.48112000
H   6.99019000   1.46860000   -11.40284000
C   6.90781000   5.86553000   -10.46979000
C   5.62880000   5.12956000   -10.01015000
C   4.37196000   5.87716000   -10.51989000
H   6.92839000   5.88640000   -11.58492000
C   5.63561000   3.67060000   -10.53095000
H   5.60772000   5.11092000   -8.89491000
C   4.36137000   2.94123000   -10.07535000
C   3.10791000   3.67874000   -10.57700000
C   3.09365000   5.14013000   -10.05965000
H   5.65458000   3.67652000   -11.64420000
H   4.39396000   5.89488000   -11.63500000
H   3.07304000   5.12405000   -8.94421000
H   3.12836000   3.68234000   -11.69032000
H   4.34126000   2.87352000   -8.96414000
C   6.89005000   2.92929000   -10.03385000
H   6.87237000   2.85846000   -8.92289000
C   1.82924000   5.88056000   -10.56891000
C   1.83823000   2.94368000   -10.12275000
C   0.56908000   5.12248000   -10.10808000
C   0.58687000   3.67694000   -10.61729000
H   1.84246000   5.89256000   -11.68316000
H   0.50075000   5.12234000   -8.99797000
H   0.56012000   3.66938000   -11.72817000
H   1.80640000   2.87367000   -9.01299000
C   11.96328000   -5.92348000   -9.99936000
C   14.50179000   -5.93640000   -9.94522000
C   13.24639000   -5.18831000   -10.45552000
H   14.47878000   -5.95744000   -8.83019000
H   14.55415000   -2.97490000   -11.50028000
C   14.52699000   -2.99651000   -10.38531000
C   13.24183000   -3.73155000   -9.93366000
H   13.27114000   -5.16885000   -11.57056000
C   11.98949000   -2.98309000   -10.44997000
C   10.70236000   -3.71514000   -9.99760000
C   10.70727000   -5.17827000   -10.51362000
H   10.73462000   -5.16248000   -11.62867000
H   11.93821000   -5.94110000   -8.88439000
H   13.21434000   -3.75105000   -8.81873000
H   12.01809000   -2.96511000   -11.56488000
H   10.67521000   -3.73102000   -8.88257000
C   11.98742000   -1.52598000   -9.92871000
C   14.52366000   -1.54074000   -9.85991000
C   13.27477000   -0.79130000   -10.37726000
C   10.74066000   -0.77553000   -10.44998000
H   11.95566000   -1.54417000   -8.81387000
H   14.49397000   -1.56221000   -8.74504000
H   10.77467000   -0.75886000   -11.56508000
H   13.30610000   -0.77173000   -11.49232000
C   9.44514000   -1.50281000   -10.00394000
C   9.44633000   -2.96551000   -10.51390000
C   9.41972000   -5.91454000   -10.05955000
C   8.21718000   -0.73155000   -10.52581000
C   8.17719000   -3.71184000   -10.06135000
C   8.18226000   -5.15517000   -10.57402000
H   8.20368000   -0.73045000   -11.63797000
H   9.40347000   -1.51510000   -8.89043000
H   9.46639000   -2.95309000   -11.62802000
H   8.10137000   -3.71328000   -8.95177000
H   8.16119000   -5.15330000   -11.68597000
H   9.38495000   -5.92663000   -8.94585000
C   8.22488000   0.71360000   -10.01525000
C   9.50670000   1.43389000   -10.44679000
C   10.74482000   0.68543000   -9.93121000
C   12.02881000   1.41011000   -10.37030000
C   13.27228000   0.66715000   -9.85510000
C   14.55598000   1.39593000   -10.29230000
H   8.14342000   0.72112000   -8.90705000
H   10.71074000   0.68116000   -8.81826000
H   13.23885000   0.66028000   -8.74223000
H   9.53029000   1.50464000   -11.55670000
H   12.06300000   1.47890000   -11.48112000
H   14.58919000   1.46860000   -11.40284000
C   14.50681000   5.86553000   -10.46979000
C   13.22780000   5.12956000   -10.01015000
C   11.97096000   5.87716000   -10.51989000
H   14.52739000   5.88640000   -11.58492000
C   13.23461000   3.67060000   -10.53095000
H   13.20672000   5.11092000   -8.89491000
C   11.96037000   2.94123000   -10.07535000
C   10.70691000   3.67874000   -10.57700000
C   10.69265000   5.14013000   -10.05965000
H   13.25358000   3.67652000   -11.64420000
H   11.99296000   5.89488000   -11.63500000
H   10.67204000   5.12405000   -8.94421000
H   10.72736000   3.68234000   -11.69032000
H   11.94026000   2.87352000   -8.96414000
C   14.48905000   2.92929000   -10.03385000
H   14.47137000   2.85846000   -8.92289000
C   9.42824000   5.88056000   -10.56891000
C   9.43723000   2.94368000   -10.12275000
C   8.16808000   5.12248000   -10.10808000
C   8.18587000   3.67694000   -10.61729000
H   9.44146000   5.89256000   -11.68316000
H   8.09975000   5.12234000   -8.99797000
H   8.15912000   3.66938000   -11.72817000
H   9.40540000   2.87367000   -9.01299000
C   -10.83372000   -5.92348000   10.00064000
C   -8.29521000   -5.93640000   10.05478000
C   -9.55061000   -5.18831000   9.54448000
H   -8.31822000   -5.95744000   11.16981000
H   -8.24285000   -2.97490000   8.49972000
C   -8.27001000   -2.99651000   9.61469000
C   -9.55517000   -3.73155000   10.06634000
H   -9.52586000   -5.16885000   8.42944000
C   -10.80751000   -2.98309000   9.55003000
C   -12.09464000   -3.71514000   10.00240000
C   -12.08973000   -5.17827000   9.48638000
H   -12.06238000   -5.16248000   8.37133000
H   -10.85879000   -5.94110000   11.11561000
H   -9.58266000   -3.75105000   11.18127000
H   -10.77891000   -2.96511000   8.43512000
H   -12.12179000   -3.73102000   11.11743000
C   -10.80958000   -1.52598000   10.07129000
C   -8.27334000   -1.54074000   10.14009000
C   -9.52223000   -0.79130000   9.62274000
C   -12.05634000   -0.77553000   9.55002000
H   -10.84134000   -1.54417000   11.18613000
H   -8.30303000   -1.56221000   11.25496000
H   -12.02233000   -0.75886000   8.43492000
H   -9.49090000   -0.77173000   8.50768000
C   -13.35186000   -1.50281000   9.99606000
C   -13.35067000   -2.96551000   9.48610000
C   -13.37728000   -5.91454000   9.94045000
C   -14.57982000   -0.73155000   9.47419000
C   -14.61981000   -3.71184000   9.93865000
C   -14.61474000   -5.15517000   9.42598000
H   -14.59332000   -0.73045000   8.36203000
H   -13.39353000   -1.51510000   11.10957000
H   -13.33061000   -2.95309000   8.37198000
H   -14.69563000   -3.71328000   11.04823000
H   -14.63581000   -5.15330000   8.31403000
H   -13.41205000   -5.92663000   11.05415000
C   -14.57212000   0.71360000   9.98475000
C   -13.29030000   1.43389000   9.55321000
C   -12.05218000   0.68543000   10.06879000
C   -10.76819000   1.41011000   9.62970000
C   -9.52472000   0.66715000   10.14490000
C   -8.24102000   1.39593000   9.70770000
H   -14.65358000   0.72112000   11.09295000
H   -12.08626000   0.68116000   11.18174000
H   -9.55815000   0.66028000   11.25777000
H   -13.26671000   1.50464000   8.44330000
H   -10.73400000   1.47890000   8.51888000
H   -8.20781000   1.46860000   8.59716000
C   -8.29019000   5.86553000   9.53021000
C   -9.56920000   5.12956000   9.98985000
C   -10.82604000   5.87716000   9.48011000
H   -8.26961000   5.88640000   8.41508000
C   -9.56239000   3.67060000   9.46905000
H   -9.59028000   5.11092000   11.10509000
C   -10.83663000   2.94123000   9.92465000
C   -12.09009000   3.67874000   9.42300000
C   -12.10435000   5.14013000   9.94035000
H   -9.54342000   3.67652000   8.35580000
H   -10.80404000   5.89488000   8.36500000
H   -12.12496000   5.12405000   11.05579000
H   -12.06964000   3.68234000   8.30968000
H   -10.85674000   2.87352000   11.03586000
C   -8.30795000   2.92929000   9.96615000
H   -8.32563000   2.85846000   11.07711000
C   -13.36876000   5.88056000   9.43109000
C   -13.35977000   2.94368000   9.87725000
C   -14.62892000   5.12248000   9.89192000
C   -14.61113000   3.67694000   9.38271000
H   -13.35554000   5.89256000   8.31684000
H   -14.69725000   5.12234000   11.00203000
H   -14.63788000   3.66938000   8.27183000
H   -13.39160000   2.87367000   10.98701000
C   -3.23472000   -5.92348000   10.00064000
C   -0.69621000   -5.93640000   10.05478000
C   -1.95161000   -5.18831000   9.54448000
H   -0.71922000   -5.95744000   11.16981000
H   -0.64385000   -2.97490000   8.49972000
C   -0.67101000   -2.99651000   9.61469000
C   -1.95617000   -3.73155000   10.06634000
H   -1.92686000   -5.16885000   8.42944000
C   -3.20851000   -2.98309000   9.55003000
C   -4.49564000   -3.71514000   10.00240000
C   -4.49073000   -5.17827000   9.48638000
H   -4.46338000   -5.16248000   8.37133000
H   -3.25979000   -5.94110000   11.11561000
H   -1.98366000   -3.75105000   11.18127000
H   -3.17991000   -2.96511000   8.43512000
H   -4.52279000   -3.73102000   11.11743000
C   -3.21058000   -1.52598000   10.07129000
C   -0.67434000   -1.54074000   10.14009000
C   -1.92323000   -0.79130000   9.62274000
C   -4.45734000   -0.77553000   9.55002000
H   -3.24234000   -1.54417000   11.18613000
H   -0.70403000   -1.56221000   11.25496000
H   -1.89190000   -0.77173000   8.50768000
C   -5.75286000   -1.50281000   9.99606000
C   -5.75167000   -2.96551000   9.48610000
C   -5.77828000   -5.91454000   9.94045000
C   -6.98082000   -0.73155000   9.47419000
C   -7.02081000   -3.71184000   9.93865000
C   -7.01574000   -5.15517000   9.42598000
H   -6.99432000   -0.73045000   8.36203000
H   -5.79453000   -1.51510000   11.10957000
H   -5.73161000   -2.95309000   8.37198000
H   -7.09663000   -3.71328000   11.04823000
H   -7.03681000   -5.15330000   8.31403000
H   -5.81305000   -5.92663000   11.05415000
C   -6.97312000   0.71360000   9.98475000
C   -5.69130000   1.43389000   9.55321000
C   -4.45318000   0.68543000   10.06879000
C   -3.16919000   1.41011000   9.62970000
C   -1.92572000   0.66715000   10.14490000
C   -0.64202000   1.39593000   9.70770000
H   -7.05458000   0.72112000   11.09295000
H   -4.48726000   0.68116000   11.18174000
H   -1.95915000   0.66028000   11.25777000
H   -5.66771000   1.50464000   8.44330000
H   -3.13500000   1.47890000   8.51888000
H   -0.60881000   1.46860000   8.59716000
C   -0.69119000   5.86553000   9.53021000
C   -1.97020000   5.12956000   9.98985000
C   -3.22704000   5.87716000   9.48011000
H   -0.67061000   5.88640000   8.41508000
C   -1.96339000   3.67060000   9.46905000
H   -1.99128000   5.11092000   11.10509000
C   -3.23763000   2.94123000   9.92465000
C   -4.49109000   3.67874000   9.42300000
C   -4.50535000   5.14013000   9.94035000
H   -1.94442000   3.67652000   8.35580000
H   -3.20504000   5.89488000   8.36500000
H   -4.52596000   5.12405000   11.05579000
H   -4.47064000   3.68234000   8.30968000
H   -3.25774000   2.87352000   11.03586000
C   -0.70895000   2.92929000   9.96615000
H   -0.72663000   2.85846000   11.07711000
C   -5.76976000   5.88056000   9.43109000
C   -5.76077000   2.94368000   9.87725000
C   -7.02992000   5.12248000   9.89192000
C   -7.01213000   3.67694000   9.38271000
H   -5.75654000   5.89256000   8.31684000
H   -7.09825000   5.12234000   11.00203000
H   -7.03888000   3.66938000   8.27183000
H   -5.79260000   2.87367000   10.98701000
C   4.36428000   -5.92348000   10.00064000
C   6.90279000   -5.93640000   10.05478000
C   5.64739000   -5.18831000   9.54448000
H   6.87978000   -5.95744000   11.16981000
H   6.95515000   -2.97490000   8.49972000
C   6.92799000   -2.99651000   9.61469000
C   5.64283000   -3.73155000   10.06634000
H   5.67214000   -5.16885000   8.42944000
C   4.39049000   -2.98309000   9.55003000
C   3.10336000   -3.71514000   10.00240000
C   3.10827000   -5.17827000   9.48638000
H   3.13562000   -5.16248000   8.37133000
H   4.33921000   -5.94110000   11.11561000
H   5.61534000   -3.75105000   11.18127000
H   4.41909000   -2.96511000   8.43512000
H   3.07621000   -3.73102000   11.11743000
C   4.38842000   -1.52598000   10.07129000
C   6.92466000   -1.54074000   10.14009000
C   5.67577000   -0.79130000   9.62274000
C   3.14166000   -0.77553000   9.55002000
H   4.35666000   -1.54417000   11.18613000
H   6.89497000   -1.56221000   11.25496000
H   3.17567000   -0.75886000   8.43492000
C   1.84614000   -1.50281000   9.99606000
C   1.84733000   -2.96551000   9.48610000
C   1.82072000   -5.91454000   9.94045000
C   0.61818000   -0.73155000   9.47419000
C   0.57819000   -3.71184000   9.93865000
C   0.58326000   -5.15517000   9.42598000
H   0.60468000   -0.73045000   8.36203000
H   1.80447000   -1.51510000   11.10957000
H   1.86739000   -2.95309000   8.37198000
H   0.50237000   -3.71328000   11.04823000
H   0.56219000   -5.15330000   8.31403000
H   1.78595000   -5.92663000   11.05415000
C   0.62588000   0.71360000   9.98475000
C   1.90770000   1.43389000   9.55321000
C   3.14582000   0.68543000   10.06879000
C   4.42981000   1.41011000   9.62970000
C   5.67328000   0.66715000   10.14490000
C   6.95698000   1.39593000   9.70770000
H   0.54442000   0.72112000   11.09295000
H   3.11174000   0.68116000   11.18174000
H   5.63985000   0.66028000   11.25777000
H   1.93129000   1.50464000   8.44330000
H   4.46400000   1.47890000   8.51888000
H   6.99019000   1.46860000   8.59716000
C   6.90781000   5.86553000   9.53021000
C   5.62880000   5.12956000   9.98985000
C   4.37196000   5.87716000   9.48011000
H   6.92839000   5.88640000   8.41508000
C   5.63561000   3.67060000   9.46905000
H   5.60772000   5.11092000   11.10509000
C   4.36137000   2.94123000   9.92465000
C   3.10791000   3.67874000   9.42300000
C   3.09365000   5.14013000   9.94035000
H   5.65458000   3.67652000   8.35580000
H   4.39396000   5.89488000   8.36500000
H   3.07304000   5.12405000   11.05579000
H   3.12836000   3.68234000   8.30968000
H   4.34126000   2.87352000   11.03586000
C   6.89005000   2.92929000   9.96615000
H   6.87237000   2.85846000   11.07711000
C   1.82924000   5.88056000   9.43109000
C   1.83823000   2.94368000   9.87725000
C   0.56908000   5.12248000   9.89192000
C   0.58687000   3.67694000   9.38271000
H   1.84246000   5.89256000   8.31684000
H   0.50075000   5.12234000   11.00203000
H   0.56012000   3.66938000   8.27183000
H   1.80640000   2.87367000   10.98701000
C   11.96328000   -5.92348000   10.00064000
C   14.50179000   -5.93640000   10.05478000
C   13.24639000   -5.18831000   9.54448000
H   14.47878000   -5.95744000   11.16981000
H   14.55415000   -2.97490000   8.49972000
C   14.52699000   -2.99651000   9.61469000
C   13.24183000   -3.73155000   10.06634000
H   13.27114000   -5.16885000   8.42944000
C   11.98949000   -2.98309000   9.55003000
C   10.70236000   -3.71514000   10.00240000
C   10.70727000   -5.17827000   9.48638000
H   10.73462000   -5.16248000   8.37133000
H   11.93821000   -5.94110000   11.11561000
H   13.21434000   -3.75105000   11.18127000
H   12.01809000   -2.96511000   8.43512000
H   10.67521000   -3.73102000   11.11743000
C   11.98742000   -1.52598000   10.07129000
C   14.52366000   -1.54074000   10.14009000
C   13.27477000   -0.79130000   9.62274000
C   10.74066000   -0.77553000   9.55002000
H   11.95566000   -1.54417000   11.18613000
H   14.49397000   -1.56221000   11.25496000
H   10.77467000   -0.75886000   8.43492000
H   13.30610000   -0.77173000   8.50768000
C   9.44514000   -1.50281000   9.99606000
C   9.44633000   -2.96551000   9.48610000
C   9.41972000   -5.91454000   9.94045000
C   8.21718000   -0.73155000   9.47419000
C   8.17719000   -3.71184000   9.93865000
C   8.18226000   -5.15517000   9.42598000
H   8.20368000   -0.73045000   8.36203000
H   9.40347000   -1.51510000   11.10957000
H   9.46639000   -2.95309000   8.37198000
H   8.10137000   -3.71328000   11.04823000
H   8.16119000   -5.15330000   8.31403000
H   9.38495000   -5.92663000   11.05415000
C   8.22488000   0.71360000   9.98475000
C   9.50670000   1.43389000   9.55321000
C   10.74482000   0.68543000   10.06879000
C   12.02881000   1.41011000   9.62970000
C   13.27228000   0.66715000   10.14490000
C   14.55598000   1.39593000   9.70770000
H   8.14342000   0.72112000   11.09295000
H   10.71074000   0.68116000   11.18174000
H   13.23885000   0.66028000   11.25777000
H   9.53029000   1.50464000   8.44330000
H   12.06300000   1.47890000   8.51888000
H   14.58919000   1.46860000   8.59716000
C   14.50681000   5.86553000   9.53021000
C   13.22780000   5.12956000   9.98985000
C   11.97096000   5.87716000   9.48011000
H   14.52739000   5.88640000   8.41508000
C   13.23461000   3.67060000   9.46905000
H   13.20672000   5.11092000   11.10509000
C   11.96037000   2.94123000   9.92465000
C   10.70691000   3.67874000   9.42300000
C   10.69265000   5.14013000   9.94035000
H   13.25358000   3.67652000   8.35580000
H   11.99296000   5.89488000   8.36500000
H   10.67204000   5.12405000   11.05579000
H   10.72736000   3.68234000   8.30968000
H   11.94026000   2.87352000   11.03586000
C   14.48905000   2.92929000   9.96615000
H   14.47137000   2.85846000   11.07711000
C   9.42824000   5.88056000   9.43109000
C   9.43723000   2.94368000   9.87725000
C   8.16808000   5.12248000   9.89192000
C   8.18587000   3.67694000   9.38271000
H   9.44146000   5.89256000   8.31684000
H   8.09975000   5.12234000   11.00203000
H   8.15912000   3.66938000   8.27183000
H   9.40540000   2.87367000   10.98701000
N   -4.92720815   -0.41409711   5.43478747
C   -5.41117918   -0.51453006   6.87854657
H   -5.89872014   0.45266442   7.02682014
H   -6.22215089   -1.20168434   6.92593753
C   -4.26789777   -0.71118076   7.89033741
H   -3.64589817   -1.56884312   7.50541652
H   -3.59768950   0.12249436   7.75518895
C   -4.20862016   -1.64361604   5.01474635
H   -3.31950430   -1.77636239   5.59860199
H   -4.79878339   -2.62341917   4.99255380
H   -3.93441362   -1.42090770   3.97681732
C   -3.92279805   0.74605222   5.23817999
H   -3.75839370   0.98232271   4.22347109
H   -4.24093004   1.60423632   5.90780547
H   -2.86284756   0.36613088   5.52033113
C   -6.06224700   -0.19165844   4.58225500
H   -5.65157516   -0.48993870   3.58768020
H   -6.92117889   -0.81672979   4.86116708
H   -6.37432139   0.85233580   4.51411945
N   7.03978702   -0.70411600   0.45439918
C   6.77469461   0.29880200   1.62511503
H   7.81187790   0.77407376   1.68045681
H   6.14458137   1.00083816   1.16268364
C   6.26419367   -0.31377849   2.91012193
H   5.18809412   -0.53331777   2.80321497
H   6.56204901   -1.33439681   3.07316249
C   5.60657490   -0.94746261   7.89678123
H   4.54973473   -1.11363474   7.64929098
H   6.11954379   -1.84775451   7.67638917
C   6.06865473   0.13948682   6.80211925
H   5.53601180   1.06144953   6.98325159
H   7.08377092   0.37758690   7.02989566
C   5.96553044   -0.49287143   5.43804622
H   4.96715414   -0.94163645   5.16638910
H   6.61829354   -1.36302389   5.45939618
C   6.46110452   0.40622569   4.24953954
H   6.01377057   1.38123108   4.12617819
H   7.53384546   0.68032095   4.24087280
C   8.17499265   -1.54387626   0.90985832
H   8.04552631   -1.85211834   1.93404793
H   9.09748109   -0.86726469   0.82765179
H   8.21538350   -2.43376025   0.24969019
C   7.27758906   0.00004326   -0.83659134
H   6.31286740   0.21146678   -1.35110689
H   8.00681299   -0.52825139   -1.47261104
H   7.59781651   0.96454837   -0.63379921
C   5.93790365   -1.65789115   0.22104767
H   6.01907767   -2.24144439   -0.70977164
H   5.04252052   -1.12640404   0.10134380
H   5.93580317   -2.49711106   0.96669917
O   -29.03963407   19.23727060   1.60872991
H   -28.92327886   19.70505000   2.42740375
H   3.54065367   2.81034112   -2.00178680
O   5.36864409   -32.11005905   0.81620378
H   5.56801000   -33.01286836   1.16293768
H   6.20289667   -31.82593402   0.33140825
O   36.25080255   7.33067731   -2.82185402
H   35.89023068   6.66847597   -2.21375058
H   36.93745463   7.76022763   -2.29188576
O   -38.09216864   20.13049991   -0.59358729
H   -38.19028394   20.69626875   0.18509438
H   -38.69455798   19.36941976   -0.54031982
O   28.59216764   -6.64692778   5.40401676
H   28.16374216   -7.42766492   5.05867619
H   27.99757044   -5.94742431   4.92765929
O   -20.21595043   -6.08630252   -3.06036410
H   -20.95121315   -6.22083686   -2.34974486
H   -19.46634084   -6.51316100   -2.63799823
O   -23.02732632   9.29027938   -1.12318280
H   -22.69756964   8.26039909   -1.00903662
H   -22.72030185   9.50625037   -2.04290192
O   -12.81716093   -4.93994322   -0.62575588
H   -13.36412740   -4.41372237   -1.28780993
H   -12.04524981   -4.36173893   -0.56958390
O   9.33558658   17.85041284   -0.59538044
H   8.95428724   18.77960828   -0.68838088
H   10.30531415   17.83152931   -0.65227421
O   8.40288556   16.73154942   -2.95617042
H   8.82155485   17.17347054   -2.21703674
H   9.18610042   16.29712318   -3.40265278
O   24.66394693   -4.17282101   -0.82272638
H   25.41391660   -4.69020869   -1.09807207
H   24.04939754   -17.71921749   -1.56241935
O   -4.43828868   2.08569446   -1.71254812
H   -4.99441116   1.31727156   -1.64814565
H   -4.31321427   2.45999570   -0.82555237
O   -8.10858602   2.08546827   -6.35669759
H   -7.40713090   -11.04970587   -6.94119879
H   -8.86708261   1.67584137   -6.86335717
O   -5.66464681   -18.72840779   2.54540011
H   -5.15691460   -19.46164839   2.15378798
H   -6.52687948   -18.46835175   2.16987252
O   51.64253737   4.84669038   5.36130417
H   52.26863369   4.77654141   4.63361460
H   52.06170670   4.78924480   6.18427120
O   3.07736003   -33.07977914   -4.01523160
H   4.02571263   -32.90331177   -3.89793624
H   14.46050801   -30.10654786   -1.48477576
O   42.30858396   -15.19556894   0.22203607
H   41.82405802   -15.95373679   0.58877142
H   41.97469245   -15.14056918   -0.69851931
O   5.56995913   17.20194205   -3.29364519
H   6.49342329   17.49294939   -3.34267018
H   5.26680068   17.27793279   -4.18627352
O   2.81129879   -12.67398571   0.72716302
H   2.59182400   -13.47022017   0.19789935
H   2.74753829   -11.98722320   0.01527895
O   41.21035487   16.27032688   -6.38831177
H   40.70196138   16.93755446   -5.89091438
H   42.07087897   16.64072118   -6.59946868
O   2.28409933   22.19569322   0.54669055
H   1.70673799   21.66401621   0.02357493
H   3.15592474   21.92389492   0.26277325
O   27.99556692   -5.75673474   -0.14964570
H   27.46411081   7.23997472   -0.87384161
H   27.94279550   -6.40373371   0.60842497
O   -19.34083512   -39.40833871   -2.92976640
H   -22.70713595   -44.60538138   3.37665286
H   -19.15372401   -40.13402331   -3.52002543
O   14.87795323   38.35391826   1.33253439
H   14.13347864   38.73587793   0.83937300
H   15.39249757   39.10827190   1.66566231
O   -6.75436374   -27.77137900   0.80724179
H   -7.67577709   -27.93446844   1.04994600
H   -29.40459662   18.34054670   1.72202775
O   13.69176157   17.63662909   -1.37091813
H   14.64835735   17.76276061   -1.54751530
H   13.54474052   18.50848446   -0.97323445
O   6.18249518   19.01667999   -0.72051062
H   6.50713581   18.17308211   -1.08016169
H   6.98508730   19.52912144   -0.73903201
O   -4.73122469   29.83535894   1.03445723
H   -4.76670427   30.50816338   1.78903153
H   -4.64942644   28.94224835   1.39475052
O   10.33784833   -7.97327304   -5.23605853
H   9.56107328   -7.82224483   -5.81354365
H   17.66432414   -31.92962142   4.55460184
O   -35.05532919   4.33365436   3.29600112
H   -19.62114169   -10.15259499   0.71511150
H   -34.68802261   3.47451902   3.53365652
O   32.32908761   12.53978596   3.63559494
H   32.64610707   11.70762899   4.02268557
H   32.70911549   12.55509257   2.79397669
O   17.83571667   -17.63551121   4.30993348
H   17.70224535   -17.32851931   3.43293058
H   -3.68772374   -34.89152746   -2.61686987
O   2.21869223   -8.07334015   -1.01074896
H   3.14701048   -7.75652360   -1.00876943
H   1.95799767   -7.94335130   -0.06644139
O   -22.43985777   41.07290419   -4.70907378
H   -22.68177753   42.02356709   -4.58696138
H   8.77718774   40.74372447   -4.33145958
O   18.26552072   24.56246691   -4.72600949
H   17.47023799   24.23334596   -4.32963620
H   18.86846879   23.85625505   -5.00641806
O   -0.23293134   -27.27725939   -0.89800136
H   -0.23730546   -28.14496693   -0.51971318
H   0.10863696   -26.76715545   -0.17237727
O   -8.92503596   -19.79565102   2.29579183
H   -8.87810016   -20.76417121   2.29531632
H   -8.14168353   -19.31873378   2.55874788
O   20.02466393   -0.87720665   5.45527005
H   19.45896262   -0.63797324   4.69986131
H   19.42515464   -0.89594499   6.24464020
O   13.75146797   -3.92731584   -1.79721888
H   13.74843681   -4.62525178   -1.13996058
H   12.90546675   3.52687007   -2.84469448
O   16.46442002   4.37329092   -0.95078179
H   17.18097630   4.32681202   -0.27608262
H   16.22182931   3.47991170   -1.05495276
O   -53.41427969   -17.34669275   2.61921593
H   -38.73016811   -11.41520173   -3.80955813
H   -53.50690298   -17.98777453   1.89152652
O   22.97798726   -11.51619606   -3.57667035
H   23.17047048   -11.00764823   -2.78789360
H   2.75340249   -19.99572935   -3.19080239
O   -0.48350763   -7.26473985   -4.09236400
H   0.31404894   -7.82945792   -3.93477351
H   -0.21259616   -6.45133584   -4.57855256
O   2.76709062   12.48729253   -1.82782844
H   2.26153194   11.74069086   -2.22053332
H   2.29887770   13.31757412   -2.05218876
O   6.76832996   -34.37849118   2.05020211
H   6.31347790   -34.88021836   2.70772953
H   6.63924991   -34.93490052   1.21047851
O   -18.70232555   -23.80046391   0.93772178
H   -18.05717928   -23.41262030   0.29828562
H   -6.84471651   -27.63477848   -0.17158710
O   -11.24349354   14.49254097   2.89697698
H   -10.37312238   14.78527932   3.22938800
H   -11.64387056   15.37052805   2.81442974
O   0.17314933   -18.08615487   4.68194491
H   -0.06257612   -17.56725898   5.47015885
H   -0.67160409   -18.42398482   4.41621960
O   -14.32348091   -4.29193678   -3.62836857
H   -14.43026402   -4.19332769   -4.58682819
H   -15.06534061   -4.85964739   -3.34978365
O   -11.73431489   -20.82217935   4.10692907
H   -11.35439553   -19.90136391   4.23637833
H   -11.17604123   -21.37628699   4.67061857
O   -12.34301357   -36.15119349   1.29573188
H   -11.38767284   -36.39842238   1.25798258
H   -12.41689027   -35.35670539   1.86936360
O   -37.78752435   4.21791376   3.15528630
H   -36.82329310   4.13046226   3.23358879
H   -38.05947963   3.39259379   2.71864899
O   14.83701737   1.31253783   -2.15746590
H   14.92867674   0.57401521   -2.78712394
H   13.98523000   1.65569526   -2.39533056
O   -32.60268287   3.29242294   4.56496324
H   -33.20749666   4.03527491   4.36087224
H   -31.72568584   3.36231944   4.14665361
O   -21.97256530   -6.51908905   -1.02093280
H   -18.84944145   -11.90751280   -3.32595865
H   -21.38587644   -6.34099816   -0.24289710
O   -3.09917794   -4.45470579   4.06316857
H   -2.75795904   -3.93398800   3.27637842
H   -3.94002897   -4.77281703   3.74317942
O   -25.97072840   -8.12029324   3.63894082
H   -26.14254457   -8.38313847   2.69746204
H   -26.75906131   -7.65970347   3.97226781
O   -7.26088811   -27.81217657   -2.28704111
H   -7.31554279   -26.95639328   -2.71317937
H   -7.71848046   -28.49445294   -2.73340951
O   14.63038146   6.32443048   0.22946888
H   15.46801526   5.93102379   -0.10212313
H   14.80770494   6.75197694   1.08779845
O   26.95825098   -17.16611660   -2.59990816
H   27.03062505   -16.25661011   -2.10320405
H   27.56759986   -17.73434233   -2.16856743
O   33.08350839   -3.55753184   3.24727332
H   32.56910528   -4.21289931   3.72782487
H   32.76309669   -3.67083343   2.36458176
O   -3.52947434   -33.91795991   -2.50759413
H   -2.33914041   -0.90431193   -1.85427780
H   -2.77043507   -20.34414734   -3.08834537
O   -5.73870203   -33.86998421   4.80957727
H   -5.25964545   -34.48412901   4.28579569
H   -6.46674945   -33.61290431   4.22525920
O   12.85016409   2.97228569   -3.66038728
H   13.58120669   3.22690114   -4.24005231
H   10.21852289   -7.38577183   -4.50535250
O   26.72760475   -3.12027777   1.25543034
H   27.11319564   -3.89796185   0.77287162
H   26.00062414   10.62442489   0.69853167
O   -0.88040608   50.62570042   0.57844800
H   -1.67400200   50.52165039   1.13049196
H   -0.85696145   49.74084881   0.18635454
O   25.02878122   -4.53978762   6.17924047
H   25.96424139   -4.61280133   5.91355136
H   24.40760607   -5.25582413   5.95700067
O   -8.34967427   1.38278711   1.81094039
H   -8.88978835   1.23048452   0.98038918
H   -8.02301494   0.50471062   2.04113167
O   27.52406735   5.65118125   1.88144287
H   26.81867321   5.10098893   2.33301572
H   27.92283127   5.13706483   1.18234506
O   24.27401992   -10.50733629   5.22469162
H   23.53260554   -10.66376092   4.64342446
H   24.83156035   -9.88049561   4.74446683
O   -46.34718077   -8.07423148   -4.87597174
H   -46.16749153   -8.34772388   -3.94159926
H   -47.30346093   -8.04975473   -5.00565575
O   -4.09933232   -13.46515677   1.18738343
H   -3.54026883   -14.22916188   0.87363226
H   -4.91748126   -13.74437868   0.76124549
O   -1.39000461   -14.42666735   3.21995451
H   -1.96978546   -14.46035098   2.39248654
H   -0.60186413   -14.02900227   2.95101752
O   -39.84846550   -22.62571146   -1.46927775
H   -39.19156351   -22.25881959   -2.08798000
H   -40.70458922   -22.16771354   -1.60947261
O   2.85125501   2.63119831   -1.31286890
H   2.52649136   3.54759899   -1.08039471
O   -3.21408468   -1.15944318   -1.49732286
H   -3.85530688   -0.84413991   -2.14795536
