850

C   -10.83372000   -5.92348000   -9.99936000
C   -8.29521000   -5.93640000   -9.94522000
C   -9.55061000   -5.18831000   -10.45552000
H   -8.31822000   -5.95744000   -8.83019000
H   -8.24285000   -2.97490000   -11.50028000
C   -8.27001000   -2.99651000   -10.38531000
C   -9.55517000   -3.73155000   -9.93366000
H   -9.52586000   -5.16885000   -11.57056000
C   -10.80751000   -2.98309000   -10.44997000
C   -12.09464000   -3.71514000   -9.99760000
C   -12.08973000   -5.17827000   -10.51362000
H   -12.06238000   -5.16248000   -11.62867000
H   -10.85879000   -5.94110000   -8.88439000
H   -9.58266000   -3.75105000   -8.81873000
H   -10.77891000   -2.96511000   -11.56488000
H   -12.12179000   -3.73102000   -8.88257000
C   -10.80958000   -1.52598000   -9.92871000
C   -8.27334000   -1.54074000   -9.85991000
C   -9.52223000   -0.79130000   -10.37726000
C   -12.05634000   -0.77553000   -10.44998000
H   -10.84134000   -1.54417000   -8.81387000
H   -8.30303000   -1.56221000   -8.74504000
H   -12.02233000   -0.75886000   -11.56508000
H   -9.49090000   -0.77173000   -11.49232000
C   -13.35186000   -1.50281000   -10.00394000
C   -13.35067000   -2.96551000   -10.51390000
C   -13.37728000   -5.91454000   -10.05955000
C   -14.57982000   -0.73155000   -10.52581000
C   -14.61981000   -3.71184000   -10.06135000
C   -14.61474000   -5.15517000   -10.57402000
H   -14.59332000   -0.73045000   -11.63797000
H   -13.39353000   -1.51510000   -8.89043000
H   -13.33061000   -2.95309000   -11.62802000
H   -14.69563000   -3.71328000   -8.95177000
H   -14.63581000   -5.15330000   -11.68597000
H   -13.41205000   -5.92663000   -8.94585000
C   -14.57212000   0.71360000   -10.01525000
C   -13.29030000   1.43389000   -10.44679000
C   -12.05218000   0.68543000   -9.93121000
C   -10.76819000   1.41011000   -10.37030000
C   -9.52472000   0.66715000   -9.85510000
C   -8.24102000   1.39593000   -10.29230000
H   -14.65358000   0.72112000   -8.90705000
H   -12.08626000   0.68116000   -8.81826000
H   -9.55815000   0.66028000   -8.74223000
H   -13.26671000   1.50464000   -11.55670000
H   -10.73400000   1.47890000   -11.48112000
H   -8.20781000   1.46860000   -11.40284000
C   -8.29019000   5.86553000   -10.46979000
C   -9.56920000   5.12956000   -10.01015000
C   -10.82604000   5.87716000   -10.51989000
H   -8.26961000   5.88640000   -11.58492000
C   -9.56239000   3.67060000   -10.53095000
H   -9.59028000   5.11092000   -8.89491000
C   -10.83663000   2.94123000   -10.07535000
C   -12.09009000   3.67874000   -10.57700000
C   -12.10435000   5.14013000   -10.05965000
H   -9.54342000   3.67652000   -11.64420000
H   -10.80404000   5.89488000   -11.63500000
H   -12.12496000   5.12405000   -8.94421000
H   -12.06964000   3.68234000   -11.69032000
H   -10.85674000   2.87352000   -8.96414000
C   -8.30795000   2.92929000   -10.03385000
H   -8.32563000   2.85846000   -8.92289000
C   -13.36876000   5.88056000   -10.56891000
C   -13.35977000   2.94368000   -10.12275000
C   -14.62892000   5.12248000   -10.10808000
C   -14.61113000   3.67694000   -10.61729000
H   -13.35554000   5.89256000   -11.68316000
H   -14.69725000   5.12234000   -8.99797000
H   -14.63788000   3.66938000   -11.72817000
H   -13.39160000   2.87367000   -9.01299000
C   -3.23472000   -5.92348000   -9.99936000
C   -0.69621000   -5.93640000   -9.94522000
C   -1.95161000   -5.18831000   -10.45552000
H   -0.71922000   -5.95744000   -8.83019000
H   -0.64385000   -2.97490000   -11.50028000
C   -0.67101000   -2.99651000   -10.38531000
C   -1.95617000   -3.73155000   -9.93366000
H   -1.92686000   -5.16885000   -11.57056000
C   -3.20851000   -2.98309000   -10.44997000
C   -4.49564000   -3.71514000   -9.99760000
C   -4.49073000   -5.17827000   -10.51362000
H   -4.46338000   -5.16248000   -11.62867000
H   -3.25979000   -5.94110000   -8.88439000
H   -1.98366000   -3.75105000   -8.81873000
H   -3.17991000   -2.96511000   -11.56488000
H   -4.52279000   -3.73102000   -8.88257000
C   -3.21058000   -1.52598000   -9.92871000
C   -0.67434000   -1.54074000   -9.85991000
C   -1.92323000   -0.79130000   -10.37726000
C   -4.45734000   -0.77553000   -10.44998000
H   -3.24234000   -1.54417000   -8.81387000
H   -0.70403000   -1.56221000   -8.74504000
H   -4.42333000   -0.75886000   -11.56508000
H   -1.89190000   -0.77173000   -11.49232000
C   -5.75286000   -1.50281000   -10.00394000
C   -5.75167000   -2.96551000   -10.51390000
C   -5.77828000   -5.91454000   -10.05955000
C   -6.98082000   -0.73155000   -10.52581000
C   -7.02081000   -3.71184000   -10.06135000
C   -7.01574000   -5.15517000   -10.57402000
H   -6.99432000   -0.73045000   -11.63797000
H   -5.79453000   -1.51510000   -8.89043000
H   -5.73161000   -2.95309000   -11.62802000
H   -7.09663000   -3.71328000   -8.95177000
H   -7.03681000   -5.15330000   -11.68597000
H   -5.81305000   -5.92663000   -8.94585000
C   -6.97312000   0.71360000   -10.01525000
C   -5.69130000   1.43389000   -10.44679000
C   -4.45318000   0.68543000   -9.93121000
C   -3.16919000   1.41011000   -10.37030000
C   -1.92572000   0.66715000   -9.85510000
C   -0.64202000   1.39593000   -10.29230000
H   -7.05458000   0.72112000   -8.90705000
H   -4.48726000   0.68116000   -8.81826000
H   -1.95915000   0.66028000   -8.74223000
H   -5.66771000   1.50464000   -11.55670000
H   -3.13500000   1.47890000   -11.48112000
H   -0.60881000   1.46860000   -11.40284000
C   -0.69119000   5.86553000   -10.46979000
C   -1.97020000   5.12956000   -10.01015000
C   -3.22704000   5.87716000   -10.51989000
H   -0.67061000   5.88640000   -11.58492000
C   -1.96339000   3.67060000   -10.53095000
H   -1.99128000   5.11092000   -8.89491000
C   -3.23763000   2.94123000   -10.07535000
C   -4.49109000   3.67874000   -10.57700000
C   -4.50535000   5.14013000   -10.05965000
H   -1.94442000   3.67652000   -11.64420000
H   -3.20504000   5.89488000   -11.63500000
H   -4.52596000   5.12405000   -8.94421000
H   -4.47064000   3.68234000   -11.69032000
H   -3.25774000   2.87352000   -8.96414000
C   -0.70895000   2.92929000   -10.03385000
H   -0.72663000   2.85846000   -8.92289000
C   -5.76976000   5.88056000   -10.56891000
C   -5.76077000   2.94368000   -10.12275000
C   -7.02992000   5.12248000   -10.10808000
C   -7.01213000   3.67694000   -10.61729000
H   -5.75654000   5.89256000   -11.68316000
H   -7.09825000   5.12234000   -8.99797000
H   -7.03888000   3.66938000   -11.72817000
H   -5.79260000   2.87367000   -9.01299000
C   4.36428000   -5.92348000   -9.99936000
C   6.90279000   -5.93640000   -9.94522000
C   5.64739000   -5.18831000   -10.45552000
H   6.87978000   -5.95744000   -8.83019000
H   6.95515000   -2.97490000   -11.50028000
C   6.92799000   -2.99651000   -10.38531000
C   5.64283000   -3.73155000   -9.93366000
H   5.67214000   -5.16885000   -11.57056000
C   4.39049000   -2.98309000   -10.44997000
C   3.10336000   -3.71514000   -9.99760000
C   3.10827000   -5.17827000   -10.51362000
H   3.13562000   -5.16248000   -11.62867000
H   4.33921000   -5.94110000   -8.88439000
H   5.61534000   -3.75105000   -8.81873000
H   4.41909000   -2.96511000   -11.56488000
H   3.07621000   -3.73102000   -8.88257000
C   4.38842000   -1.52598000   -9.92871000
C   6.92466000   -1.54074000   -9.85991000
C   5.67577000   -0.79130000   -10.37726000
C   3.14166000   -0.77553000   -10.44998000
H   4.35666000   -1.54417000   -8.81387000
H   6.89497000   -1.56221000   -8.74504000
H   3.17567000   -0.75886000   -11.56508000
H   5.70710000   -0.77173000   -11.49232000
C   1.84614000   -1.50281000   -10.00394000
C   1.84733000   -2.96551000   -10.51390000
C   1.82072000   -5.91454000   -10.05955000
C   0.61818000   -0.73155000   -10.52581000
C   0.57819000   -3.71184000   -10.06135000
C   0.58326000   -5.15517000   -10.57402000
H   0.60468000   -0.73045000   -11.63797000
H   1.80447000   -1.51510000   -8.89043000
H   1.86739000   -2.95309000   -11.62802000
H   0.50237000   -3.71328000   -8.95177000
H   0.56219000   -5.15330000   -11.68597000
H   1.78595000   -5.92663000   -8.94585000
C   0.62588000   0.71360000   -10.01525000
C   1.90770000   1.43389000   -10.44679000
C   3.14582000   0.68543000   -9.93121000
C   4.42981000   1.41011000   -10.37030000
C   5.67328000   0.66715000   -9.85510000
C   6.95698000   1.39593000   -10.29230000
H   0.54442000   0.72112000   -8.90705000
H   3.11174000   0.68116000   -8.81826000
H   5.63985000   0.66028000   -8.74223000
H   1.93129000   1.50464000   -11.55670000
H   4.46400000   1.47890000   -11.48112000
H   6.99019000   1.46860000   -11.40284000
C   6.90781000   5.86553000   -10.46979000
C   5.62880000   5.12956000   -10.01015000
C   4.37196000   5.87716000   -10.51989000
H   6.92839000   5.88640000   -11.58492000
C   5.63561000   3.67060000   -10.53095000
H   5.60772000   5.11092000   -8.89491000
C   4.36137000   2.94123000   -10.07535000
C   3.10791000   3.67874000   -10.57700000
C   3.09365000   5.14013000   -10.05965000
H   5.65458000   3.67652000   -11.64420000
H   4.39396000   5.89488000   -11.63500000
H   3.07304000   5.12405000   -8.94421000
H   3.12836000   3.68234000   -11.69032000
H   4.34126000   2.87352000   -8.96414000
C   6.89005000   2.92929000   -10.03385000
H   6.87237000   2.85846000   -8.92289000
C   1.82924000   5.88056000   -10.56891000
C   1.83823000   2.94368000   -10.12275000
C   0.56908000   5.12248000   -10.10808000
C   0.58687000   3.67694000   -10.61729000
H   1.84246000   5.89256000   -11.68316000
H   0.50075000   5.12234000   -8.99797000
H   0.56012000   3.66938000   -11.72817000
H   1.80640000   2.87367000   -9.01299000
C   11.96328000   -5.92348000   -9.99936000
C   14.50179000   -5.93640000   -9.94522000
C   13.24639000   -5.18831000   -10.45552000
H   14.47878000   -5.95744000   -8.83019000
H   14.55415000   -2.97490000   -11.50028000
C   14.52699000   -2.99651000   -10.38531000
C   13.24183000   -3.73155000   -9.93366000
H   13.27114000   -5.16885000   -11.57056000
C   11.98949000   -2.98309000   -10.44997000
C   10.70236000   -3.71514000   -9.99760000
C   10.70727000   -5.17827000   -10.51362000
H   10.73462000   -5.16248000   -11.62867000
H   11.93821000   -5.94110000   -8.88439000
H   13.21434000   -3.75105000   -8.81873000
H   12.01809000   -2.96511000   -11.56488000
H   10.67521000   -3.73102000   -8.88257000
C   11.98742000   -1.52598000   -9.92871000
C   14.52366000   -1.54074000   -9.85991000
C   13.27477000   -0.79130000   -10.37726000
C   10.74066000   -0.77553000   -10.44998000
H   11.95566000   -1.54417000   -8.81387000
H   14.49397000   -1.56221000   -8.74504000
H   10.77467000   -0.75886000   -11.56508000
H   13.30610000   -0.77173000   -11.49232000
C   9.44514000   -1.50281000   -10.00394000
C   9.44633000   -2.96551000   -10.51390000
C   9.41972000   -5.91454000   -10.05955000
C   8.21718000   -0.73155000   -10.52581000
C   8.17719000   -3.71184000   -10.06135000
C   8.18226000   -5.15517000   -10.57402000
H   8.20368000   -0.73045000   -11.63797000
H   9.40347000   -1.51510000   -8.89043000
H   9.46639000   -2.95309000   -11.62802000
H   8.10137000   -3.71328000   -8.95177000
H   8.16119000   -5.15330000   -11.68597000
H   9.38495000   -5.92663000   -8.94585000
C   8.22488000   0.71360000   -10.01525000
C   9.50670000   1.43389000   -10.44679000
C   10.74482000   0.68543000   -9.93121000
C   12.02881000   1.41011000   -10.37030000
C   13.27228000   0.66715000   -9.85510000
C   14.55598000   1.39593000   -10.29230000
H   8.14342000   0.72112000   -8.90705000
H   10.71074000   0.68116000   -8.81826000
H   13.23885000   0.66028000   -8.74223000
H   9.53029000   1.50464000   -11.55670000
H   12.06300000   1.47890000   -11.48112000
H   14.58919000   1.46860000   -11.40284000
C   14.50681000   5.86553000   -10.46979000
C   13.22780000   5.12956000   -10.01015000
C   11.97096000   5.87716000   -10.51989000
H   14.52739000   5.88640000   -11.58492000
C   13.23461000   3.67060000   -10.53095000
H   13.20672000   5.11092000   -8.89491000
C   11.96037000   2.94123000   -10.07535000
C   10.70691000   3.67874000   -10.57700000
C   10.69265000   5.14013000   -10.05965000
H   13.25358000   3.67652000   -11.64420000
H   11.99296000   5.89488000   -11.63500000
H   10.67204000   5.12405000   -8.94421000
H   10.72736000   3.68234000   -11.69032000
H   11.94026000   2.87352000   -8.96414000
C   14.48905000   2.92929000   -10.03385000
H   14.47137000   2.85846000   -8.92289000
C   9.42824000   5.88056000   -10.56891000
C   9.43723000   2.94368000   -10.12275000
C   8.16808000   5.12248000   -10.10808000
C   8.18587000   3.67694000   -10.61729000
H   9.44146000   5.89256000   -11.68316000
H   8.09975000   5.12234000   -8.99797000
H   8.15912000   3.66938000   -11.72817000
H   9.40540000   2.87367000   -9.01299000
C   -10.83372000   -5.92348000   10.00064000
C   -8.29521000   -5.93640000   10.05478000
C   -9.55061000   -5.18831000   9.54448000
H   -8.31822000   -5.95744000   11.16981000
H   -8.24285000   -2.97490000   8.49972000
C   -8.27001000   -2.99651000   9.61469000
C   -9.55517000   -3.73155000   10.06634000
H   -9.52586000   -5.16885000   8.42944000
C   -10.80751000   -2.98309000   9.55003000
C   -12.09464000   -3.71514000   10.00240000
C   -12.08973000   -5.17827000   9.48638000
H   -12.06238000   -5.16248000   8.37133000
H   -10.85879000   -5.94110000   11.11561000
H   -9.58266000   -3.75105000   11.18127000
H   -10.77891000   -2.96511000   8.43512000
H   -12.12179000   -3.73102000   11.11743000
C   -10.80958000   -1.52598000   10.07129000
C   -8.27334000   -1.54074000   10.14009000
C   -9.52223000   -0.79130000   9.62274000
C   -12.05634000   -0.77553000   9.55002000
H   -10.84134000   -1.54417000   11.18613000
H   -8.30303000   -1.56221000   11.25496000
H   -12.02233000   -0.75886000   8.43492000
H   -9.49090000   -0.77173000   8.50768000
C   -13.35186000   -1.50281000   9.99606000
C   -13.35067000   -2.96551000   9.48610000
C   -13.37728000   -5.91454000   9.94045000
C   -14.57982000   -0.73155000   9.47419000
C   -14.61981000   -3.71184000   9.93865000
C   -14.61474000   -5.15517000   9.42598000
H   -14.59332000   -0.73045000   8.36203000
H   -13.39353000   -1.51510000   11.10957000
H   -13.33061000   -2.95309000   8.37198000
H   -14.69563000   -3.71328000   11.04823000
H   -14.63581000   -5.15330000   8.31403000
H   -13.41205000   -5.92663000   11.05415000
C   -14.57212000   0.71360000   9.98475000
C   -13.29030000   1.43389000   9.55321000
C   -12.05218000   0.68543000   10.06879000
C   -10.76819000   1.41011000   9.62970000
C   -9.52472000   0.66715000   10.14490000
C   -8.24102000   1.39593000   9.70770000
H   -14.65358000   0.72112000   11.09295000
H   -12.08626000   0.68116000   11.18174000
H   -9.55815000   0.66028000   11.25777000
H   -13.26671000   1.50464000   8.44330000
H   -10.73400000   1.47890000   8.51888000
H   -8.20781000   1.46860000   8.59716000
C   -8.29019000   5.86553000   9.53021000
C   -9.56920000   5.12956000   9.98985000
C   -10.82604000   5.87716000   9.48011000
H   -8.26961000   5.88640000   8.41508000
C   -9.56239000   3.67060000   9.46905000
H   -9.59028000   5.11092000   11.10509000
C   -10.83663000   2.94123000   9.92465000
C   -12.09009000   3.67874000   9.42300000
C   -12.10435000   5.14013000   9.94035000
H   -9.54342000   3.67652000   8.35580000
H   -10.80404000   5.89488000   8.36500000
H   -12.12496000   5.12405000   11.05579000
H   -12.06964000   3.68234000   8.30968000
H   -10.85674000   2.87352000   11.03586000
C   -8.30795000   2.92929000   9.96615000
H   -8.32563000   2.85846000   11.07711000
C   -13.36876000   5.88056000   9.43109000
C   -13.35977000   2.94368000   9.87725000
C   -14.62892000   5.12248000   9.89192000
C   -14.61113000   3.67694000   9.38271000
H   -13.35554000   5.89256000   8.31684000
H   -14.69725000   5.12234000   11.00203000
H   -14.63788000   3.66938000   8.27183000
H   -13.39160000   2.87367000   10.98701000
C   -3.23472000   -5.92348000   10.00064000
C   -0.69621000   -5.93640000   10.05478000
C   -1.95161000   -5.18831000   9.54448000
H   -0.71922000   -5.95744000   11.16981000
H   -0.64385000   -2.97490000   8.49972000
C   -0.67101000   -2.99651000   9.61469000
C   -1.95617000   -3.73155000   10.06634000
H   -1.92686000   -5.16885000   8.42944000
C   -3.20851000   -2.98309000   9.55003000
C   -4.49564000   -3.71514000   10.00240000
C   -4.49073000   -5.17827000   9.48638000
H   -4.46338000   -5.16248000   8.37133000
H   -3.25979000   -5.94110000   11.11561000
H   -1.98366000   -3.75105000   11.18127000
H   -3.17991000   -2.96511000   8.43512000
H   -4.52279000   -3.73102000   11.11743000
C   -3.21058000   -1.52598000   10.07129000
C   -0.67434000   -1.54074000   10.14009000
C   -1.92323000   -0.79130000   9.62274000
C   -4.45734000   -0.77553000   9.55002000
H   -3.24234000   -1.54417000   11.18613000
H   -0.70403000   -1.56221000   11.25496000
H   -1.89190000   -0.77173000   8.50768000
C   -5.75286000   -1.50281000   9.99606000
C   -5.75167000   -2.96551000   9.48610000
C   -5.77828000   -5.91454000   9.94045000
C   -6.98082000   -0.73155000   9.47419000
C   -7.02081000   -3.71184000   9.93865000
C   -7.01574000   -5.15517000   9.42598000
H   -6.99432000   -0.73045000   8.36203000
H   -5.79453000   -1.51510000   11.10957000
H   -5.73161000   -2.95309000   8.37198000
H   -7.09663000   -3.71328000   11.04823000
H   -7.03681000   -5.15330000   8.31403000
H   -5.81305000   -5.92663000   11.05415000
C   -6.97312000   0.71360000   9.98475000
C   -5.69130000   1.43389000   9.55321000
C   -4.45318000   0.68543000   10.06879000
C   -3.16919000   1.41011000   9.62970000
C   -1.92572000   0.66715000   10.14490000
C   -0.64202000   1.39593000   9.70770000
H   -7.05458000   0.72112000   11.09295000
H   -4.48726000   0.68116000   11.18174000
H   -1.95915000   0.66028000   11.25777000
H   -5.66771000   1.50464000   8.44330000
H   -3.13500000   1.47890000   8.51888000
H   -0.60881000   1.46860000   8.59716000
C   -0.69119000   5.86553000   9.53021000
C   -1.97020000   5.12956000   9.98985000
C   -3.22704000   5.87716000   9.48011000
H   -0.67061000   5.88640000   8.41508000
C   -1.96339000   3.67060000   9.46905000
H   -1.99128000   5.11092000   11.10509000
C   -3.23763000   2.94123000   9.92465000
C   -4.49109000   3.67874000   9.42300000
C   -4.50535000   5.14013000   9.94035000
H   -1.94442000   3.67652000   8.35580000
H   -3.20504000   5.89488000   8.36500000
H   -4.52596000   5.12405000   11.05579000
H   -4.47064000   3.68234000   8.30968000
H   -3.25774000   2.87352000   11.03586000
C   -0.70895000   2.92929000   9.96615000
H   -0.72663000   2.85846000   11.07711000
C   -5.76976000   5.88056000   9.43109000
C   -5.76077000   2.94368000   9.87725000
C   -7.02992000   5.12248000   9.89192000
C   -7.01213000   3.67694000   9.38271000
H   -5.75654000   5.89256000   8.31684000
H   -7.09825000   5.12234000   11.00203000
H   -7.03888000   3.66938000   8.27183000
H   -5.79260000   2.87367000   10.98701000
C   4.36428000   -5.92348000   10.00064000
C   6.90279000   -5.93640000   10.05478000
C   5.64739000   -5.18831000   9.54448000
H   6.87978000   -5.95744000   11.16981000
H   6.95515000   -2.97490000   8.49972000
C   6.92799000   -2.99651000   9.61469000
C   5.64283000   -3.73155000   10.06634000
H   5.67214000   -5.16885000   8.42944000
C   4.39049000   -2.98309000   9.55003000
C   3.10336000   -3.71514000   10.00240000
C   3.10827000   -5.17827000   9.48638000
H   3.13562000   -5.16248000   8.37133000
H   4.33921000   -5.94110000   11.11561000
H   5.61534000   -3.75105000   11.18127000
H   4.41909000   -2.96511000   8.43512000
H   3.07621000   -3.73102000   11.11743000
C   4.38842000   -1.52598000   10.07129000
C   6.92466000   -1.54074000   10.14009000
C   5.67577000   -0.79130000   9.62274000
C   3.14166000   -0.77553000   9.55002000
H   4.35666000   -1.54417000   11.18613000
H   6.89497000   -1.56221000   11.25496000
H   3.17567000   -0.75886000   8.43492000
C   1.84614000   -1.50281000   9.99606000
C   1.84733000   -2.96551000   9.48610000
C   1.82072000   -5.91454000   9.94045000
C   0.61818000   -0.73155000   9.47419000
C   0.57819000   -3.71184000   9.93865000
C   0.58326000   -5.15517000   9.42598000
H   0.60468000   -0.73045000   8.36203000
H   1.80447000   -1.51510000   11.10957000
H   1.86739000   -2.95309000   8.37198000
H   0.50237000   -3.71328000   11.04823000
H   0.56219000   -5.15330000   8.31403000
H   1.78595000   -5.92663000   11.05415000
C   0.62588000   0.71360000   9.98475000
C   1.90770000   1.43389000   9.55321000
C   3.14582000   0.68543000   10.06879000
C   4.42981000   1.41011000   9.62970000
C   5.67328000   0.66715000   10.14490000
C   6.95698000   1.39593000   9.70770000
H   0.54442000   0.72112000   11.09295000
H   3.11174000   0.68116000   11.18174000
H   5.63985000   0.66028000   11.25777000
H   1.93129000   1.50464000   8.44330000
H   4.46400000   1.47890000   8.51888000
H   6.99019000   1.46860000   8.59716000
C   6.90781000   5.86553000   9.53021000
C   5.62880000   5.12956000   9.98985000
C   4.37196000   5.87716000   9.48011000
H   6.92839000   5.88640000   8.41508000
C   5.63561000   3.67060000   9.46905000
H   5.60772000   5.11092000   11.10509000
C   4.36137000   2.94123000   9.92465000
C   3.10791000   3.67874000   9.42300000
C   3.09365000   5.14013000   9.94035000
H   5.65458000   3.67652000   8.35580000
H   4.39396000   5.89488000   8.36500000
H   3.07304000   5.12405000   11.05579000
H   3.12836000   3.68234000   8.30968000
H   4.34126000   2.87352000   11.03586000
C   6.89005000   2.92929000   9.96615000
H   6.87237000   2.85846000   11.07711000
C   1.82924000   5.88056000   9.43109000
C   1.83823000   2.94368000   9.87725000
C   0.56908000   5.12248000   9.89192000
C   0.58687000   3.67694000   9.38271000
H   1.84246000   5.89256000   8.31684000
H   0.50075000   5.12234000   11.00203000
H   0.56012000   3.66938000   8.27183000
H   1.80640000   2.87367000   10.98701000
C   11.96328000   -5.92348000   10.00064000
C   14.50179000   -5.93640000   10.05478000
C   13.24639000   -5.18831000   9.54448000
H   14.47878000   -5.95744000   11.16981000
H   14.55415000   -2.97490000   8.49972000
C   14.52699000   -2.99651000   9.61469000
C   13.24183000   -3.73155000   10.06634000
H   13.27114000   -5.16885000   8.42944000
C   11.98949000   -2.98309000   9.55003000
C   10.70236000   -3.71514000   10.00240000
C   10.70727000   -5.17827000   9.48638000
H   10.73462000   -5.16248000   8.37133000
H   11.93821000   -5.94110000   11.11561000
H   13.21434000   -3.75105000   11.18127000
H   12.01809000   -2.96511000   8.43512000
H   10.67521000   -3.73102000   11.11743000
C   11.98742000   -1.52598000   10.07129000
C   14.52366000   -1.54074000   10.14009000
C   13.27477000   -0.79130000   9.62274000
C   10.74066000   -0.77553000   9.55002000
H   11.95566000   -1.54417000   11.18613000
H   14.49397000   -1.56221000   11.25496000
H   10.77467000   -0.75886000   8.43492000
H   13.30610000   -0.77173000   8.50768000
C   9.44514000   -1.50281000   9.99606000
C   9.44633000   -2.96551000   9.48610000
C   9.41972000   -5.91454000   9.94045000
C   8.21718000   -0.73155000   9.47419000
C   8.17719000   -3.71184000   9.93865000
C   8.18226000   -5.15517000   9.42598000
H   8.20368000   -0.73045000   8.36203000
H   9.40347000   -1.51510000   11.10957000
H   9.46639000   -2.95309000   8.37198000
H   8.10137000   -3.71328000   11.04823000
H   8.16119000   -5.15330000   8.31403000
H   9.38495000   -5.92663000   11.05415000
C   8.22488000   0.71360000   9.98475000
C   9.50670000   1.43389000   9.55321000
C   10.74482000   0.68543000   10.06879000
C   12.02881000   1.41011000   9.62970000
C   13.27228000   0.66715000   10.14490000
C   14.55598000   1.39593000   9.70770000
H   8.14342000   0.72112000   11.09295000
H   10.71074000   0.68116000   11.18174000
H   13.23885000   0.66028000   11.25777000
H   9.53029000   1.50464000   8.44330000
H   12.06300000   1.47890000   8.51888000
H   14.58919000   1.46860000   8.59716000
C   14.50681000   5.86553000   9.53021000
C   13.22780000   5.12956000   9.98985000
C   11.97096000   5.87716000   9.48011000
H   14.52739000   5.88640000   8.41508000
C   13.23461000   3.67060000   9.46905000
H   13.20672000   5.11092000   11.10509000
C   11.96037000   2.94123000   9.92465000
C   10.70691000   3.67874000   9.42300000
C   10.69265000   5.14013000   9.94035000
H   13.25358000   3.67652000   8.35580000
H   11.99296000   5.89488000   8.36500000
H   10.67204000   5.12405000   11.05579000
H   10.72736000   3.68234000   8.30968000
H   11.94026000   2.87352000   11.03586000
C   14.48905000   2.92929000   9.96615000
H   14.47137000   2.85846000   11.07711000
C   9.42824000   5.88056000   9.43109000
C   9.43723000   2.94368000   9.87725000
C   8.16808000   5.12248000   9.89192000
C   8.18587000   3.67694000   9.38271000
H   9.44146000   5.89256000   8.31684000
H   8.09975000   5.12234000   11.00203000
H   8.15912000   3.66938000   8.27183000
H   9.40540000   2.87367000   10.98701000
N   -4.06763884   0.10432459   5.40191179
C   -4.73953862   0.25944620   6.88087352
H   -4.35038393   1.27417476   7.13925404
H   -5.73203063   0.31630279   6.67430853
C   -4.47685610   -0.84717223   7.85359127
H   -4.92901363   -1.78762600   7.53449866
H   -3.35313635   -1.02862112   7.68003267
C   -4.31809464   -1.25838174   4.79794038
H   -3.87624096   -1.26887691   3.82964586
H   -3.85862387   -2.09862797   5.36550600
H   -5.40256612   -1.45791626   4.76949403
C   -2.48164325   0.32997791   5.45313622
H   -2.06526207   0.40811124   4.38909579
H   -2.43691510   1.30046315   5.90215501
H   -2.02884864   -0.57112564   5.91193499
C   -4.56102956   1.21478670   4.53657722
H   -4.30367334   1.00892953   3.55071992
H   -5.62812163   1.32804181   4.54244401
H   -4.08325268   2.18085071   4.75412128
N   4.10964199   -3.08668275   1.50448242
C   3.96791926   -1.93872666   2.71910050
H   3.37693047   -1.19627087   2.16223420
H   3.23247634   -2.44168393   3.42392723
C   5.17646373   -1.52663902   3.49284284
H   5.96051022   -2.37262973   3.60117486
H   5.80230122   -0.77026744   2.92980087
C   5.83681984   -0.81897324   7.88384318
H   4.80408220   -1.04330444   7.56753486
H   6.42817586   -1.74058056   7.60508131
C   6.33532104   0.24091075   6.90143015
H   5.67208169   1.13958587   7.01599424
H   7.28610260   0.66479884   7.05491290
C   6.28470006   -0.38360830   5.49958684
H   6.91299819   -1.27149064   5.51975711
H   6.60869765   0.41258840   4.77424301
C   4.95786113   -0.83178839   4.88757662
H   4.37681520   -1.44374138   5.58888585
H   4.32627586   0.04537824   4.64966655
C   5.13456284   -2.72997543   0.51816659
H   6.14521030   -2.62555988   0.90948517
H   4.89002250   -1.78226792   0.01416084
H   5.23893271   -3.51688405   -0.33050785
C   2.84187244   -3.25192473   0.85527807
H   2.72675699   -4.20047186   0.35538852
H   2.75309190   -2.57257955   0.03019035
H   1.98846796   -3.16155962   1.60867231
C   4.53575828   -4.30107591   2.15285931
H   3.73401781   -4.49308545   2.88283977
H   5.47324931   -4.10595366   2.71502235
H   4.80318838   -5.09081523   1.38538611
O   3.89948019   0.47361171   -6.30134663
H   4.16859236   0.84049248   -7.16204076
H   -6.38127791   3.62264956   5.27537617
O   -4.74337141   2.56612999   -3.65426968
H   -3.99469834   3.16609641   -3.52388490
H   -4.49295428   1.90913816   -4.28965080
O   11.73251404   -12.63464024   0.80362918
H   11.31811553   -12.52464706   -0.05192608
H   11.91878318   -13.57474020   0.95519503
O   -16.02730878   2.02662420   5.64002596
H   -16.93860628   2.33397556   5.49812677
H   -15.82967164   1.32349921   4.98446503
O   -6.80445840   7.81819145   -1.32563842
H   -7.12107877   8.71546480   -1.15885824
H   -5.98106094   7.84878467   -0.76983161
O   -11.05114295   -7.57902912   3.31214954
H   -11.88888723   -7.93335350   3.58743175
H   -10.48063091   -8.36907432   3.10657981
O   -4.39637929   8.95289355   -0.18019242
H   -4.11284145   9.85250423   -0.07682812
H   -3.66385470   8.32163438   -0.01563677
O   -8.40574784   9.81704434   -0.42800508
H   -8.40946224   10.75826552   -0.54575362
H   -9.26820752   9.49323432   -0.78650350
O   -14.41065072   6.99393453   0.21683736
H   -13.97780514   6.35525869   -0.36871940
H   -15.28588080   6.63168153   0.29229710
O   21.17124858   1.95585330   0.50839302
H   21.72192564   2.08449307   -0.30260227
H   20.28080248   2.30970971   0.39137509
O   -1.46363632   -3.70673416   0.62809545
H   -2.16246440   -3.10443328   0.82095034
H   -1.80154890   -4.64918800   0.68193315
O   1.17785572   -6.75923583   -3.04049269
H   0.81136039   -6.16506937   -2.39080215
H   2.00891967   -6.32713519   -3.25490326
O   -0.76479739   2.67810206   3.29481302
H   -0.06217355   2.85057000   2.63218788
H   -0.87700245   1.68821103   3.27420411
O   -0.30075762   0.13759812   3.30858102
H   3.07396956   -0.07815666   -6.44031647
H   0.15401464   0.42314736   4.14949076
O   5.61519045   10.00356438   -3.81000326
H   5.21101723   9.98077540   -4.71898748
H   5.33204959   9.11257957   -3.44070981
O   -7.39907406   8.74534371   4.86712632
H   -8.32901278   8.61142645   5.01823166
H   -7.39032099   9.12811853   3.98058984
O   2.52103208   1.19825441   3.68316039
H   2.66383945   0.95320705   4.59716541
H   1.59190344   1.09381079   3.36183109
O   -1.44158911   -7.57802191   3.07677169
H   -2.20489486   -7.99513416   3.54354086
H   -1.07613820   -8.18911490   2.40590744
O   -2.69375746   -0.84253171   2.09808045
H   -2.54790866   -0.79307221   1.12442842
H   -1.77908086   -0.59706777   2.49415936
O   -1.06036963   -1.13232716   -0.64343739
H   -0.80940797   -2.10688627   -0.49607746
H   -0.22667208   -0.63795519   -0.69594978
O   -7.09349978   -4.66475291   -4.66531101
H   -6.45478142   -4.18354027   -4.10805935
H   -6.54340722   -5.34986782   -4.99830973
O   3.56089639   5.10131511   -6.54462071
H   3.41444113   4.10919086   -6.47327202
H   3.20234769   5.48694256   -5.75045165
O   3.87367220   4.44943296   -2.40688370
H   4.37925280   5.12815533   -2.86657748
H   3.88113128   3.71518283   -3.05627297
O   -6.17393649   -1.00918030   -0.24737241
H   -6.59114431   -0.22237337   0.09697901
H   -5.57569293   -0.79452408   -1.01107055
O   4.88562178   1.82278059   -0.82239865
H   5.35632439   1.02114746   -1.07080699
H   4.54346716   1.72591465   0.06192778
O   9.90247629   -6.37673292   -2.04594085
H   9.55906396   -5.79216697   -2.71047678
H   9.05765190   -6.98885813   -1.94615100
O   6.89889820   6.87890086   2.68778835
H   7.58265340   6.29640202   3.04860541
H   7.24113447   7.30597469   1.88111331
O   13.19838734   9.88803008   -2.04901928
H   12.47707266   9.37449939   -2.46253057
H   13.98338116   9.31974688   -2.19430393
O   6.15868102   4.39369301   -4.39417571
H   5.31470110   4.79319739   -4.55414655
H   6.77653217   4.67777792   -5.03994581
O   15.64046103   4.01063489   -1.10160148
H   15.67403091   3.54278916   -1.95830545
H   14.74058255   4.24513249   -0.95778781
O   7.94704898   -5.72604385   -4.25685479
H   7.74783054   -4.80841038   -4.40192706
H   7.42873918   -5.84992835   -3.44134876
O   15.64855859   0.55830282   2.96743665
H   14.84118815   0.03656817   2.72982695
H   15.97022508   0.93374526   2.15655641
O   7.43631628   -3.59822859   -1.30364946
H   7.59770567   -4.54579436   -1.50700848
H   6.74160065   -3.32811985   -1.91792142
O   12.85569305   -5.05969559   1.31632738
H   13.70774047   -4.99101896   1.81909026
H   12.17957035   -5.48911083   1.84561033
O   -13.40100084   10.59157981   -2.44649513
H   -12.51802627   10.26625057   -2.36059953
H   -13.99118736   9.85369366   -2.55732764
O   17.76736541   -0.10012436   -2.16752100
H   17.11430087   -0.79885083   -2.31008586
H   17.35613355   0.68189265   -2.41035813
O   17.16972950   3.54336806   2.50091488
H   16.95571010   4.16724743   1.77543701
H   17.80931433   2.91824256   2.12663595
O   -11.21835501   5.03008937   0.26209606
H   -10.39808030   5.54860153   0.35402798
H   -11.30651300   4.76133120   -0.65868177
O   -1.10924388   -18.95876139   -5.96517826
H   -1.31006664   -18.27085062   -6.58177383
H   -0.89049531   -19.72757482   -6.55310658
O   0.11137416   -2.44490783   3.28696049
H   -0.72415627   -2.66871342   2.88767436
H   0.01354751   -1.47269933   3.37227555
O   -7.06727749   2.93880032   2.11045003
H   -7.79542157   2.49264638   1.64277209
H   -6.63132560   3.43099943   1.40694362
O   1.08683716   1.00350587   0.98002638
H   1.55151557   1.89230356   0.99875704
H   0.73399594   0.68120631   1.86231581
O   0.45319211   -4.92568780   4.95355154
H   0.51364244   7.74674728   4.30944213
H   0.65617695   -4.10163406   4.43371761
O   2.02341624   2.13522154   -2.19601847
H   2.69295678   2.33977759   -1.57565193
H   1.20813861   2.61986284   -2.01934044
O   -3.49428855   3.86497003   2.54420875
H   -2.68128693   3.44717503   2.90431992
H   -3.88752061   3.16775530   1.97705415
O   8.22504285   7.43860493   0.32886370
H   7.69747432   7.39036147   -0.52440590
H   9.00746688   7.93225275   -0.03029453
O   11.15904906   4.26597145   -3.29915467
H   10.79594657   3.67119318   -3.97209345
H   10.63821136   5.05670887   -3.20878801
O   3.34721652   -0.22562043   0.15014039
H   2.53495475   0.00693978   0.70465133
H   3.22321442   0.22711174   -0.66099183
O   -2.25753424   -6.42827949   0.59990427
H   -2.33815087   -6.78050291   1.47991872
H   -1.49331568   -6.91041073   0.17127343
O   -7.02966806   -2.45503311   1.96279270
H   -6.19114899   -2.16184992   1.58420299
H   -7.66310602   -2.47787203   1.22379328
O   -15.72253072   1.12628063   0.36807722
H   -16.45164574   1.57667269   0.85308588
H   -15.00648479   1.83589675   0.22839035
O   -10.67541200   -1.89168802   -0.95074856
H   -11.03118950   -1.63057523   -1.80883782
H   -11.40127220   -1.87550316   -0.34944390
O   -15.23603076   1.54615621   -2.54961818
H   -15.43691681   1.15151345   -1.72263065
H   -16.03848740   1.85067534   -2.91887952
O   -2.39331257   1.77667733   0.90179995
H   -2.79759664   0.98102492   1.32513867
H   -1.56326915   1.88029472   1.43323612
O   -2.92593775   3.68526247   5.49414350
H   -3.68864744   4.33405422   5.34366410
H   -2.11660770   4.18157856   5.39326926
O   18.32042846   1.36920483   0.72842209
H   18.46986799   -12.05792540   -0.23346354
H   17.98637836   0.49970062   0.96947280
O   -0.41100924   -8.25506390   -0.64612802
H   0.46437108   -8.21387261   -1.04581500
H   -0.93592968   -8.19859717   -1.45745983
O   12.76719009   2.97838805   -1.37840059
H   12.19408301   3.35388769   -2.10535515
H   12.18849224   -10.97962790   -0.86682685
O   5.28906261   4.13085552   1.33472476
H   5.48449024   5.05500990   1.55877376
H   6.05926864   3.91621574   0.78295480
O   4.91635251   -6.56673208   0.06169529
H   4.52975721   -7.28971582   -0.43239392
H   5.72480182   -6.45743726   -0.44268689
O   2.70555324   -10.15581564   0.53402116
H   3.25201364   -9.77930054   -0.16181453
H   3.32770935   -10.17308671   1.28203611
O   6.82001251   -6.25036572   -1.98597602
H   -2.61419703   -16.70310598   -3.70829704
H   7.01632332   -7.18201576   -2.27569163
O   -5.02840131   7.61640784   5.72310346
H   -4.57788343   7.96809876   4.97337868
H   -5.95414943   7.86425922   5.54079808
O   2.14126085   -5.94425717   -0.83220236
H   3.07443099   -5.65360077   -0.89700903
H   2.22123643   -6.90222938   -0.82350457
O   -10.07775733   7.53665411   5.47795683
H   -10.24030975   6.67678152   5.01798764
H   -10.07801786   7.40427646   6.46196253
O   -27.78345933   -10.30202637   -4.78679404
H   -27.22470728   -11.01104147   -5.10315680
H   -27.96167277   -10.54913864   -3.84078353
O   -28.63933220   -1.27885424   -6.13424716
H   -29.00337466   -0.81627767   -5.38723315
H   -29.21999440   -2.04926076   -6.23236772
O   8.75201096   -8.29207978   -5.37827486
H   9.32810753   -8.05345835   -6.12463901
H   8.17374509   -7.55767269   -5.12908424
O   -19.82244785   -3.26066534   1.01691152
H   -20.26712819   -3.63339978   0.25328325
H   -18.96994485   -3.72840833   1.00054560
O   -26.06115288   7.38336248   -2.97638189
H   -26.00681217   6.96298257   -3.85783515
H   -25.09296184   7.29269396   -2.52276676
O   -10.37215781   7.65417208   -0.67653386
H   -9.53270204   7.48796214   -0.24347462
H   -11.18316527   7.37854856   -0.20028580
O   0.18288559   -1.86425924   5.99128962
H   1.07404116   11.79738781   5.66996577
H   -0.37037294   -2.16463088   5.27730972
O   21.95895565   5.36823482   -1.03540430
H   22.69863514   5.90558089   -0.65011504
H   21.81516316   5.67587267   -1.93596404
O   -15.25754986   6.67025218   2.60282776
H   -14.77378371   7.31734155   2.05150415
H   -14.64962085   5.93572171   2.66081068
O   -6.24231298   3.80709130   6.24250407
H   -6.09918371   4.74071026   6.31754445
O   -2.38248679   -16.81373959   -4.57605638
H   -2.04953840   -17.73569534   -4.64789797