850

C   -10.83372000   -5.92348000   -9.99936000
C   -8.29521000   -5.93640000   -9.94522000
C   -9.55061000   -5.18831000   -10.45552000
H   -8.31822000   -5.95744000   -8.83019000
H   -8.24285000   -2.97490000   -11.50028000
C   -8.27001000   -2.99651000   -10.38531000
C   -9.55517000   -3.73155000   -9.93366000
H   -9.52586000   -5.16885000   -11.57056000
C   -10.80751000   -2.98309000   -10.44997000
C   -12.09464000   -3.71514000   -9.99760000
C   -12.08973000   -5.17827000   -10.51362000
H   -12.06238000   -5.16248000   -11.62867000
H   -10.85879000   -5.94110000   -8.88439000
H   -9.58266000   -3.75105000   -8.81873000
H   -10.77891000   -2.96511000   -11.56488000
H   -12.12179000   -3.73102000   -8.88257000
C   -10.80958000   -1.52598000   -9.92871000
C   -8.27334000   -1.54074000   -9.85991000
C   -9.52223000   -0.79130000   -10.37726000
C   -12.05634000   -0.77553000   -10.44998000
H   -10.84134000   -1.54417000   -8.81387000
H   -8.30303000   -1.56221000   -8.74504000
H   -12.02233000   -0.75886000   -11.56508000
H   -9.49090000   -0.77173000   -11.49232000
C   -13.35186000   -1.50281000   -10.00394000
C   -13.35067000   -2.96551000   -10.51390000
C   -13.37728000   -5.91454000   -10.05955000
C   -14.57982000   -0.73155000   -10.52581000
C   -14.61981000   -3.71184000   -10.06135000
C   -14.61474000   -5.15517000   -10.57402000
H   -14.59332000   -0.73045000   -11.63797000
H   -13.39353000   -1.51510000   -8.89043000
H   -13.33061000   -2.95309000   -11.62802000
H   -14.69563000   -3.71328000   -8.95177000
H   -14.63581000   -5.15330000   -11.68597000
H   -13.41205000   -5.92663000   -8.94585000
C   -14.57212000   0.71360000   -10.01525000
C   -13.29030000   1.43389000   -10.44679000
C   -12.05218000   0.68543000   -9.93121000
C   -10.76819000   1.41011000   -10.37030000
C   -9.52472000   0.66715000   -9.85510000
C   -8.24102000   1.39593000   -10.29230000
H   -14.65358000   0.72112000   -8.90705000
H   -12.08626000   0.68116000   -8.81826000
H   -9.55815000   0.66028000   -8.74223000
H   -13.26671000   1.50464000   -11.55670000
H   -10.73400000   1.47890000   -11.48112000
H   -8.20781000   1.46860000   -11.40284000
C   -8.29019000   5.86553000   -10.46979000
C   -9.56920000   5.12956000   -10.01015000
C   -10.82604000   5.87716000   -10.51989000
H   -8.26961000   5.88640000   -11.58492000
C   -9.56239000   3.67060000   -10.53095000
H   -9.59028000   5.11092000   -8.89491000
C   -10.83663000   2.94123000   -10.07535000
C   -12.09009000   3.67874000   -10.57700000
C   -12.10435000   5.14013000   -10.05965000
H   -9.54342000   3.67652000   -11.64420000
H   -10.80404000   5.89488000   -11.63500000
H   -12.12496000   5.12405000   -8.94421000
H   -12.06964000   3.68234000   -11.69032000
H   -10.85674000   2.87352000   -8.96414000
C   -8.30795000   2.92929000   -10.03385000
H   -8.32563000   2.85846000   -8.92289000
C   -13.36876000   5.88056000   -10.56891000
C   -13.35977000   2.94368000   -10.12275000
C   -14.62892000   5.12248000   -10.10808000
C   -14.61113000   3.67694000   -10.61729000
H   -13.35554000   5.89256000   -11.68316000
H   -14.69725000   5.12234000   -8.99797000
H   -14.63788000   3.66938000   -11.72817000
H   -13.39160000   2.87367000   -9.01299000
C   -3.23472000   -5.92348000   -9.99936000
C   -0.69621000   -5.93640000   -9.94522000
C   -1.95161000   -5.18831000   -10.45552000
H   -0.71922000   -5.95744000   -8.83019000
H   -0.64385000   -2.97490000   -11.50028000
C   -0.67101000   -2.99651000   -10.38531000
C   -1.95617000   -3.73155000   -9.93366000
H   -1.92686000   -5.16885000   -11.57056000
C   -3.20851000   -2.98309000   -10.44997000
C   -4.49564000   -3.71514000   -9.99760000
C   -4.49073000   -5.17827000   -10.51362000
H   -4.46338000   -5.16248000   -11.62867000
H   -3.25979000   -5.94110000   -8.88439000
H   -1.98366000   -3.75105000   -8.81873000
H   -3.17991000   -2.96511000   -11.56488000
H   -4.52279000   -3.73102000   -8.88257000
C   -3.21058000   -1.52598000   -9.92871000
C   -0.67434000   -1.54074000   -9.85991000
C   -1.92323000   -0.79130000   -10.37726000
C   -4.45734000   -0.77553000   -10.44998000
H   -3.24234000   -1.54417000   -8.81387000
H   -0.70403000   -1.56221000   -8.74504000
H   -4.42333000   -0.75886000   -11.56508000
H   -1.89190000   -0.77173000   -11.49232000
C   -5.75286000   -1.50281000   -10.00394000
C   -5.75167000   -2.96551000   -10.51390000
C   -5.77828000   -5.91454000   -10.05955000
C   -6.98082000   -0.73155000   -10.52581000
C   -7.02081000   -3.71184000   -10.06135000
C   -7.01574000   -5.15517000   -10.57402000
H   -6.99432000   -0.73045000   -11.63797000
H   -5.79453000   -1.51510000   -8.89043000
H   -5.73161000   -2.95309000   -11.62802000
H   -7.09663000   -3.71328000   -8.95177000
H   -7.03681000   -5.15330000   -11.68597000
H   -5.81305000   -5.92663000   -8.94585000
C   -6.97312000   0.71360000   -10.01525000
C   -5.69130000   1.43389000   -10.44679000
C   -4.45318000   0.68543000   -9.93121000
C   -3.16919000   1.41011000   -10.37030000
C   -1.92572000   0.66715000   -9.85510000
C   -0.64202000   1.39593000   -10.29230000
H   -7.05458000   0.72112000   -8.90705000
H   -4.48726000   0.68116000   -8.81826000
H   -1.95915000   0.66028000   -8.74223000
H   -5.66771000   1.50464000   -11.55670000
H   -3.13500000   1.47890000   -11.48112000
H   -0.60881000   1.46860000   -11.40284000
C   -0.69119000   5.86553000   -10.46979000
C   -1.97020000   5.12956000   -10.01015000
C   -3.22704000   5.87716000   -10.51989000
H   -0.67061000   5.88640000   -11.58492000
C   -1.96339000   3.67060000   -10.53095000
H   -1.99128000   5.11092000   -8.89491000
C   -3.23763000   2.94123000   -10.07535000
C   -4.49109000   3.67874000   -10.57700000
C   -4.50535000   5.14013000   -10.05965000
H   -1.94442000   3.67652000   -11.64420000
H   -3.20504000   5.89488000   -11.63500000
H   -4.52596000   5.12405000   -8.94421000
H   -4.47064000   3.68234000   -11.69032000
H   -3.25774000   2.87352000   -8.96414000
C   -0.70895000   2.92929000   -10.03385000
H   -0.72663000   2.85846000   -8.92289000
C   -5.76976000   5.88056000   -10.56891000
C   -5.76077000   2.94368000   -10.12275000
C   -7.02992000   5.12248000   -10.10808000
C   -7.01213000   3.67694000   -10.61729000
H   -5.75654000   5.89256000   -11.68316000
H   -7.09825000   5.12234000   -8.99797000
H   -7.03888000   3.66938000   -11.72817000
H   -5.79260000   2.87367000   -9.01299000
C   4.36428000   -5.92348000   -9.99936000
C   6.90279000   -5.93640000   -9.94522000
C   5.64739000   -5.18831000   -10.45552000
H   6.87978000   -5.95744000   -8.83019000
H   6.95515000   -2.97490000   -11.50028000
C   6.92799000   -2.99651000   -10.38531000
C   5.64283000   -3.73155000   -9.93366000
H   5.67214000   -5.16885000   -11.57056000
C   4.39049000   -2.98309000   -10.44997000
C   3.10336000   -3.71514000   -9.99760000
C   3.10827000   -5.17827000   -10.51362000
H   3.13562000   -5.16248000   -11.62867000
H   4.33921000   -5.94110000   -8.88439000
H   5.61534000   -3.75105000   -8.81873000
H   4.41909000   -2.96511000   -11.56488000
H   3.07621000   -3.73102000   -8.88257000
C   4.38842000   -1.52598000   -9.92871000
C   6.92466000   -1.54074000   -9.85991000
C   5.67577000   -0.79130000   -10.37726000
C   3.14166000   -0.77553000   -10.44998000
H   4.35666000   -1.54417000   -8.81387000
H   6.89497000   -1.56221000   -8.74504000
H   3.17567000   -0.75886000   -11.56508000
H   5.70710000   -0.77173000   -11.49232000
C   1.84614000   -1.50281000   -10.00394000
C   1.84733000   -2.96551000   -10.51390000
C   1.82072000   -5.91454000   -10.05955000
C   0.61818000   -0.73155000   -10.52581000
C   0.57819000   -3.71184000   -10.06135000
C   0.58326000   -5.15517000   -10.57402000
H   0.60468000   -0.73045000   -11.63797000
H   1.80447000   -1.51510000   -8.89043000
H   1.86739000   -2.95309000   -11.62802000
H   0.50237000   -3.71328000   -8.95177000
H   0.56219000   -5.15330000   -11.68597000
H   1.78595000   -5.92663000   -8.94585000
C   0.62588000   0.71360000   -10.01525000
C   1.90770000   1.43389000   -10.44679000
C   3.14582000   0.68543000   -9.93121000
C   4.42981000   1.41011000   -10.37030000
C   5.67328000   0.66715000   -9.85510000
C   6.95698000   1.39593000   -10.29230000
H   0.54442000   0.72112000   -8.90705000
H   3.11174000   0.68116000   -8.81826000
H   5.63985000   0.66028000   -8.74223000
H   1.93129000   1.50464000   -11.55670000
H   4.46400000   1.47890000   -11.48112000
H   6.99019000   1.46860000   -11.40284000
C   6.90781000   5.86553000   -10.46979000
C   5.62880000   5.12956000   -10.01015000
C   4.37196000   5.87716000   -10.51989000
H   6.92839000   5.88640000   -11.58492000
C   5.63561000   3.67060000   -10.53095000
H   5.60772000   5.11092000   -8.89491000
C   4.36137000   2.94123000   -10.07535000
C   3.10791000   3.67874000   -10.57700000
C   3.09365000   5.14013000   -10.05965000
H   5.65458000   3.67652000   -11.64420000
H   4.39396000   5.89488000   -11.63500000
H   3.07304000   5.12405000   -8.94421000
H   3.12836000   3.68234000   -11.69032000
H   4.34126000   2.87352000   -8.96414000
C   6.89005000   2.92929000   -10.03385000
H   6.87237000   2.85846000   -8.92289000
C   1.82924000   5.88056000   -10.56891000
C   1.83823000   2.94368000   -10.12275000
C   0.56908000   5.12248000   -10.10808000
C   0.58687000   3.67694000   -10.61729000
H   1.84246000   5.89256000   -11.68316000
H   0.50075000   5.12234000   -8.99797000
H   0.56012000   3.66938000   -11.72817000
H   1.80640000   2.87367000   -9.01299000
C   11.96328000   -5.92348000   -9.99936000
C   14.50179000   -5.93640000   -9.94522000
C   13.24639000   -5.18831000   -10.45552000
H   14.47878000   -5.95744000   -8.83019000
H   14.55415000   -2.97490000   -11.50028000
C   14.52699000   -2.99651000   -10.38531000
C   13.24183000   -3.73155000   -9.93366000
H   13.27114000   -5.16885000   -11.57056000
C   11.98949000   -2.98309000   -10.44997000
C   10.70236000   -3.71514000   -9.99760000
C   10.70727000   -5.17827000   -10.51362000
H   10.73462000   -5.16248000   -11.62867000
H   11.93821000   -5.94110000   -8.88439000
H   13.21434000   -3.75105000   -8.81873000
H   12.01809000   -2.96511000   -11.56488000
H   10.67521000   -3.73102000   -8.88257000
C   11.98742000   -1.52598000   -9.92871000
C   14.52366000   -1.54074000   -9.85991000
C   13.27477000   -0.79130000   -10.37726000
C   10.74066000   -0.77553000   -10.44998000
H   11.95566000   -1.54417000   -8.81387000
H   14.49397000   -1.56221000   -8.74504000
H   10.77467000   -0.75886000   -11.56508000
H   13.30610000   -0.77173000   -11.49232000
C   9.44514000   -1.50281000   -10.00394000
C   9.44633000   -2.96551000   -10.51390000
C   9.41972000   -5.91454000   -10.05955000
C   8.21718000   -0.73155000   -10.52581000
C   8.17719000   -3.71184000   -10.06135000
C   8.18226000   -5.15517000   -10.57402000
H   8.20368000   -0.73045000   -11.63797000
H   9.40347000   -1.51510000   -8.89043000
H   9.46639000   -2.95309000   -11.62802000
H   8.10137000   -3.71328000   -8.95177000
H   8.16119000   -5.15330000   -11.68597000
H   9.38495000   -5.92663000   -8.94585000
C   8.22488000   0.71360000   -10.01525000
C   9.50670000   1.43389000   -10.44679000
C   10.74482000   0.68543000   -9.93121000
C   12.02881000   1.41011000   -10.37030000
C   13.27228000   0.66715000   -9.85510000
C   14.55598000   1.39593000   -10.29230000
H   8.14342000   0.72112000   -8.90705000
H   10.71074000   0.68116000   -8.81826000
H   13.23885000   0.66028000   -8.74223000
H   9.53029000   1.50464000   -11.55670000
H   12.06300000   1.47890000   -11.48112000
H   14.58919000   1.46860000   -11.40284000
C   14.50681000   5.86553000   -10.46979000
C   13.22780000   5.12956000   -10.01015000
C   11.97096000   5.87716000   -10.51989000
H   14.52739000   5.88640000   -11.58492000
C   13.23461000   3.67060000   -10.53095000
H   13.20672000   5.11092000   -8.89491000
C   11.96037000   2.94123000   -10.07535000
C   10.70691000   3.67874000   -10.57700000
C   10.69265000   5.14013000   -10.05965000
H   13.25358000   3.67652000   -11.64420000
H   11.99296000   5.89488000   -11.63500000
H   10.67204000   5.12405000   -8.94421000
H   10.72736000   3.68234000   -11.69032000
H   11.94026000   2.87352000   -8.96414000
C   14.48905000   2.92929000   -10.03385000
H   14.47137000   2.85846000   -8.92289000
C   9.42824000   5.88056000   -10.56891000
C   9.43723000   2.94368000   -10.12275000
C   8.16808000   5.12248000   -10.10808000
C   8.18587000   3.67694000   -10.61729000
H   9.44146000   5.89256000   -11.68316000
H   8.09975000   5.12234000   -8.99797000
H   8.15912000   3.66938000   -11.72817000
H   9.40540000   2.87367000   -9.01299000
C   -10.83372000   -5.92348000   10.00064000
C   -8.29521000   -5.93640000   10.05478000
C   -9.55061000   -5.18831000   9.54448000
H   -8.31822000   -5.95744000   11.16981000
H   -8.24285000   -2.97490000   8.49972000
C   -8.27001000   -2.99651000   9.61469000
C   -9.55517000   -3.73155000   10.06634000
H   -9.52586000   -5.16885000   8.42944000
C   -10.80751000   -2.98309000   9.55003000
C   -12.09464000   -3.71514000   10.00240000
C   -12.08973000   -5.17827000   9.48638000
H   -12.06238000   -5.16248000   8.37133000
H   -10.85879000   -5.94110000   11.11561000
H   -9.58266000   -3.75105000   11.18127000
H   -10.77891000   -2.96511000   8.43512000
H   -12.12179000   -3.73102000   11.11743000
C   -10.80958000   -1.52598000   10.07129000
C   -8.27334000   -1.54074000   10.14009000
C   -9.52223000   -0.79130000   9.62274000
C   -12.05634000   -0.77553000   9.55002000
H   -10.84134000   -1.54417000   11.18613000
H   -8.30303000   -1.56221000   11.25496000
H   -12.02233000   -0.75886000   8.43492000
H   -9.49090000   -0.77173000   8.50768000
C   -13.35186000   -1.50281000   9.99606000
C   -13.35067000   -2.96551000   9.48610000
C   -13.37728000   -5.91454000   9.94045000
C   -14.57982000   -0.73155000   9.47419000
C   -14.61981000   -3.71184000   9.93865000
C   -14.61474000   -5.15517000   9.42598000
H   -14.59332000   -0.73045000   8.36203000
H   -13.39353000   -1.51510000   11.10957000
H   -13.33061000   -2.95309000   8.37198000
H   -14.69563000   -3.71328000   11.04823000
H   -14.63581000   -5.15330000   8.31403000
H   -13.41205000   -5.92663000   11.05415000
C   -14.57212000   0.71360000   9.98475000
C   -13.29030000   1.43389000   9.55321000
C   -12.05218000   0.68543000   10.06879000
C   -10.76819000   1.41011000   9.62970000
C   -9.52472000   0.66715000   10.14490000
C   -8.24102000   1.39593000   9.70770000
H   -14.65358000   0.72112000   11.09295000
H   -12.08626000   0.68116000   11.18174000
H   -9.55815000   0.66028000   11.25777000
H   -13.26671000   1.50464000   8.44330000
H   -10.73400000   1.47890000   8.51888000
H   -8.20781000   1.46860000   8.59716000
C   -8.29019000   5.86553000   9.53021000
C   -9.56920000   5.12956000   9.98985000
C   -10.82604000   5.87716000   9.48011000
H   -8.26961000   5.88640000   8.41508000
C   -9.56239000   3.67060000   9.46905000
H   -9.59028000   5.11092000   11.10509000
C   -10.83663000   2.94123000   9.92465000
C   -12.09009000   3.67874000   9.42300000
C   -12.10435000   5.14013000   9.94035000
H   -9.54342000   3.67652000   8.35580000
H   -10.80404000   5.89488000   8.36500000
H   -12.12496000   5.12405000   11.05579000
H   -12.06964000   3.68234000   8.30968000
H   -10.85674000   2.87352000   11.03586000
C   -8.30795000   2.92929000   9.96615000
H   -8.32563000   2.85846000   11.07711000
C   -13.36876000   5.88056000   9.43109000
C   -13.35977000   2.94368000   9.87725000
C   -14.62892000   5.12248000   9.89192000
C   -14.61113000   3.67694000   9.38271000
H   -13.35554000   5.89256000   8.31684000
H   -14.69725000   5.12234000   11.00203000
H   -14.63788000   3.66938000   8.27183000
H   -13.39160000   2.87367000   10.98701000
C   -3.23472000   -5.92348000   10.00064000
C   -0.69621000   -5.93640000   10.05478000
C   -1.95161000   -5.18831000   9.54448000
H   -0.71922000   -5.95744000   11.16981000
H   -0.64385000   -2.97490000   8.49972000
C   -0.67101000   -2.99651000   9.61469000
C   -1.95617000   -3.73155000   10.06634000
H   -1.92686000   -5.16885000   8.42944000
C   -3.20851000   -2.98309000   9.55003000
C   -4.49564000   -3.71514000   10.00240000
C   -4.49073000   -5.17827000   9.48638000
H   -4.46338000   -5.16248000   8.37133000
H   -3.25979000   -5.94110000   11.11561000
H   -1.98366000   -3.75105000   11.18127000
H   -3.17991000   -2.96511000   8.43512000
H   -4.52279000   -3.73102000   11.11743000
C   -3.21058000   -1.52598000   10.07129000
C   -0.67434000   -1.54074000   10.14009000
C   -1.92323000   -0.79130000   9.62274000
C   -4.45734000   -0.77553000   9.55002000
H   -3.24234000   -1.54417000   11.18613000
H   -0.70403000   -1.56221000   11.25496000
H   -1.89190000   -0.77173000   8.50768000
C   -5.75286000   -1.50281000   9.99606000
C   -5.75167000   -2.96551000   9.48610000
C   -5.77828000   -5.91454000   9.94045000
C   -6.98082000   -0.73155000   9.47419000
C   -7.02081000   -3.71184000   9.93865000
C   -7.01574000   -5.15517000   9.42598000
H   -6.99432000   -0.73045000   8.36203000
H   -5.79453000   -1.51510000   11.10957000
H   -5.73161000   -2.95309000   8.37198000
H   -7.09663000   -3.71328000   11.04823000
H   -7.03681000   -5.15330000   8.31403000
H   -5.81305000   -5.92663000   11.05415000
C   -6.97312000   0.71360000   9.98475000
C   -5.69130000   1.43389000   9.55321000
C   -4.45318000   0.68543000   10.06879000
C   -3.16919000   1.41011000   9.62970000
C   -1.92572000   0.66715000   10.14490000
C   -0.64202000   1.39593000   9.70770000
H   -7.05458000   0.72112000   11.09295000
H   -4.48726000   0.68116000   11.18174000
H   -1.95915000   0.66028000   11.25777000
H   -5.66771000   1.50464000   8.44330000
H   -3.13500000   1.47890000   8.51888000
H   -0.60881000   1.46860000   8.59716000
C   -0.69119000   5.86553000   9.53021000
C   -1.97020000   5.12956000   9.98985000
C   -3.22704000   5.87716000   9.48011000
H   -0.67061000   5.88640000   8.41508000
C   -1.96339000   3.67060000   9.46905000
H   -1.99128000   5.11092000   11.10509000
C   -3.23763000   2.94123000   9.92465000
C   -4.49109000   3.67874000   9.42300000
C   -4.50535000   5.14013000   9.94035000
H   -1.94442000   3.67652000   8.35580000
H   -3.20504000   5.89488000   8.36500000
H   -4.52596000   5.12405000   11.05579000
H   -4.47064000   3.68234000   8.30968000
H   -3.25774000   2.87352000   11.03586000
C   -0.70895000   2.92929000   9.96615000
H   -0.72663000   2.85846000   11.07711000
C   -5.76976000   5.88056000   9.43109000
C   -5.76077000   2.94368000   9.87725000
C   -7.02992000   5.12248000   9.89192000
C   -7.01213000   3.67694000   9.38271000
H   -5.75654000   5.89256000   8.31684000
H   -7.09825000   5.12234000   11.00203000
H   -7.03888000   3.66938000   8.27183000
H   -5.79260000   2.87367000   10.98701000
C   4.36428000   -5.92348000   10.00064000
C   6.90279000   -5.93640000   10.05478000
C   5.64739000   -5.18831000   9.54448000
H   6.87978000   -5.95744000   11.16981000
H   6.95515000   -2.97490000   8.49972000
C   6.92799000   -2.99651000   9.61469000
C   5.64283000   -3.73155000   10.06634000
H   5.67214000   -5.16885000   8.42944000
C   4.39049000   -2.98309000   9.55003000
C   3.10336000   -3.71514000   10.00240000
C   3.10827000   -5.17827000   9.48638000
H   3.13562000   -5.16248000   8.37133000
H   4.33921000   -5.94110000   11.11561000
H   5.61534000   -3.75105000   11.18127000
H   4.41909000   -2.96511000   8.43512000
H   3.07621000   -3.73102000   11.11743000
C   4.38842000   -1.52598000   10.07129000
C   6.92466000   -1.54074000   10.14009000
C   5.67577000   -0.79130000   9.62274000
C   3.14166000   -0.77553000   9.55002000
H   4.35666000   -1.54417000   11.18613000
H   6.89497000   -1.56221000   11.25496000
H   3.17567000   -0.75886000   8.43492000
C   1.84614000   -1.50281000   9.99606000
C   1.84733000   -2.96551000   9.48610000
C   1.82072000   -5.91454000   9.94045000
C   0.61818000   -0.73155000   9.47419000
C   0.57819000   -3.71184000   9.93865000
C   0.58326000   -5.15517000   9.42598000
H   0.60468000   -0.73045000   8.36203000
H   1.80447000   -1.51510000   11.10957000
H   1.86739000   -2.95309000   8.37198000
H   0.50237000   -3.71328000   11.04823000
H   0.56219000   -5.15330000   8.31403000
H   1.78595000   -5.92663000   11.05415000
C   0.62588000   0.71360000   9.98475000
C   1.90770000   1.43389000   9.55321000
C   3.14582000   0.68543000   10.06879000
C   4.42981000   1.41011000   9.62970000
C   5.67328000   0.66715000   10.14490000
C   6.95698000   1.39593000   9.70770000
H   0.54442000   0.72112000   11.09295000
H   3.11174000   0.68116000   11.18174000
H   5.63985000   0.66028000   11.25777000
H   1.93129000   1.50464000   8.44330000
H   4.46400000   1.47890000   8.51888000
H   6.99019000   1.46860000   8.59716000
C   6.90781000   5.86553000   9.53021000
C   5.62880000   5.12956000   9.98985000
C   4.37196000   5.87716000   9.48011000
H   6.92839000   5.88640000   8.41508000
C   5.63561000   3.67060000   9.46905000
H   5.60772000   5.11092000   11.10509000
C   4.36137000   2.94123000   9.92465000
C   3.10791000   3.67874000   9.42300000
C   3.09365000   5.14013000   9.94035000
H   5.65458000   3.67652000   8.35580000
H   4.39396000   5.89488000   8.36500000
H   3.07304000   5.12405000   11.05579000
H   3.12836000   3.68234000   8.30968000
H   4.34126000   2.87352000   11.03586000
C   6.89005000   2.92929000   9.96615000
H   6.87237000   2.85846000   11.07711000
C   1.82924000   5.88056000   9.43109000
C   1.83823000   2.94368000   9.87725000
C   0.56908000   5.12248000   9.89192000
C   0.58687000   3.67694000   9.38271000
H   1.84246000   5.89256000   8.31684000
H   0.50075000   5.12234000   11.00203000
H   0.56012000   3.66938000   8.27183000
H   1.80640000   2.87367000   10.98701000
C   11.96328000   -5.92348000   10.00064000
C   14.50179000   -5.93640000   10.05478000
C   13.24639000   -5.18831000   9.54448000
H   14.47878000   -5.95744000   11.16981000
H   14.55415000   -2.97490000   8.49972000
C   14.52699000   -2.99651000   9.61469000
C   13.24183000   -3.73155000   10.06634000
H   13.27114000   -5.16885000   8.42944000
C   11.98949000   -2.98309000   9.55003000
C   10.70236000   -3.71514000   10.00240000
C   10.70727000   -5.17827000   9.48638000
H   10.73462000   -5.16248000   8.37133000
H   11.93821000   -5.94110000   11.11561000
H   13.21434000   -3.75105000   11.18127000
H   12.01809000   -2.96511000   8.43512000
H   10.67521000   -3.73102000   11.11743000
C   11.98742000   -1.52598000   10.07129000
C   14.52366000   -1.54074000   10.14009000
C   13.27477000   -0.79130000   9.62274000
C   10.74066000   -0.77553000   9.55002000
H   11.95566000   -1.54417000   11.18613000
H   14.49397000   -1.56221000   11.25496000
H   10.77467000   -0.75886000   8.43492000
H   13.30610000   -0.77173000   8.50768000
C   9.44514000   -1.50281000   9.99606000
C   9.44633000   -2.96551000   9.48610000
C   9.41972000   -5.91454000   9.94045000
C   8.21718000   -0.73155000   9.47419000
C   8.17719000   -3.71184000   9.93865000
C   8.18226000   -5.15517000   9.42598000
H   8.20368000   -0.73045000   8.36203000
H   9.40347000   -1.51510000   11.10957000
H   9.46639000   -2.95309000   8.37198000
H   8.10137000   -3.71328000   11.04823000
H   8.16119000   -5.15330000   8.31403000
H   9.38495000   -5.92663000   11.05415000
C   8.22488000   0.71360000   9.98475000
C   9.50670000   1.43389000   9.55321000
C   10.74482000   0.68543000   10.06879000
C   12.02881000   1.41011000   9.62970000
C   13.27228000   0.66715000   10.14490000
C   14.55598000   1.39593000   9.70770000
H   8.14342000   0.72112000   11.09295000
H   10.71074000   0.68116000   11.18174000
H   13.23885000   0.66028000   11.25777000
H   9.53029000   1.50464000   8.44330000
H   12.06300000   1.47890000   8.51888000
H   14.58919000   1.46860000   8.59716000
C   14.50681000   5.86553000   9.53021000
C   13.22780000   5.12956000   9.98985000
C   11.97096000   5.87716000   9.48011000
H   14.52739000   5.88640000   8.41508000
C   13.23461000   3.67060000   9.46905000
H   13.20672000   5.11092000   11.10509000
C   11.96037000   2.94123000   9.92465000
C   10.70691000   3.67874000   9.42300000
C   10.69265000   5.14013000   9.94035000
H   13.25358000   3.67652000   8.35580000
H   11.99296000   5.89488000   8.36500000
H   10.67204000   5.12405000   11.05579000
H   10.72736000   3.68234000   8.30968000
H   11.94026000   2.87352000   11.03586000
C   14.48905000   2.92929000   9.96615000
H   14.47137000   2.85846000   11.07711000
C   9.42824000   5.88056000   9.43109000
C   9.43723000   2.94368000   9.87725000
C   8.16808000   5.12248000   9.89192000
C   8.18587000   3.67694000   9.38271000
H   9.44146000   5.89256000   8.31684000
H   8.09975000   5.12234000   11.00203000
H   8.15912000   3.66938000   8.27183000
H   9.40540000   2.87367000   10.98701000
N   -4.68049105   -0.43753061   5.26736571
C   -5.26186935   -0.67719447   6.80040995
H   -5.94751707   0.13277064   6.94431392
H   -5.82503369   -1.63224935   6.81260885
C   -4.15960531   -0.62920104   7.81759647
H   -3.31947814   -1.41029861   7.66202009
H   -3.69663704   0.31776894   7.71371177
C   -3.48361663   -1.28423709   5.03120201
H   -3.00678661   -0.85998615   4.16764789
H   -2.76522642   -1.23688583   5.90281550
H   -3.81798977   -2.30361094   4.95356888
C   -4.34924501   1.03773270   5.12783429
H   -4.17705119   1.26912794   4.10706903
H   -5.08399771   1.73885642   5.59263453
H   -3.39813683   1.27355212   5.68922193
C   -5.79460278   -0.77816372   4.31643045
H   -5.57437507   -0.43569127   3.30659294
H   -6.00808475   -1.79486431   4.43888501
H   -6.63962120   -0.23513929   4.65748231
N   5.59801450   -1.46142719   1.09349997
C   5.14984359   -0.76597164   2.35132507
H   5.86389067   -0.05479199   2.72337015
H   4.19601945   -0.26249657   2.18892851
C   4.94731226   -1.75928791   3.49856791
H   4.18267274   -2.49382822   3.28492304
H   5.88948980   -2.32514702   3.46414451
C   5.62946469   -0.98843774   7.92967124
H   4.86611480   -1.67694858   7.65379256
H   6.46664065   -1.62482590   7.60803236
C   5.53275730   0.14078722   6.92992337
H   4.52317188   0.48578591   6.82464524
H   6.30693291   0.90805615   7.12195380
C   5.92098027   -0.45901722   5.54964464
H   6.74656330   -1.14021084   5.54872841
H   6.10236584   0.33367872   4.86537963
C   4.70406790   -1.12816537   4.85717360
H   4.28868897   -1.94392096   5.50752193
H   3.88096246   -0.39432977   4.79623759
C   4.40928675   -2.30614344   0.62539246
H   4.22239587   -3.21713180   1.29525143
H   4.65406925   -2.59588902   -0.43632647
H   3.48950632   -1.75531110   0.55641022
C   6.80909630   -2.31416371   1.03496316
H   6.63732992   -3.13769064   1.75059007
H   7.73047611   -1.75212812   1.25499147
H   6.93589133   -2.69983221   -0.01121422
C   5.70882914   -0.37183885   0.13921018
H   4.83938769   0.26737497   0.11026755
H   6.11319570   -0.70491655   -0.78656006
H   6.58574041   0.24197806   0.47664566
O   -0.83586893   3.13612293   -2.80079869
H   -0.06757803   2.80403849   -2.25747463
H   -2.79560245   -6.09596537   -4.53747983
O   0.53808018   -0.40645979   -6.61539450
H   1.07034530   0.37815727   -6.49462104
H   -0.27600794   -0.42619042   -6.10067318
O   7.19130720   -6.06503306   1.37091434
H   7.10326669   6.44327463   0.95730773
H   7.66063925   -5.52887945   0.64865450
O   -1.72168661   -4.74322294   1.80114972
H   -0.93277726   -4.63999429   2.27683157
H   -1.98791356   -3.91908219   1.45452134
O   7.15169933   2.50623402   -1.84773828
H   7.82538079   3.10163909   -1.59496707
H   6.29910289   2.72126068   -1.47177737
O   -1.22619462   1.28820673   0.14660719
H   -0.33891591   1.46766818   -0.25034300
H   -1.69026491   1.12678656   -0.68109425
O   -8.66741091   2.18145570   -0.37675651
H   -8.42798026   1.58619689   -1.08977596
H   -7.83820991   2.58334102   -0.15134540
O   -9.16297345   -5.72727740   -1.04311284
H   -8.66680017   -6.05117405   -0.25547332
H   -8.95661429   -4.76768374   -1.05612083
O   11.86087003   -1.32264269   -1.14403125
H   12.19035938   -1.35040745   -2.04662926
H   10.94187079   -1.12708048   -1.21059710
O   1.90927384   3.64704576   1.07402237
H   1.11431642   3.87200665   1.57830240
H   1.57799611   3.06665195   0.31250188
O   0.12031052   5.85589462   -2.48556815
H   -0.82295759   5.74919744   -2.60440439
H   -5.71098936   4.22709432   -1.59239471
O   -2.23430526   5.07867889   5.47952793
H   -2.67158681   5.94580650   5.44457061
H   -1.78776567   5.06368175   4.62668238
O   -4.76185744   1.17949963   -4.21338340
H   -4.73498480   0.77331655   -3.31850119
H   -5.64213170   0.88460321   -4.54921827
O   -5.72302007   4.48755693   -0.62598223
H   -1.65428052   3.28916872   -2.25057070
H   -5.72580296   3.68643481   -0.05049244
O   -6.12208483   -4.68930560   5.05938850
H   -5.34617081   -4.86533108   5.61197266
H   -6.36768303   -5.56665603   4.73419622
O   8.88506865   -0.08885373   3.57924859
H   9.44698415   -0.85532643   3.75692736
H   9.18278853   0.49056906   2.83397805
O   -4.95687982   0.57736495   -1.05955604
H   -5.53922545   1.19675435   -0.51517026
H   -4.14526877   1.12668723   -0.96174868
O   2.42283130   1.35767449   4.39278334
H   1.85884576   0.94151435   4.98712637
H   2.27381738   0.95357210   3.50539213
O   2.96921913   -4.53977288   -1.83905920
H   3.51644279   -4.92196720   -2.47649476
H   2.70084223   -5.32241392   -1.28937900
O   -1.52599675   -3.20892156   -2.15513396
H   -1.27506556   -4.00966243   -2.68638220
H   -1.01904699   -2.51480638   -2.54228786
O   -8.92110651   -5.87919261   5.12665850
H   -8.95885535   -4.91365589   5.26333137
H   -8.82405367   -5.89861086   4.19442308
O   1.21108640   1.92322616   -1.10162142
H   1.03669409   1.38395613   -1.88626288
H   0.10515292   5.51379938   -0.35628931
O   -0.87677014   0.27218171   3.94672285
H   -1.27593662   -0.33484897   3.32174978
H   -0.64986295   1.14821457   3.54193858
O   -5.25577677   -4.31477335   -0.78847569
H   -5.57704469   -5.03331007   -0.22785009
H   -4.33848517   -4.18226598   -0.49693031
O   7.72010806   1.80770853   2.05413899
H   7.35955822   2.33903039   1.33637993
H   7.57101064   2.42678323   2.76507147
O   -5.77799081   3.57730206   -3.29509859
H   -5.24457196   2.72212839   -3.39793678
H   -5.85221519   4.03401720   -4.11034572
O   2.09867830   -3.30350909   3.16511349
H   1.92560638   -2.57909309   3.78603842
H   1.33144473   -3.71978879   2.79489629
O   10.67115617   5.76392836   -6.58409598
H   11.49752921   6.01735356   -7.00140417
H   9.93149759   6.38931290   -6.75837684
O   -3.11228643   2.76077668   -1.21057736
H   -3.98698827   3.19068804   -1.21028040
H   -2.88921748   2.74518468   -0.26393221
O   -11.40353756   6.05803042   -0.12144906
H   -10.68581855   5.65038665   0.36499481
H   -10.93714625   6.60055450   -0.71177536
O   -0.31900872   4.75794678   0.07674962
H   0.20972268   3.93365014   -0.20692664
H   -3.76475562   4.21789477   1.57410887
O   -1.37482289   0.50582852   -3.36303126
H   -0.99337446   1.35380577   -3.03786635
H   -2.01721788   0.58646484   -4.04505653
O   4.70684971   2.91543609   1.97683117
H   3.79945009   3.02711976   1.56574049
H   4.64049792   3.24766690   2.91030481
O   10.01748718   3.43663437   -1.55031472
H   9.79884185   3.78831622   -2.40049981
H   10.90087598   3.06520537   -1.65819833
O   0.17550292   -3.45272757   -5.96093303
H   -0.57904690   -3.11113330   -5.47563468
H   -0.17820487   -3.60743259   -6.85841198
O   5.46479573   4.45856579   -0.57365725
H   5.48115281   3.78967144   0.08470662
H   4.51794824   4.60520438   -0.89012988
O   -2.25680117   0.77769008   -6.14090813
H   -1.54760813   1.45316389   -6.28492734
H   -3.06398929   1.26960467   -5.92196410
O   -1.64875009   -3.31128264   4.32906658
H   -2.38760452   -3.67404068   3.74303661
H   4.15670263   2.29378602   -1.52872465
O   2.28400481   0.38085081   1.23623861
H   1.85860748   0.15822474   0.39231432
H   1.88460870   1.24673433   1.37004772
O   11.11216100   -3.80831991   1.81561971
H   12.00362475   -3.47220110   2.00557823
H   10.91842109   -3.86556167   0.87770037
O   2.36847845   3.71898361   -2.72234384
H   1.80350507   4.50850286   -2.87973301
H   1.90657792   3.08814482   -2.15745223
O   -9.00024045   2.31710255   -3.88254726
H   -8.78094953   3.21223176   -3.65988144
H   -9.91982361   2.15033529   -3.59862699
O   -2.35299923   -5.98919548   -0.82622822
H   -1.75356579   -5.39175305   -1.27072886
H   -1.95626142   -6.15683007   0.02876508
O   0.00803812   -5.33232991   5.66114395
H   0.41940956   -5.14955525   6.49838371
H   -0.66881810   -5.99416043   5.84819898
O   -3.22895891   -1.84964203   -0.12014872
H   -3.65668702   -1.03255886   -0.40044690
H   -2.96941688   -2.38566871   -0.88045823
O   -4.14134131   -3.15835102   2.73727647
H   -4.75120987   -3.83745035   2.86212197
H   -3.81584116   -3.04679284   1.83537435
O   9.81322846   4.60017862   2.39474526
H   10.76186259   4.57859721   2.19453121
H   9.78155733   5.48378420   2.83750482
O   10.99669602   2.90104464   -3.99855225
H   10.33505381   2.20466991   -4.26748612
H   10.84702220   3.60500457   -4.64040314
O   -4.48190179   6.14115089   3.90000694
H   -4.88724373   5.31643830   4.20590032
H   -4.04943355   5.78447511   3.11245055
O   -3.74069885   5.12735628   1.38127661
H   -4.15319244   5.31592923   0.57027177
H   0.53472284   6.37729485   -3.20810523
O   -6.35414595   3.99853171   3.91244352
H   -6.12759479   4.07008440   3.01287405
H   -7.18517527   3.53134102   4.01399815
O   0.35260912   3.47576318   3.34766975
H   1.15274406   3.02277152   3.53284364
H   -0.04856578   3.71439706   4.19789737
O   6.76417677   -6.49317923   -2.20921897
H   7.32808649   6.41073857   -1.57868420
H   6.00818332   6.37511178   -2.38259995
O   2.36599889   6.00358131   -0.73279979
H   2.47995227   5.41216558   -1.50818060
H   2.29760643   5.34692465   -0.00720068
O   8.56556369   5.29915161   -0.02997677
H   8.35815604   4.54327151   0.55941030
H   9.50721615   5.22781881   -0.11481445
O   -9.67588854   5.19136140   -2.57518785
H   -9.60341205   5.99379724   -2.10845149
H   -9.55421019   4.46182097   -1.94001863
O   13.52106781   5.61080047   1.57082849
H   14.41451930   5.80741918   1.21649072
H   13.45152038   4.59464333   1.63143949
O   -3.45786502   -5.25199114   5.50747793
H   -2.71364338   -4.68752821   5.08817033
H   -3.82059268   -5.74894222   4.80346921
O   14.00118097   3.07185098   0.93676185
H   13.37970541   3.13595901   0.24530189
H   14.94941232   3.25762500   0.73765758
O   9.19217361   0.01957143   -0.53009271
H   8.86772036   -0.06624141   -1.46265168
H   9.38804042   0.95340054   -0.42521234
O   9.28202360   -5.94666853   3.45445917
H   8.55799979   -5.77749026   2.85800052
H   10.02478847   -5.52058015   3.07761271
O   3.81717776   1.89558104   -0.73656452
H   0.60882651   2.71768154   -4.64024746
H   2.82101188   1.86261455   -0.87963370
O   -14.08120180   4.35394842   -0.34395557
H   -13.39583895   4.02354414   -0.90977648
H   -14.16628039   5.25359203   -0.60173623
O   -1.27349784   5.97152920   2.83168654
H   -2.13223423   6.34086095   2.61163067
H   -1.05322085   5.41276932   2.03683861
O   -7.60247656   1.71113432   2.52383196
H   -6.80759334   1.97214009   1.93511902
H   -8.00123737   1.03304724   1.96883291
O   14.72897969   -1.33913851   -2.50458237
H   -14.99893577   -1.96784576   -2.69999459
H   13.99852905   -1.70295848   -2.04220655
O   -6.84412758   -6.50785184   0.31075108
H   -6.89819570   6.65980873   1.26089486
H   -6.37094717   6.10159631   -0.06459835
O   -5.56398247   2.43941358   0.97753716
H   -4.74304588   1.11169828   1.65775337
H   -4.95294622   3.12889107   1.40127469
O   -8.78472180   4.87925705   0.91054875
H   -8.80305396   4.00972308   1.28329347
H   -8.21444175   4.83614927   0.13700576
O   6.82653326   3.82021831   5.32853281
H   7.18873827   2.99226395   4.99641109
H   7.10334136   3.93303498   6.25986420
O   -4.22424283   -6.28556352   -3.19432684
H   -3.91095492   -6.44584897   -2.30434331
H   -5.15370272   -6.47810862   -3.31174112
O   6.70396730   -3.53102851   -1.92374745
H   7.33144618   -4.21625411   -2.31313142
H   5.85170880   -3.56853368   -2.32868495
O   -4.05153671   0.50756351   2.07230528
H   -3.26474259   0.71786615   1.53125743
H   -0.85022525   -3.86364049   4.13634949
O   8.02320630   1.87810141   -4.34043669
H   7.67487097   2.22076852   -3.46553433
H   7.35558913   1.24434639   -4.64627228
O   -1.95466033   -5.67106447   -4.64595756
H   -1.95717348   -4.79935592   -4.29320223
O   1.25737860   2.81125579   -5.36333554
H   2.10288445   3.02309998   -4.94380632
