850

C   -10.83372000   -5.92348000   -9.99936000
C   -8.29521000   -5.93640000   -9.94522000
C   -9.55061000   -5.18831000   -10.45552000
H   -8.31822000   -5.95744000   -8.83019000
H   -8.24285000   -2.97490000   -11.50028000
C   -8.27001000   -2.99651000   -10.38531000
C   -9.55517000   -3.73155000   -9.93366000
H   -9.52586000   -5.16885000   -11.57056000
C   -10.80751000   -2.98309000   -10.44997000
C   -12.09464000   -3.71514000   -9.99760000
C   -12.08973000   -5.17827000   -10.51362000
H   -12.06238000   -5.16248000   -11.62867000
H   -10.85879000   -5.94110000   -8.88439000
H   -9.58266000   -3.75105000   -8.81873000
H   -10.77891000   -2.96511000   -11.56488000
H   -12.12179000   -3.73102000   -8.88257000
C   -10.80958000   -1.52598000   -9.92871000
C   -8.27334000   -1.54074000   -9.85991000
C   -9.52223000   -0.79130000   -10.37726000
C   -12.05634000   -0.77553000   -10.44998000
H   -10.84134000   -1.54417000   -8.81387000
H   -8.30303000   -1.56221000   -8.74504000
H   -12.02233000   -0.75886000   -11.56508000
H   -9.49090000   -0.77173000   -11.49232000
C   -13.35186000   -1.50281000   -10.00394000
C   -13.35067000   -2.96551000   -10.51390000
C   -13.37728000   -5.91454000   -10.05955000
C   -14.57982000   -0.73155000   -10.52581000
C   -14.61981000   -3.71184000   -10.06135000
C   -14.61474000   -5.15517000   -10.57402000
H   -14.59332000   -0.73045000   -11.63797000
H   -13.39353000   -1.51510000   -8.89043000
H   -13.33061000   -2.95309000   -11.62802000
H   -14.69563000   -3.71328000   -8.95177000
H   -14.63581000   -5.15330000   -11.68597000
H   -13.41205000   -5.92663000   -8.94585000
C   -14.57212000   0.71360000   -10.01525000
C   -13.29030000   1.43389000   -10.44679000
C   -12.05218000   0.68543000   -9.93121000
C   -10.76819000   1.41011000   -10.37030000
C   -9.52472000   0.66715000   -9.85510000
C   -8.24102000   1.39593000   -10.29230000
H   -14.65358000   0.72112000   -8.90705000
H   -12.08626000   0.68116000   -8.81826000
H   -9.55815000   0.66028000   -8.74223000
H   -13.26671000   1.50464000   -11.55670000
H   -10.73400000   1.47890000   -11.48112000
H   -8.20781000   1.46860000   -11.40284000
C   -8.29019000   5.86553000   -10.46979000
C   -9.56920000   5.12956000   -10.01015000
C   -10.82604000   5.87716000   -10.51989000
H   -8.26961000   5.88640000   -11.58492000
C   -9.56239000   3.67060000   -10.53095000
H   -9.59028000   5.11092000   -8.89491000
C   -10.83663000   2.94123000   -10.07535000
C   -12.09009000   3.67874000   -10.57700000
C   -12.10435000   5.14013000   -10.05965000
H   -9.54342000   3.67652000   -11.64420000
H   -10.80404000   5.89488000   -11.63500000
H   -12.12496000   5.12405000   -8.94421000
H   -12.06964000   3.68234000   -11.69032000
H   -10.85674000   2.87352000   -8.96414000
C   -8.30795000   2.92929000   -10.03385000
H   -8.32563000   2.85846000   -8.92289000
C   -13.36876000   5.88056000   -10.56891000
C   -13.35977000   2.94368000   -10.12275000
C   -14.62892000   5.12248000   -10.10808000
C   -14.61113000   3.67694000   -10.61729000
H   -13.35554000   5.89256000   -11.68316000
H   -14.69725000   5.12234000   -8.99797000
H   -14.63788000   3.66938000   -11.72817000
H   -13.39160000   2.87367000   -9.01299000
C   -3.23472000   -5.92348000   -9.99936000
C   -0.69621000   -5.93640000   -9.94522000
C   -1.95161000   -5.18831000   -10.45552000
H   -0.71922000   -5.95744000   -8.83019000
H   -0.64385000   -2.97490000   -11.50028000
C   -0.67101000   -2.99651000   -10.38531000
C   -1.95617000   -3.73155000   -9.93366000
H   -1.92686000   -5.16885000   -11.57056000
C   -3.20851000   -2.98309000   -10.44997000
C   -4.49564000   -3.71514000   -9.99760000
C   -4.49073000   -5.17827000   -10.51362000
H   -4.46338000   -5.16248000   -11.62867000
H   -3.25979000   -5.94110000   -8.88439000
H   -1.98366000   -3.75105000   -8.81873000
H   -3.17991000   -2.96511000   -11.56488000
H   -4.52279000   -3.73102000   -8.88257000
C   -3.21058000   -1.52598000   -9.92871000
C   -0.67434000   -1.54074000   -9.85991000
C   -1.92323000   -0.79130000   -10.37726000
C   -4.45734000   -0.77553000   -10.44998000
H   -3.24234000   -1.54417000   -8.81387000
H   -0.70403000   -1.56221000   -8.74504000
H   -4.42333000   -0.75886000   -11.56508000
H   -1.89190000   -0.77173000   -11.49232000
C   -5.75286000   -1.50281000   -10.00394000
C   -5.75167000   -2.96551000   -10.51390000
C   -5.77828000   -5.91454000   -10.05955000
C   -6.98082000   -0.73155000   -10.52581000
C   -7.02081000   -3.71184000   -10.06135000
C   -7.01574000   -5.15517000   -10.57402000
H   -6.99432000   -0.73045000   -11.63797000
H   -5.79453000   -1.51510000   -8.89043000
H   -5.73161000   -2.95309000   -11.62802000
H   -7.09663000   -3.71328000   -8.95177000
H   -7.03681000   -5.15330000   -11.68597000
H   -5.81305000   -5.92663000   -8.94585000
C   -6.97312000   0.71360000   -10.01525000
C   -5.69130000   1.43389000   -10.44679000
C   -4.45318000   0.68543000   -9.93121000
C   -3.16919000   1.41011000   -10.37030000
C   -1.92572000   0.66715000   -9.85510000
C   -0.64202000   1.39593000   -10.29230000
H   -7.05458000   0.72112000   -8.90705000
H   -4.48726000   0.68116000   -8.81826000
H   -1.95915000   0.66028000   -8.74223000
H   -5.66771000   1.50464000   -11.55670000
H   -3.13500000   1.47890000   -11.48112000
H   -0.60881000   1.46860000   -11.40284000
C   -0.69119000   5.86553000   -10.46979000
C   -1.97020000   5.12956000   -10.01015000
C   -3.22704000   5.87716000   -10.51989000
H   -0.67061000   5.88640000   -11.58492000
C   -1.96339000   3.67060000   -10.53095000
H   -1.99128000   5.11092000   -8.89491000
C   -3.23763000   2.94123000   -10.07535000
C   -4.49109000   3.67874000   -10.57700000
C   -4.50535000   5.14013000   -10.05965000
H   -1.94442000   3.67652000   -11.64420000
H   -3.20504000   5.89488000   -11.63500000
H   -4.52596000   5.12405000   -8.94421000
H   -4.47064000   3.68234000   -11.69032000
H   -3.25774000   2.87352000   -8.96414000
C   -0.70895000   2.92929000   -10.03385000
H   -0.72663000   2.85846000   -8.92289000
C   -5.76976000   5.88056000   -10.56891000
C   -5.76077000   2.94368000   -10.12275000
C   -7.02992000   5.12248000   -10.10808000
C   -7.01213000   3.67694000   -10.61729000
H   -5.75654000   5.89256000   -11.68316000
H   -7.09825000   5.12234000   -8.99797000
H   -7.03888000   3.66938000   -11.72817000
H   -5.79260000   2.87367000   -9.01299000
C   4.36428000   -5.92348000   -9.99936000
C   6.90279000   -5.93640000   -9.94522000
C   5.64739000   -5.18831000   -10.45552000
H   6.87978000   -5.95744000   -8.83019000
H   6.95515000   -2.97490000   -11.50028000
C   6.92799000   -2.99651000   -10.38531000
C   5.64283000   -3.73155000   -9.93366000
H   5.67214000   -5.16885000   -11.57056000
C   4.39049000   -2.98309000   -10.44997000
C   3.10336000   -3.71514000   -9.99760000
C   3.10827000   -5.17827000   -10.51362000
H   3.13562000   -5.16248000   -11.62867000
H   4.33921000   -5.94110000   -8.88439000
H   5.61534000   -3.75105000   -8.81873000
H   4.41909000   -2.96511000   -11.56488000
H   3.07621000   -3.73102000   -8.88257000
C   4.38842000   -1.52598000   -9.92871000
C   6.92466000   -1.54074000   -9.85991000
C   5.67577000   -0.79130000   -10.37726000
C   3.14166000   -0.77553000   -10.44998000
H   4.35666000   -1.54417000   -8.81387000
H   6.89497000   -1.56221000   -8.74504000
H   3.17567000   -0.75886000   -11.56508000
H   5.70710000   -0.77173000   -11.49232000
C   1.84614000   -1.50281000   -10.00394000
C   1.84733000   -2.96551000   -10.51390000
C   1.82072000   -5.91454000   -10.05955000
C   0.61818000   -0.73155000   -10.52581000
C   0.57819000   -3.71184000   -10.06135000
C   0.58326000   -5.15517000   -10.57402000
H   0.60468000   -0.73045000   -11.63797000
H   1.80447000   -1.51510000   -8.89043000
H   1.86739000   -2.95309000   -11.62802000
H   0.50237000   -3.71328000   -8.95177000
H   0.56219000   -5.15330000   -11.68597000
H   1.78595000   -5.92663000   -8.94585000
C   0.62588000   0.71360000   -10.01525000
C   1.90770000   1.43389000   -10.44679000
C   3.14582000   0.68543000   -9.93121000
C   4.42981000   1.41011000   -10.37030000
C   5.67328000   0.66715000   -9.85510000
C   6.95698000   1.39593000   -10.29230000
H   0.54442000   0.72112000   -8.90705000
H   3.11174000   0.68116000   -8.81826000
H   5.63985000   0.66028000   -8.74223000
H   1.93129000   1.50464000   -11.55670000
H   4.46400000   1.47890000   -11.48112000
H   6.99019000   1.46860000   -11.40284000
C   6.90781000   5.86553000   -10.46979000
C   5.62880000   5.12956000   -10.01015000
C   4.37196000   5.87716000   -10.51989000
H   6.92839000   5.88640000   -11.58492000
C   5.63561000   3.67060000   -10.53095000
H   5.60772000   5.11092000   -8.89491000
C   4.36137000   2.94123000   -10.07535000
C   3.10791000   3.67874000   -10.57700000
C   3.09365000   5.14013000   -10.05965000
H   5.65458000   3.67652000   -11.64420000
H   4.39396000   5.89488000   -11.63500000
H   3.07304000   5.12405000   -8.94421000
H   3.12836000   3.68234000   -11.69032000
H   4.34126000   2.87352000   -8.96414000
C   6.89005000   2.92929000   -10.03385000
H   6.87237000   2.85846000   -8.92289000
C   1.82924000   5.88056000   -10.56891000
C   1.83823000   2.94368000   -10.12275000
C   0.56908000   5.12248000   -10.10808000
C   0.58687000   3.67694000   -10.61729000
H   1.84246000   5.89256000   -11.68316000
H   0.50075000   5.12234000   -8.99797000
H   0.56012000   3.66938000   -11.72817000
H   1.80640000   2.87367000   -9.01299000
C   11.96328000   -5.92348000   -9.99936000
C   14.50179000   -5.93640000   -9.94522000
C   13.24639000   -5.18831000   -10.45552000
H   14.47878000   -5.95744000   -8.83019000
H   14.55415000   -2.97490000   -11.50028000
C   14.52699000   -2.99651000   -10.38531000
C   13.24183000   -3.73155000   -9.93366000
H   13.27114000   -5.16885000   -11.57056000
C   11.98949000   -2.98309000   -10.44997000
C   10.70236000   -3.71514000   -9.99760000
C   10.70727000   -5.17827000   -10.51362000
H   10.73462000   -5.16248000   -11.62867000
H   11.93821000   -5.94110000   -8.88439000
H   13.21434000   -3.75105000   -8.81873000
H   12.01809000   -2.96511000   -11.56488000
H   10.67521000   -3.73102000   -8.88257000
C   11.98742000   -1.52598000   -9.92871000
C   14.52366000   -1.54074000   -9.85991000
C   13.27477000   -0.79130000   -10.37726000
C   10.74066000   -0.77553000   -10.44998000
H   11.95566000   -1.54417000   -8.81387000
H   14.49397000   -1.56221000   -8.74504000
H   10.77467000   -0.75886000   -11.56508000
H   13.30610000   -0.77173000   -11.49232000
C   9.44514000   -1.50281000   -10.00394000
C   9.44633000   -2.96551000   -10.51390000
C   9.41972000   -5.91454000   -10.05955000
C   8.21718000   -0.73155000   -10.52581000
C   8.17719000   -3.71184000   -10.06135000
C   8.18226000   -5.15517000   -10.57402000
H   8.20368000   -0.73045000   -11.63797000
H   9.40347000   -1.51510000   -8.89043000
H   9.46639000   -2.95309000   -11.62802000
H   8.10137000   -3.71328000   -8.95177000
H   8.16119000   -5.15330000   -11.68597000
H   9.38495000   -5.92663000   -8.94585000
C   8.22488000   0.71360000   -10.01525000
C   9.50670000   1.43389000   -10.44679000
C   10.74482000   0.68543000   -9.93121000
C   12.02881000   1.41011000   -10.37030000
C   13.27228000   0.66715000   -9.85510000
C   14.55598000   1.39593000   -10.29230000
H   8.14342000   0.72112000   -8.90705000
H   10.71074000   0.68116000   -8.81826000
H   13.23885000   0.66028000   -8.74223000
H   9.53029000   1.50464000   -11.55670000
H   12.06300000   1.47890000   -11.48112000
H   14.58919000   1.46860000   -11.40284000
C   14.50681000   5.86553000   -10.46979000
C   13.22780000   5.12956000   -10.01015000
C   11.97096000   5.87716000   -10.51989000
H   14.52739000   5.88640000   -11.58492000
C   13.23461000   3.67060000   -10.53095000
H   13.20672000   5.11092000   -8.89491000
C   11.96037000   2.94123000   -10.07535000
C   10.70691000   3.67874000   -10.57700000
C   10.69265000   5.14013000   -10.05965000
H   13.25358000   3.67652000   -11.64420000
H   11.99296000   5.89488000   -11.63500000
H   10.67204000   5.12405000   -8.94421000
H   10.72736000   3.68234000   -11.69032000
H   11.94026000   2.87352000   -8.96414000
C   14.48905000   2.92929000   -10.03385000
H   14.47137000   2.85846000   -8.92289000
C   9.42824000   5.88056000   -10.56891000
C   9.43723000   2.94368000   -10.12275000
C   8.16808000   5.12248000   -10.10808000
C   8.18587000   3.67694000   -10.61729000
H   9.44146000   5.89256000   -11.68316000
H   8.09975000   5.12234000   -8.99797000
H   8.15912000   3.66938000   -11.72817000
H   9.40540000   2.87367000   -9.01299000
C   -10.83372000   -5.92348000   10.00064000
C   -8.29521000   -5.93640000   10.05478000
C   -9.55061000   -5.18831000   9.54448000
H   -8.31822000   -5.95744000   11.16981000
H   -8.24285000   -2.97490000   8.49972000
C   -8.27001000   -2.99651000   9.61469000
C   -9.55517000   -3.73155000   10.06634000
H   -9.52586000   -5.16885000   8.42944000
C   -10.80751000   -2.98309000   9.55003000
C   -12.09464000   -3.71514000   10.00240000
C   -12.08973000   -5.17827000   9.48638000
H   -12.06238000   -5.16248000   8.37133000
H   -10.85879000   -5.94110000   11.11561000
H   -9.58266000   -3.75105000   11.18127000
H   -10.77891000   -2.96511000   8.43512000
H   -12.12179000   -3.73102000   11.11743000
C   -10.80958000   -1.52598000   10.07129000
C   -8.27334000   -1.54074000   10.14009000
C   -9.52223000   -0.79130000   9.62274000
C   -12.05634000   -0.77553000   9.55002000
H   -10.84134000   -1.54417000   11.18613000
H   -8.30303000   -1.56221000   11.25496000
H   -12.02233000   -0.75886000   8.43492000
H   -9.49090000   -0.77173000   8.50768000
C   -13.35186000   -1.50281000   9.99606000
C   -13.35067000   -2.96551000   9.48610000
C   -13.37728000   -5.91454000   9.94045000
C   -14.57982000   -0.73155000   9.47419000
C   -14.61981000   -3.71184000   9.93865000
C   -14.61474000   -5.15517000   9.42598000
H   -14.59332000   -0.73045000   8.36203000
H   -13.39353000   -1.51510000   11.10957000
H   -13.33061000   -2.95309000   8.37198000
H   -14.69563000   -3.71328000   11.04823000
H   -14.63581000   -5.15330000   8.31403000
H   -13.41205000   -5.92663000   11.05415000
C   -14.57212000   0.71360000   9.98475000
C   -13.29030000   1.43389000   9.55321000
C   -12.05218000   0.68543000   10.06879000
C   -10.76819000   1.41011000   9.62970000
C   -9.52472000   0.66715000   10.14490000
C   -8.24102000   1.39593000   9.70770000
H   -14.65358000   0.72112000   11.09295000
H   -12.08626000   0.68116000   11.18174000
H   -9.55815000   0.66028000   11.25777000
H   -13.26671000   1.50464000   8.44330000
H   -10.73400000   1.47890000   8.51888000
H   -8.20781000   1.46860000   8.59716000
C   -8.29019000   5.86553000   9.53021000
C   -9.56920000   5.12956000   9.98985000
C   -10.82604000   5.87716000   9.48011000
H   -8.26961000   5.88640000   8.41508000
C   -9.56239000   3.67060000   9.46905000
H   -9.59028000   5.11092000   11.10509000
C   -10.83663000   2.94123000   9.92465000
C   -12.09009000   3.67874000   9.42300000
C   -12.10435000   5.14013000   9.94035000
H   -9.54342000   3.67652000   8.35580000
H   -10.80404000   5.89488000   8.36500000
H   -12.12496000   5.12405000   11.05579000
H   -12.06964000   3.68234000   8.30968000
H   -10.85674000   2.87352000   11.03586000
C   -8.30795000   2.92929000   9.96615000
H   -8.32563000   2.85846000   11.07711000
C   -13.36876000   5.88056000   9.43109000
C   -13.35977000   2.94368000   9.87725000
C   -14.62892000   5.12248000   9.89192000
C   -14.61113000   3.67694000   9.38271000
H   -13.35554000   5.89256000   8.31684000
H   -14.69725000   5.12234000   11.00203000
H   -14.63788000   3.66938000   8.27183000
H   -13.39160000   2.87367000   10.98701000
C   -3.23472000   -5.92348000   10.00064000
C   -0.69621000   -5.93640000   10.05478000
C   -1.95161000   -5.18831000   9.54448000
H   -0.71922000   -5.95744000   11.16981000
H   -0.64385000   -2.97490000   8.49972000
C   -0.67101000   -2.99651000   9.61469000
C   -1.95617000   -3.73155000   10.06634000
H   -1.92686000   -5.16885000   8.42944000
C   -3.20851000   -2.98309000   9.55003000
C   -4.49564000   -3.71514000   10.00240000
C   -4.49073000   -5.17827000   9.48638000
H   -4.46338000   -5.16248000   8.37133000
H   -3.25979000   -5.94110000   11.11561000
H   -1.98366000   -3.75105000   11.18127000
H   -3.17991000   -2.96511000   8.43512000
H   -4.52279000   -3.73102000   11.11743000
C   -3.21058000   -1.52598000   10.07129000
C   -0.67434000   -1.54074000   10.14009000
C   -1.92323000   -0.79130000   9.62274000
C   -4.45734000   -0.77553000   9.55002000
H   -3.24234000   -1.54417000   11.18613000
H   -0.70403000   -1.56221000   11.25496000
H   -1.89190000   -0.77173000   8.50768000
C   -5.75286000   -1.50281000   9.99606000
C   -5.75167000   -2.96551000   9.48610000
C   -5.77828000   -5.91454000   9.94045000
C   -6.98082000   -0.73155000   9.47419000
C   -7.02081000   -3.71184000   9.93865000
C   -7.01574000   -5.15517000   9.42598000
H   -6.99432000   -0.73045000   8.36203000
H   -5.79453000   -1.51510000   11.10957000
H   -5.73161000   -2.95309000   8.37198000
H   -7.09663000   -3.71328000   11.04823000
H   -7.03681000   -5.15330000   8.31403000
H   -5.81305000   -5.92663000   11.05415000
C   -6.97312000   0.71360000   9.98475000
C   -5.69130000   1.43389000   9.55321000
C   -4.45318000   0.68543000   10.06879000
C   -3.16919000   1.41011000   9.62970000
C   -1.92572000   0.66715000   10.14490000
C   -0.64202000   1.39593000   9.70770000
H   -7.05458000   0.72112000   11.09295000
H   -4.48726000   0.68116000   11.18174000
H   -1.95915000   0.66028000   11.25777000
H   -5.66771000   1.50464000   8.44330000
H   -3.13500000   1.47890000   8.51888000
H   -0.60881000   1.46860000   8.59716000
C   -0.69119000   5.86553000   9.53021000
C   -1.97020000   5.12956000   9.98985000
C   -3.22704000   5.87716000   9.48011000
H   -0.67061000   5.88640000   8.41508000
C   -1.96339000   3.67060000   9.46905000
H   -1.99128000   5.11092000   11.10509000
C   -3.23763000   2.94123000   9.92465000
C   -4.49109000   3.67874000   9.42300000
C   -4.50535000   5.14013000   9.94035000
H   -1.94442000   3.67652000   8.35580000
H   -3.20504000   5.89488000   8.36500000
H   -4.52596000   5.12405000   11.05579000
H   -4.47064000   3.68234000   8.30968000
H   -3.25774000   2.87352000   11.03586000
C   -0.70895000   2.92929000   9.96615000
H   -0.72663000   2.85846000   11.07711000
C   -5.76976000   5.88056000   9.43109000
C   -5.76077000   2.94368000   9.87725000
C   -7.02992000   5.12248000   9.89192000
C   -7.01213000   3.67694000   9.38271000
H   -5.75654000   5.89256000   8.31684000
H   -7.09825000   5.12234000   11.00203000
H   -7.03888000   3.66938000   8.27183000
H   -5.79260000   2.87367000   10.98701000
C   4.36428000   -5.92348000   10.00064000
C   6.90279000   -5.93640000   10.05478000
C   5.64739000   -5.18831000   9.54448000
H   6.87978000   -5.95744000   11.16981000
H   6.95515000   -2.97490000   8.49972000
C   6.92799000   -2.99651000   9.61469000
C   5.64283000   -3.73155000   10.06634000
H   5.67214000   -5.16885000   8.42944000
C   4.39049000   -2.98309000   9.55003000
C   3.10336000   -3.71514000   10.00240000
C   3.10827000   -5.17827000   9.48638000
H   3.13562000   -5.16248000   8.37133000
H   4.33921000   -5.94110000   11.11561000
H   5.61534000   -3.75105000   11.18127000
H   4.41909000   -2.96511000   8.43512000
H   3.07621000   -3.73102000   11.11743000
C   4.38842000   -1.52598000   10.07129000
C   6.92466000   -1.54074000   10.14009000
C   5.67577000   -0.79130000   9.62274000
C   3.14166000   -0.77553000   9.55002000
H   4.35666000   -1.54417000   11.18613000
H   6.89497000   -1.56221000   11.25496000
H   3.17567000   -0.75886000   8.43492000
C   1.84614000   -1.50281000   9.99606000
C   1.84733000   -2.96551000   9.48610000
C   1.82072000   -5.91454000   9.94045000
C   0.61818000   -0.73155000   9.47419000
C   0.57819000   -3.71184000   9.93865000
C   0.58326000   -5.15517000   9.42598000
H   0.60468000   -0.73045000   8.36203000
H   1.80447000   -1.51510000   11.10957000
H   1.86739000   -2.95309000   8.37198000
H   0.50237000   -3.71328000   11.04823000
H   0.56219000   -5.15330000   8.31403000
H   1.78595000   -5.92663000   11.05415000
C   0.62588000   0.71360000   9.98475000
C   1.90770000   1.43389000   9.55321000
C   3.14582000   0.68543000   10.06879000
C   4.42981000   1.41011000   9.62970000
C   5.67328000   0.66715000   10.14490000
C   6.95698000   1.39593000   9.70770000
H   0.54442000   0.72112000   11.09295000
H   3.11174000   0.68116000   11.18174000
H   5.63985000   0.66028000   11.25777000
H   1.93129000   1.50464000   8.44330000
H   4.46400000   1.47890000   8.51888000
H   6.99019000   1.46860000   8.59716000
C   6.90781000   5.86553000   9.53021000
C   5.62880000   5.12956000   9.98985000
C   4.37196000   5.87716000   9.48011000
H   6.92839000   5.88640000   8.41508000
C   5.63561000   3.67060000   9.46905000
H   5.60772000   5.11092000   11.10509000
C   4.36137000   2.94123000   9.92465000
C   3.10791000   3.67874000   9.42300000
C   3.09365000   5.14013000   9.94035000
H   5.65458000   3.67652000   8.35580000
H   4.39396000   5.89488000   8.36500000
H   3.07304000   5.12405000   11.05579000
H   3.12836000   3.68234000   8.30968000
H   4.34126000   2.87352000   11.03586000
C   6.89005000   2.92929000   9.96615000
H   6.87237000   2.85846000   11.07711000
C   1.82924000   5.88056000   9.43109000
C   1.83823000   2.94368000   9.87725000
C   0.56908000   5.12248000   9.89192000
C   0.58687000   3.67694000   9.38271000
H   1.84246000   5.89256000   8.31684000
H   0.50075000   5.12234000   11.00203000
H   0.56012000   3.66938000   8.27183000
H   1.80640000   2.87367000   10.98701000
C   11.96328000   -5.92348000   10.00064000
C   14.50179000   -5.93640000   10.05478000
C   13.24639000   -5.18831000   9.54448000
H   14.47878000   -5.95744000   11.16981000
H   14.55415000   -2.97490000   8.49972000
C   14.52699000   -2.99651000   9.61469000
C   13.24183000   -3.73155000   10.06634000
H   13.27114000   -5.16885000   8.42944000
C   11.98949000   -2.98309000   9.55003000
C   10.70236000   -3.71514000   10.00240000
C   10.70727000   -5.17827000   9.48638000
H   10.73462000   -5.16248000   8.37133000
H   11.93821000   -5.94110000   11.11561000
H   13.21434000   -3.75105000   11.18127000
H   12.01809000   -2.96511000   8.43512000
H   10.67521000   -3.73102000   11.11743000
C   11.98742000   -1.52598000   10.07129000
C   14.52366000   -1.54074000   10.14009000
C   13.27477000   -0.79130000   9.62274000
C   10.74066000   -0.77553000   9.55002000
H   11.95566000   -1.54417000   11.18613000
H   14.49397000   -1.56221000   11.25496000
H   10.77467000   -0.75886000   8.43492000
H   13.30610000   -0.77173000   8.50768000
C   9.44514000   -1.50281000   9.99606000
C   9.44633000   -2.96551000   9.48610000
C   9.41972000   -5.91454000   9.94045000
C   8.21718000   -0.73155000   9.47419000
C   8.17719000   -3.71184000   9.93865000
C   8.18226000   -5.15517000   9.42598000
H   8.20368000   -0.73045000   8.36203000
H   9.40347000   -1.51510000   11.10957000
H   9.46639000   -2.95309000   8.37198000
H   8.10137000   -3.71328000   11.04823000
H   8.16119000   -5.15330000   8.31403000
H   9.38495000   -5.92663000   11.05415000
C   8.22488000   0.71360000   9.98475000
C   9.50670000   1.43389000   9.55321000
C   10.74482000   0.68543000   10.06879000
C   12.02881000   1.41011000   9.62970000
C   13.27228000   0.66715000   10.14490000
C   14.55598000   1.39593000   9.70770000
H   8.14342000   0.72112000   11.09295000
H   10.71074000   0.68116000   11.18174000
H   13.23885000   0.66028000   11.25777000
H   9.53029000   1.50464000   8.44330000
H   12.06300000   1.47890000   8.51888000
H   14.58919000   1.46860000   8.59716000
C   14.50681000   5.86553000   9.53021000
C   13.22780000   5.12956000   9.98985000
C   11.97096000   5.87716000   9.48011000
H   14.52739000   5.88640000   8.41508000
C   13.23461000   3.67060000   9.46905000
H   13.20672000   5.11092000   11.10509000
C   11.96037000   2.94123000   9.92465000
C   10.70691000   3.67874000   9.42300000
C   10.69265000   5.14013000   9.94035000
H   13.25358000   3.67652000   8.35580000
H   11.99296000   5.89488000   8.36500000
H   10.67204000   5.12405000   11.05579000
H   10.72736000   3.68234000   8.30968000
H   11.94026000   2.87352000   11.03586000
C   14.48905000   2.92929000   9.96615000
H   14.47137000   2.85846000   11.07711000
C   9.42824000   5.88056000   9.43109000
C   9.43723000   2.94368000   9.87725000
C   8.16808000   5.12248000   9.89192000
C   8.18587000   3.67694000   9.38271000
H   9.44146000   5.89256000   8.31684000
H   8.09975000   5.12234000   11.00203000
H   8.15912000   3.66938000   8.27183000
H   9.40540000   2.87367000   10.98701000
N   -3.86004161   -1.10661102   5.36725637
C   -4.01875758   -1.60427294   6.85903887
H   -4.71013997   -2.43391592   6.82320940
H   -3.14132760   -2.15640446   7.04092541
C   -4.49891013   -0.62352923   7.93487221
H   -3.86809010   0.26088848   7.74535731
H   -5.50778583   -0.39182194   7.59147096
C   -3.66501959   -2.33038592   4.54642949
H   -4.63971892   -2.83249129   4.39490291
H   -3.46559898   -2.08569917   3.46903183
H   -2.93602699   -3.02023299   4.89979207
C   -2.74599309   -0.12239213   5.18368870
H   -2.80446358   0.66593832   5.91494845
H   -1.79731606   -0.64632997   5.30117983
H   -2.78172289   0.30302141   4.16791975
C   -5.11078245   -0.40393011   4.96783540
H   -5.96323912   -1.03955227   5.33562705
H   -5.08353609   0.56510694   5.52733784
H   -4.99809719   -0.18920967   3.92368048
N   1.91193913   -3.12863657   4.00377917
C   2.77868420   -1.94606001   4.00277431
H   3.75742497   -2.20424937   3.65714227
H   2.28454217   -1.12489108   3.35163807
C   2.99044445   -1.30628800   5.41171813
H   2.07725445   -1.08926585   5.90781455
H   3.48855999   -2.00905209   6.09864839
C   5.63147300   -0.78226233   8.00307793
H   4.63025314   -1.18601830   7.62877722
H   6.17480805   -1.66971000   7.73422682
C   6.04556347   0.23525655   6.94927167
H   5.72018060   1.28504195   7.17422281
H   7.14499898   0.16243441   6.83460358
C   5.45050280   -0.20224905   5.56335418
H   5.93984469   -1.14088180   5.28951278
H   5.89014424   0.54441351   4.81973801
C   3.87696234   -0.03786066   5.42457821
H   3.64013019   0.58525542   6.26958750
H   3.72675820   0.65004152   4.49194737
C   2.51428322   -4.27242931   4.86123297
H   2.72006163   -3.91141332   5.87997894
H   3.40102581   -4.71751362   4.41477422
H   1.75001305   -5.04191267   4.91884677
C   1.85702871   -3.69192395   2.62629259
H   1.39290093   -4.69139753   2.54427938
H   2.82866563   -3.68605453   2.12874897
H   1.21695123   -3.17813941   1.95560488
C   0.42273884   -2.83219190   4.51476767
H   0.55774716   -2.17072171   5.39090146
H   -5.82536767   -6.47132836   6.14376796
H   0.06385302   -2.14798402   3.70976334
O   -5.65130809   -0.25235639   1.65783405
H   -6.17341369   -0.95895957   1.12867425
H   5.09832149   2.27868356   -0.27404418
O   -10.86711686   0.43756900   -0.51945167
H   -11.16176038   -0.18364249   0.21478454
H   -10.80842650   1.33816544   -0.14430422
O   -9.29589103   5.65563466   4.90949048
H   -8.36559740   5.66712369   5.17340180
H   -9.46911167   4.96253846   4.28900853
O   9.76357948   -4.65566157   -0.72436036
H   10.24739250   -4.01313330   -1.30980548
H   9.09404527   -4.09002968   -0.34248465
O   14.01828271   3.18302149   -4.13236997
H   13.12317056   3.39611750   -3.72121798
H   14.61988709   3.48062572   -3.52438804
O   13.84995096   0.67234629   2.81575376
H   14.14481272   1.55368452   2.89792234
H   14.27637522   0.25444143   2.03664967
O   3.07917442   2.95539077   -2.45851675
H   2.34049119   3.57645519   -2.62546481
H   3.81937393   3.56869161   -2.22459789
O   -7.14741991   -2.40993123   0.43778897
H   -1.39080378   4.38580222   2.37067350
H   -7.70218148   -1.75110156   -0.01232426
O   -13.29009759   -4.85296729   -4.75538586
H   -12.73668835   -5.60658188   -4.47507906
H   -13.12556991   -4.92749459   -5.69143242
O   -14.38524675   -4.11951770   -2.01318842
H   -15.15974253   -4.28206979   -1.41962931
H   -14.45177104   -4.61008511   -2.88073590
O   -3.75322790   2.90132525   4.61954193
H   -4.03181998   2.66351405   3.73011574
H   -4.14774759   3.78933378   4.71734940
O   -4.87371039   -0.43911497   -1.78736118
H   -5.85570439   -0.49869003   -1.67060204
H   -4.39505397   -0.97012770   -1.16914178
O   -8.41335179   -4.79146092   -0.24707760
H   -9.07875823   -4.27798033   0.22773418
H   -7.62040252   -4.19912918   0.00372110
O   2.59028733   3.08465840   5.87668164
H   3.15185376   3.33573565   5.16143795
H   2.26231427   2.25328469   5.68828669
O   -6.16029012   0.63521523   -5.59321828
H   -6.19189294   1.09087094   -6.41274293
H   -5.97362251   -0.28277207   -5.85964677
O   -13.27790030   1.49752540   -1.17571586
H   -13.59448570   1.65636335   -2.07513076
H   -12.42771031   1.04225633   -1.18733971
O   -10.32240521   4.36572623   1.65260212
H   -10.03482371   5.17582357   2.09239152
H   -10.54895076   4.63179513   0.78652489
O   13.09673102   -5.50230735   -2.41174596
H   12.30502382   -5.67402295   -2.94638997
H   13.39595477   -4.58888221   -2.71679233
O   -6.40841788   -2.52419418   -6.25690964
H   -7.30849794   -2.93990584   -6.53552555
H   -6.00727813   -3.17729075   -5.65859527
O   2.07944175   5.01662490   3.24869850
H   1.31546431   4.66791643   2.73727988
H   2.08782157   4.71049218   4.17987598
O   12.39207989   4.72210787   4.63248092
H   11.82004071   4.40113166   3.95345885
H   12.02802504   4.27370656   5.40198281
O   9.82941048   3.07062681   2.95833011
H   10.68295326   2.82047600   2.59841724
H   9.50042078   2.23108034   3.28101372
O   9.19563816   0.58651741   5.02859992
H   9.98249667   0.11194294   4.76688258
H   9.46892845   1.43581008   5.37671809
O   -14.97922271   -1.06597170   0.26038591
H   14.76985020   -1.43915807   -0.30758732
H   -14.34520500   -0.58730845   -0.31108311
O   11.57102278   0.78503286   -2.01318357
H   11.81790476   1.76725030   -2.20235986
H   10.69838229   0.63568486   -2.53319575
O   -10.48707596   -5.30544032   3.86491043
H   -9.96407798   -6.11477722   3.70235325
H   -9.93539709   -4.51586883   3.70982604
O   -15.12656423   3.64578283   3.64705484
H   14.96746467   4.02649500   4.46422032
H   -14.23283977   3.35841675   3.63161541
O   -8.38130523   2.22140532   0.98767233
H   -7.85309401   2.92684746   0.54453968
H   -9.13768004   2.71080114   1.35134972
O   -3.17131188   -2.05558625   1.17190103
H   -3.77068692   -1.34574860   0.89923019
H   -3.71313005   -2.88259694   1.06432557
O   8.29128405   4.47210481   -1.27498609
H   8.59563189   5.38278079   -1.45276546
H   8.90642272   4.12434171   -0.61846380
O   14.35691121   -2.74561440   3.01368851
H   14.27000953   -3.70107870   2.78265938
H   14.80099602   -2.27760951   2.28386728
O   12.46076340   4.61639440   -1.80231706
H   11.79566596   5.24909557   -1.45004659
H   13.11030962   4.47302335   -1.08683620
O   -10.77453774   0.69673964   -4.64863017
H   -10.85687224   -0.18555471   -5.02558067
H   -9.87593178   0.88084333   -4.29131151
O   -5.07071821   6.34226431   -0.98402549
H   -5.33933154   5.46517974   -1.39331275
H   -5.63374701   6.65881455   -0.21494357
O   -10.69889501   -4.02783542   6.17602259
H   -10.43888355   -4.83947138   5.77731887
H   -11.64245310   -4.10821553   6.02488119
O   12.90353767   3.87750324   1.83225081
H   13.54788161   3.70661839   1.10491077
H   13.36002516   3.62155710   2.66214728
O   11.63014323   -0.83164237   3.92822623
H   12.02252843   -0.20859890   3.26799939
H   12.28520428   -1.47741727   3.93561915
O   -12.89208742   4.39513379   1.28244874
H   -12.49494593   4.08694880   0.47490558
H   -13.83187180   4.02540758   1.33583668
O   12.47470700   1.31665317   5.61150479
H   11.93786282   0.68817312   5.04934746
H   13.38036164   0.98329856   5.70298382
O   -5.02656829   -4.21465210   -4.21760725
H   -5.80258475   -3.76437659   -3.79180706
H   -4.33512216   -3.48485569   -4.32610773
O   14.81744705   2.43509675   0.31552691
H   14.65184852   2.51387136   -0.60980950
H   -5.78184472   0.59211999   1.21167558
O   -7.12508989   4.11377459   -1.03422133
H   -7.66811609   4.39490107   -1.70534305
H   -7.11232460   3.11591182   -1.17445928
O   0.22433285   -6.37175195   0.20735691
H   1.01422928   -5.86182633   0.28840698
H   0.41625397   6.16801349   -0.04883111
O   -6.86630218   -3.25113641   5.97514716
H   -7.00030278   -3.89006788   5.29287554
H   -7.65447928   -2.67980161   5.97469721
O   0.22625930   -0.73954818   0.76090631
H   0.20282598   0.00026583   0.21974436
H   -0.08122494   -1.49381749   0.26849133
O   9.03795816   1.33779935   -2.69633428
H   8.91313639   2.18368449   -2.33113895
H   8.64598328   1.30637841   -3.53407206
O   11.38402444   -1.01845202   0.27597900
H   11.63761856   -0.42560036   -0.46475250
H   10.48887173   -0.87526166   0.51013786
O   1.66187559   -3.03872221   -6.48824533
H   1.56302102   -3.17584874   -7.41289522
H   2.46538193   -3.50908038   -6.28333024
O   -1.95424489   -6.09268044   -1.36479539
H   -2.82850137   -6.26921551   -1.64281930
H   -1.56951651   -6.57933641   -0.62098187
O   -0.59657605   4.00084287   2.01616314
H   -14.82192330   1.87804742   0.30324691
H   -0.80328205   3.14798735   1.63339297
O   -2.86198118   0.92235540   2.42234431
H   -2.46591156   0.07643554   2.08700634
H   -3.79203349   0.95344263   2.12696670
O   -8.40754121   4.25783124   -3.67621719
H   -7.99580829   5.06492723   -3.40558417
H   -8.59255489   4.26174399   -4.63926186
O   -3.87983155   -5.53112976   0.98160889
H   -3.67760251   -6.12454902   0.26570300
H   -2.98318206   -5.38529364   1.41635389
O   -8.09336787   0.79619612   6.30385159
H   -8.55256250   0.23419506   6.89992904
H   -8.37681522   0.60174569   5.40127552
O   -3.29497358   1.48456727   -6.01292100
H   -2.47259602   1.03605923   -5.90944566
H   -3.91685487   0.88624169   -5.55792480
O   11.71245444   -2.74135608   -2.13429348
H   11.32869959   -1.87520195   -2.39433864
H   12.09548099   -2.62847519   -1.25645961
O   -11.69667003   -4.87741936   -2.36206820
H   -12.61879129   -4.74774967   -2.05978641
H   -11.04760571   -4.26153214   -1.97287435
O   -11.28886262   4.16910177   -1.47280978
H   -11.02120769   4.83350853   -2.10949660
H   -10.91355599   3.31353148   -1.70634517
O   -7.53949018   -6.24290903   -3.17941479
H   -8.01290834   -6.00340280   -2.33423756
H   -6.59820912   -6.07656256   -2.98826003
O   -5.61144684   -3.64044426   2.34259610
H   -5.17753250   -4.13611992   1.65468423
H   -6.32089121   -3.06967624   2.03618832
O   -5.87881252   -6.50132095   -6.51686125
H   -5.07500419   -6.02334352   -6.60208759
H   -5.64784257   5.98549477   -6.17008313
O   -6.47098610   6.26811963   6.03497748
H   -0.92186809   -4.15957217   0.07918196
H   -6.78760484   6.15657292   6.88015867
O   -8.51681167   -5.71763850   -5.94615775
H   -7.61888084   -5.89685459   -6.32069643
H   -8.22866500   -5.46243318   -5.09218994
O   -5.05648734   -3.68413327   -0.73874144
H   -5.89939142   -3.21581506   -0.41564451
H   -5.49962080   -4.51713060   -0.91133653
O   -4.73608120   5.80766004   2.92063449
H   -4.75528846   -6.69575725   2.38959562
H   -5.21998688   5.90292678   3.73571507
O   10.38020089   5.73109486   -0.09961783
H   10.27471649   5.61291727   0.88035380
H   10.44661216   6.68740603   -0.15992653
O   -9.24438807   -2.48870859   2.14431499
H   -9.62238783   -2.90114044   1.37223638
H   -8.24481969   -2.44595815   2.00669818
O   0.48732434   1.32213868   -1.42423613
H   -0.34009807   1.55582444   -1.81979841
H   1.08542693   1.16309160   -2.15613834
O   5.41082830   4.39834853   -1.76528697
H   6.05339107   4.18783167   -1.06540933
H   5.84327769   4.70330203   -2.55938636
O   -11.68284128   -0.09505922   2.78012222
H   -10.92502318   0.04603186   3.31844813
H   -12.38264255   0.54454728   3.01095525
O   -1.45426181   -5.69464648   2.64208668
H   -1.25530147   -4.72887928   2.64531644
H   -1.31227971   -5.90492438   3.58987145
O   -8.97825827   -2.01331280   4.96271755
H   -9.69525641   -2.57208863   5.37020155
H   -9.05429927   -2.28667787   4.05775391
O   -0.95719762   -4.97761987   5.71508387
H   -0.25017787   -5.35161922   6.18588896
H   -0.50716640   -4.40563987   5.06539074
O   -6.11386783   3.92129967   -5.91928908
H   -5.55023811   3.25633857   -6.34155842
H   -6.16176433   3.60561754   -5.02091361
O   5.06814756   1.54117336   -0.87254604
H   4.15194013   1.47131984   -1.21941971
O   -0.65900565   -3.58101993   0.78007333
H   -1.40732567   -2.95457017   0.95800584
