850

C   -10.83372000   -5.92348000   -9.99936000
C   -8.29521000   -5.93640000   -9.94522000
C   -9.55061000   -5.18831000   -10.45552000
H   -8.31822000   -5.95744000   -8.83019000
H   -8.24285000   -2.97490000   -11.50028000
C   -8.27001000   -2.99651000   -10.38531000
C   -9.55517000   -3.73155000   -9.93366000
H   -9.52586000   -5.16885000   -11.57056000
C   -10.80751000   -2.98309000   -10.44997000
C   -12.09464000   -3.71514000   -9.99760000
C   -12.08973000   -5.17827000   -10.51362000
H   -12.06238000   -5.16248000   -11.62867000
H   -10.85879000   -5.94110000   -8.88439000
H   -9.58266000   -3.75105000   -8.81873000
H   -10.77891000   -2.96511000   -11.56488000
H   -12.12179000   -3.73102000   -8.88257000
C   -10.80958000   -1.52598000   -9.92871000
C   -8.27334000   -1.54074000   -9.85991000
C   -9.52223000   -0.79130000   -10.37726000
C   -12.05634000   -0.77553000   -10.44998000
H   -10.84134000   -1.54417000   -8.81387000
H   -8.30303000   -1.56221000   -8.74504000
H   -12.02233000   -0.75886000   -11.56508000
H   -9.49090000   -0.77173000   -11.49232000
C   -13.35186000   -1.50281000   -10.00394000
C   -13.35067000   -2.96551000   -10.51390000
C   -13.37728000   -5.91454000   -10.05955000
C   -14.57982000   -0.73155000   -10.52581000
C   -14.61981000   -3.71184000   -10.06135000
C   -14.61474000   -5.15517000   -10.57402000
H   -14.59332000   -0.73045000   -11.63797000
H   -13.39353000   -1.51510000   -8.89043000
H   -13.33061000   -2.95309000   -11.62802000
H   -14.69563000   -3.71328000   -8.95177000
H   -14.63581000   -5.15330000   -11.68597000
H   -13.41205000   -5.92663000   -8.94585000
C   -14.57212000   0.71360000   -10.01525000
C   -13.29030000   1.43389000   -10.44679000
C   -12.05218000   0.68543000   -9.93121000
C   -10.76819000   1.41011000   -10.37030000
C   -9.52472000   0.66715000   -9.85510000
C   -8.24102000   1.39593000   -10.29230000
H   -14.65358000   0.72112000   -8.90705000
H   -12.08626000   0.68116000   -8.81826000
H   -9.55815000   0.66028000   -8.74223000
H   -13.26671000   1.50464000   -11.55670000
H   -10.73400000   1.47890000   -11.48112000
H   -8.20781000   1.46860000   -11.40284000
C   -8.29019000   5.86553000   -10.46979000
C   -9.56920000   5.12956000   -10.01015000
C   -10.82604000   5.87716000   -10.51989000
H   -8.26961000   5.88640000   -11.58492000
C   -9.56239000   3.67060000   -10.53095000
H   -9.59028000   5.11092000   -8.89491000
C   -10.83663000   2.94123000   -10.07535000
C   -12.09009000   3.67874000   -10.57700000
C   -12.10435000   5.14013000   -10.05965000
H   -9.54342000   3.67652000   -11.64420000
H   -10.80404000   5.89488000   -11.63500000
H   -12.12496000   5.12405000   -8.94421000
H   -12.06964000   3.68234000   -11.69032000
H   -10.85674000   2.87352000   -8.96414000
C   -8.30795000   2.92929000   -10.03385000
H   -8.32563000   2.85846000   -8.92289000
C   -13.36876000   5.88056000   -10.56891000
C   -13.35977000   2.94368000   -10.12275000
C   -14.62892000   5.12248000   -10.10808000
C   -14.61113000   3.67694000   -10.61729000
H   -13.35554000   5.89256000   -11.68316000
H   -14.69725000   5.12234000   -8.99797000
H   -14.63788000   3.66938000   -11.72817000
H   -13.39160000   2.87367000   -9.01299000
C   -3.23472000   -5.92348000   -9.99936000
C   -0.69621000   -5.93640000   -9.94522000
C   -1.95161000   -5.18831000   -10.45552000
H   -0.71922000   -5.95744000   -8.83019000
H   -0.64385000   -2.97490000   -11.50028000
C   -0.67101000   -2.99651000   -10.38531000
C   -1.95617000   -3.73155000   -9.93366000
H   -1.92686000   -5.16885000   -11.57056000
C   -3.20851000   -2.98309000   -10.44997000
C   -4.49564000   -3.71514000   -9.99760000
C   -4.49073000   -5.17827000   -10.51362000
H   -4.46338000   -5.16248000   -11.62867000
H   -3.25979000   -5.94110000   -8.88439000
H   -1.98366000   -3.75105000   -8.81873000
H   -3.17991000   -2.96511000   -11.56488000
H   -4.52279000   -3.73102000   -8.88257000
C   -3.21058000   -1.52598000   -9.92871000
C   -0.67434000   -1.54074000   -9.85991000
C   -1.92323000   -0.79130000   -10.37726000
C   -4.45734000   -0.77553000   -10.44998000
H   -3.24234000   -1.54417000   -8.81387000
H   -0.70403000   -1.56221000   -8.74504000
H   -4.42333000   -0.75886000   -11.56508000
H   -1.89190000   -0.77173000   -11.49232000
C   -5.75286000   -1.50281000   -10.00394000
C   -5.75167000   -2.96551000   -10.51390000
C   -5.77828000   -5.91454000   -10.05955000
C   -6.98082000   -0.73155000   -10.52581000
C   -7.02081000   -3.71184000   -10.06135000
C   -7.01574000   -5.15517000   -10.57402000
H   -6.99432000   -0.73045000   -11.63797000
H   -5.79453000   -1.51510000   -8.89043000
H   -5.73161000   -2.95309000   -11.62802000
H   -7.09663000   -3.71328000   -8.95177000
H   -7.03681000   -5.15330000   -11.68597000
H   -5.81305000   -5.92663000   -8.94585000
C   -6.97312000   0.71360000   -10.01525000
C   -5.69130000   1.43389000   -10.44679000
C   -4.45318000   0.68543000   -9.93121000
C   -3.16919000   1.41011000   -10.37030000
C   -1.92572000   0.66715000   -9.85510000
C   -0.64202000   1.39593000   -10.29230000
H   -7.05458000   0.72112000   -8.90705000
H   -4.48726000   0.68116000   -8.81826000
H   -1.95915000   0.66028000   -8.74223000
H   -5.66771000   1.50464000   -11.55670000
H   -3.13500000   1.47890000   -11.48112000
H   -0.60881000   1.46860000   -11.40284000
C   -0.69119000   5.86553000   -10.46979000
C   -1.97020000   5.12956000   -10.01015000
C   -3.22704000   5.87716000   -10.51989000
H   -0.67061000   5.88640000   -11.58492000
C   -1.96339000   3.67060000   -10.53095000
H   -1.99128000   5.11092000   -8.89491000
C   -3.23763000   2.94123000   -10.07535000
C   -4.49109000   3.67874000   -10.57700000
C   -4.50535000   5.14013000   -10.05965000
H   -1.94442000   3.67652000   -11.64420000
H   -3.20504000   5.89488000   -11.63500000
H   -4.52596000   5.12405000   -8.94421000
H   -4.47064000   3.68234000   -11.69032000
H   -3.25774000   2.87352000   -8.96414000
C   -0.70895000   2.92929000   -10.03385000
H   -0.72663000   2.85846000   -8.92289000
C   -5.76976000   5.88056000   -10.56891000
C   -5.76077000   2.94368000   -10.12275000
C   -7.02992000   5.12248000   -10.10808000
C   -7.01213000   3.67694000   -10.61729000
H   -5.75654000   5.89256000   -11.68316000
H   -7.09825000   5.12234000   -8.99797000
H   -7.03888000   3.66938000   -11.72817000
H   -5.79260000   2.87367000   -9.01299000
C   4.36428000   -5.92348000   -9.99936000
C   6.90279000   -5.93640000   -9.94522000
C   5.64739000   -5.18831000   -10.45552000
H   6.87978000   -5.95744000   -8.83019000
H   6.95515000   -2.97490000   -11.50028000
C   6.92799000   -2.99651000   -10.38531000
C   5.64283000   -3.73155000   -9.93366000
H   5.67214000   -5.16885000   -11.57056000
C   4.39049000   -2.98309000   -10.44997000
C   3.10336000   -3.71514000   -9.99760000
C   3.10827000   -5.17827000   -10.51362000
H   3.13562000   -5.16248000   -11.62867000
H   4.33921000   -5.94110000   -8.88439000
H   5.61534000   -3.75105000   -8.81873000
H   4.41909000   -2.96511000   -11.56488000
H   3.07621000   -3.73102000   -8.88257000
C   4.38842000   -1.52598000   -9.92871000
C   6.92466000   -1.54074000   -9.85991000
C   5.67577000   -0.79130000   -10.37726000
C   3.14166000   -0.77553000   -10.44998000
H   4.35666000   -1.54417000   -8.81387000
H   6.89497000   -1.56221000   -8.74504000
H   3.17567000   -0.75886000   -11.56508000
H   5.70710000   -0.77173000   -11.49232000
C   1.84614000   -1.50281000   -10.00394000
C   1.84733000   -2.96551000   -10.51390000
C   1.82072000   -5.91454000   -10.05955000
C   0.61818000   -0.73155000   -10.52581000
C   0.57819000   -3.71184000   -10.06135000
C   0.58326000   -5.15517000   -10.57402000
H   0.60468000   -0.73045000   -11.63797000
H   1.80447000   -1.51510000   -8.89043000
H   1.86739000   -2.95309000   -11.62802000
H   0.50237000   -3.71328000   -8.95177000
H   0.56219000   -5.15330000   -11.68597000
H   1.78595000   -5.92663000   -8.94585000
C   0.62588000   0.71360000   -10.01525000
C   1.90770000   1.43389000   -10.44679000
C   3.14582000   0.68543000   -9.93121000
C   4.42981000   1.41011000   -10.37030000
C   5.67328000   0.66715000   -9.85510000
C   6.95698000   1.39593000   -10.29230000
H   0.54442000   0.72112000   -8.90705000
H   3.11174000   0.68116000   -8.81826000
H   5.63985000   0.66028000   -8.74223000
H   1.93129000   1.50464000   -11.55670000
H   4.46400000   1.47890000   -11.48112000
H   6.99019000   1.46860000   -11.40284000
C   6.90781000   5.86553000   -10.46979000
C   5.62880000   5.12956000   -10.01015000
C   4.37196000   5.87716000   -10.51989000
H   6.92839000   5.88640000   -11.58492000
C   5.63561000   3.67060000   -10.53095000
H   5.60772000   5.11092000   -8.89491000
C   4.36137000   2.94123000   -10.07535000
C   3.10791000   3.67874000   -10.57700000
C   3.09365000   5.14013000   -10.05965000
H   5.65458000   3.67652000   -11.64420000
H   4.39396000   5.89488000   -11.63500000
H   3.07304000   5.12405000   -8.94421000
H   3.12836000   3.68234000   -11.69032000
H   4.34126000   2.87352000   -8.96414000
C   6.89005000   2.92929000   -10.03385000
H   6.87237000   2.85846000   -8.92289000
C   1.82924000   5.88056000   -10.56891000
C   1.83823000   2.94368000   -10.12275000
C   0.56908000   5.12248000   -10.10808000
C   0.58687000   3.67694000   -10.61729000
H   1.84246000   5.89256000   -11.68316000
H   0.50075000   5.12234000   -8.99797000
H   0.56012000   3.66938000   -11.72817000
H   1.80640000   2.87367000   -9.01299000
C   11.96328000   -5.92348000   -9.99936000
C   14.50179000   -5.93640000   -9.94522000
C   13.24639000   -5.18831000   -10.45552000
H   14.47878000   -5.95744000   -8.83019000
H   14.55415000   -2.97490000   -11.50028000
C   14.52699000   -2.99651000   -10.38531000
C   13.24183000   -3.73155000   -9.93366000
H   13.27114000   -5.16885000   -11.57056000
C   11.98949000   -2.98309000   -10.44997000
C   10.70236000   -3.71514000   -9.99760000
C   10.70727000   -5.17827000   -10.51362000
H   10.73462000   -5.16248000   -11.62867000
H   11.93821000   -5.94110000   -8.88439000
H   13.21434000   -3.75105000   -8.81873000
H   12.01809000   -2.96511000   -11.56488000
H   10.67521000   -3.73102000   -8.88257000
C   11.98742000   -1.52598000   -9.92871000
C   14.52366000   -1.54074000   -9.85991000
C   13.27477000   -0.79130000   -10.37726000
C   10.74066000   -0.77553000   -10.44998000
H   11.95566000   -1.54417000   -8.81387000
H   14.49397000   -1.56221000   -8.74504000
H   10.77467000   -0.75886000   -11.56508000
H   13.30610000   -0.77173000   -11.49232000
C   9.44514000   -1.50281000   -10.00394000
C   9.44633000   -2.96551000   -10.51390000
C   9.41972000   -5.91454000   -10.05955000
C   8.21718000   -0.73155000   -10.52581000
C   8.17719000   -3.71184000   -10.06135000
C   8.18226000   -5.15517000   -10.57402000
H   8.20368000   -0.73045000   -11.63797000
H   9.40347000   -1.51510000   -8.89043000
H   9.46639000   -2.95309000   -11.62802000
H   8.10137000   -3.71328000   -8.95177000
H   8.16119000   -5.15330000   -11.68597000
H   9.38495000   -5.92663000   -8.94585000
C   8.22488000   0.71360000   -10.01525000
C   9.50670000   1.43389000   -10.44679000
C   10.74482000   0.68543000   -9.93121000
C   12.02881000   1.41011000   -10.37030000
C   13.27228000   0.66715000   -9.85510000
C   14.55598000   1.39593000   -10.29230000
H   8.14342000   0.72112000   -8.90705000
H   10.71074000   0.68116000   -8.81826000
H   13.23885000   0.66028000   -8.74223000
H   9.53029000   1.50464000   -11.55670000
H   12.06300000   1.47890000   -11.48112000
H   14.58919000   1.46860000   -11.40284000
C   14.50681000   5.86553000   -10.46979000
C   13.22780000   5.12956000   -10.01015000
C   11.97096000   5.87716000   -10.51989000
H   14.52739000   5.88640000   -11.58492000
C   13.23461000   3.67060000   -10.53095000
H   13.20672000   5.11092000   -8.89491000
C   11.96037000   2.94123000   -10.07535000
C   10.70691000   3.67874000   -10.57700000
C   10.69265000   5.14013000   -10.05965000
H   13.25358000   3.67652000   -11.64420000
H   11.99296000   5.89488000   -11.63500000
H   10.67204000   5.12405000   -8.94421000
H   10.72736000   3.68234000   -11.69032000
H   11.94026000   2.87352000   -8.96414000
C   14.48905000   2.92929000   -10.03385000
H   14.47137000   2.85846000   -8.92289000
C   9.42824000   5.88056000   -10.56891000
C   9.43723000   2.94368000   -10.12275000
C   8.16808000   5.12248000   -10.10808000
C   8.18587000   3.67694000   -10.61729000
H   9.44146000   5.89256000   -11.68316000
H   8.09975000   5.12234000   -8.99797000
H   8.15912000   3.66938000   -11.72817000
H   9.40540000   2.87367000   -9.01299000
C   -10.83372000   -5.92348000   10.00064000
C   -8.29521000   -5.93640000   10.05478000
C   -9.55061000   -5.18831000   9.54448000
H   -8.31822000   -5.95744000   11.16981000
H   -8.24285000   -2.97490000   8.49972000
C   -8.27001000   -2.99651000   9.61469000
C   -9.55517000   -3.73155000   10.06634000
H   -9.52586000   -5.16885000   8.42944000
C   -10.80751000   -2.98309000   9.55003000
C   -12.09464000   -3.71514000   10.00240000
C   -12.08973000   -5.17827000   9.48638000
H   -12.06238000   -5.16248000   8.37133000
H   -10.85879000   -5.94110000   11.11561000
H   -9.58266000   -3.75105000   11.18127000
H   -10.77891000   -2.96511000   8.43512000
H   -12.12179000   -3.73102000   11.11743000
C   -10.80958000   -1.52598000   10.07129000
C   -8.27334000   -1.54074000   10.14009000
C   -9.52223000   -0.79130000   9.62274000
C   -12.05634000   -0.77553000   9.55002000
H   -10.84134000   -1.54417000   11.18613000
H   -8.30303000   -1.56221000   11.25496000
H   -12.02233000   -0.75886000   8.43492000
H   -9.49090000   -0.77173000   8.50768000
C   -13.35186000   -1.50281000   9.99606000
C   -13.35067000   -2.96551000   9.48610000
C   -13.37728000   -5.91454000   9.94045000
C   -14.57982000   -0.73155000   9.47419000
C   -14.61981000   -3.71184000   9.93865000
C   -14.61474000   -5.15517000   9.42598000
H   -14.59332000   -0.73045000   8.36203000
H   -13.39353000   -1.51510000   11.10957000
H   -13.33061000   -2.95309000   8.37198000
H   -14.69563000   -3.71328000   11.04823000
H   -14.63581000   -5.15330000   8.31403000
H   -13.41205000   -5.92663000   11.05415000
C   -14.57212000   0.71360000   9.98475000
C   -13.29030000   1.43389000   9.55321000
C   -12.05218000   0.68543000   10.06879000
C   -10.76819000   1.41011000   9.62970000
C   -9.52472000   0.66715000   10.14490000
C   -8.24102000   1.39593000   9.70770000
H   -14.65358000   0.72112000   11.09295000
H   -12.08626000   0.68116000   11.18174000
H   -9.55815000   0.66028000   11.25777000
H   -13.26671000   1.50464000   8.44330000
H   -10.73400000   1.47890000   8.51888000
H   -8.20781000   1.46860000   8.59716000
C   -8.29019000   5.86553000   9.53021000
C   -9.56920000   5.12956000   9.98985000
C   -10.82604000   5.87716000   9.48011000
H   -8.26961000   5.88640000   8.41508000
C   -9.56239000   3.67060000   9.46905000
H   -9.59028000   5.11092000   11.10509000
C   -10.83663000   2.94123000   9.92465000
C   -12.09009000   3.67874000   9.42300000
C   -12.10435000   5.14013000   9.94035000
H   -9.54342000   3.67652000   8.35580000
H   -10.80404000   5.89488000   8.36500000
H   -12.12496000   5.12405000   11.05579000
H   -12.06964000   3.68234000   8.30968000
H   -10.85674000   2.87352000   11.03586000
C   -8.30795000   2.92929000   9.96615000
H   -8.32563000   2.85846000   11.07711000
C   -13.36876000   5.88056000   9.43109000
C   -13.35977000   2.94368000   9.87725000
C   -14.62892000   5.12248000   9.89192000
C   -14.61113000   3.67694000   9.38271000
H   -13.35554000   5.89256000   8.31684000
H   -14.69725000   5.12234000   11.00203000
H   -14.63788000   3.66938000   8.27183000
H   -13.39160000   2.87367000   10.98701000
C   -3.23472000   -5.92348000   10.00064000
C   -0.69621000   -5.93640000   10.05478000
C   -1.95161000   -5.18831000   9.54448000
H   -0.71922000   -5.95744000   11.16981000
H   -0.64385000   -2.97490000   8.49972000
C   -0.67101000   -2.99651000   9.61469000
C   -1.95617000   -3.73155000   10.06634000
H   -1.92686000   -5.16885000   8.42944000
C   -3.20851000   -2.98309000   9.55003000
C   -4.49564000   -3.71514000   10.00240000
C   -4.49073000   -5.17827000   9.48638000
H   -4.46338000   -5.16248000   8.37133000
H   -3.25979000   -5.94110000   11.11561000
H   -1.98366000   -3.75105000   11.18127000
H   -3.17991000   -2.96511000   8.43512000
H   -4.52279000   -3.73102000   11.11743000
C   -3.21058000   -1.52598000   10.07129000
C   -0.67434000   -1.54074000   10.14009000
C   -1.92323000   -0.79130000   9.62274000
C   -4.45734000   -0.77553000   9.55002000
H   -3.24234000   -1.54417000   11.18613000
H   -0.70403000   -1.56221000   11.25496000
H   -1.89190000   -0.77173000   8.50768000
C   -5.75286000   -1.50281000   9.99606000
C   -5.75167000   -2.96551000   9.48610000
C   -5.77828000   -5.91454000   9.94045000
C   -6.98082000   -0.73155000   9.47419000
C   -7.02081000   -3.71184000   9.93865000
C   -7.01574000   -5.15517000   9.42598000
H   -6.99432000   -0.73045000   8.36203000
H   -5.79453000   -1.51510000   11.10957000
H   -5.73161000   -2.95309000   8.37198000
H   -7.09663000   -3.71328000   11.04823000
H   -7.03681000   -5.15330000   8.31403000
H   -5.81305000   -5.92663000   11.05415000
C   -6.97312000   0.71360000   9.98475000
C   -5.69130000   1.43389000   9.55321000
C   -4.45318000   0.68543000   10.06879000
C   -3.16919000   1.41011000   9.62970000
C   -1.92572000   0.66715000   10.14490000
C   -0.64202000   1.39593000   9.70770000
H   -7.05458000   0.72112000   11.09295000
H   -4.48726000   0.68116000   11.18174000
H   -1.95915000   0.66028000   11.25777000
H   -5.66771000   1.50464000   8.44330000
H   -3.13500000   1.47890000   8.51888000
H   -0.60881000   1.46860000   8.59716000
C   -0.69119000   5.86553000   9.53021000
C   -1.97020000   5.12956000   9.98985000
C   -3.22704000   5.87716000   9.48011000
H   -0.67061000   5.88640000   8.41508000
C   -1.96339000   3.67060000   9.46905000
H   -1.99128000   5.11092000   11.10509000
C   -3.23763000   2.94123000   9.92465000
C   -4.49109000   3.67874000   9.42300000
C   -4.50535000   5.14013000   9.94035000
H   -1.94442000   3.67652000   8.35580000
H   -3.20504000   5.89488000   8.36500000
H   -4.52596000   5.12405000   11.05579000
H   -4.47064000   3.68234000   8.30968000
H   -3.25774000   2.87352000   11.03586000
C   -0.70895000   2.92929000   9.96615000
H   -0.72663000   2.85846000   11.07711000
C   -5.76976000   5.88056000   9.43109000
C   -5.76077000   2.94368000   9.87725000
C   -7.02992000   5.12248000   9.89192000
C   -7.01213000   3.67694000   9.38271000
H   -5.75654000   5.89256000   8.31684000
H   -7.09825000   5.12234000   11.00203000
H   -7.03888000   3.66938000   8.27183000
H   -5.79260000   2.87367000   10.98701000
C   4.36428000   -5.92348000   10.00064000
C   6.90279000   -5.93640000   10.05478000
C   5.64739000   -5.18831000   9.54448000
H   6.87978000   -5.95744000   11.16981000
H   6.95515000   -2.97490000   8.49972000
C   6.92799000   -2.99651000   9.61469000
C   5.64283000   -3.73155000   10.06634000
H   5.67214000   -5.16885000   8.42944000
C   4.39049000   -2.98309000   9.55003000
C   3.10336000   -3.71514000   10.00240000
C   3.10827000   -5.17827000   9.48638000
H   3.13562000   -5.16248000   8.37133000
H   4.33921000   -5.94110000   11.11561000
H   5.61534000   -3.75105000   11.18127000
H   4.41909000   -2.96511000   8.43512000
H   3.07621000   -3.73102000   11.11743000
C   4.38842000   -1.52598000   10.07129000
C   6.92466000   -1.54074000   10.14009000
C   5.67577000   -0.79130000   9.62274000
C   3.14166000   -0.77553000   9.55002000
H   4.35666000   -1.54417000   11.18613000
H   6.89497000   -1.56221000   11.25496000
H   3.17567000   -0.75886000   8.43492000
C   1.84614000   -1.50281000   9.99606000
C   1.84733000   -2.96551000   9.48610000
C   1.82072000   -5.91454000   9.94045000
C   0.61818000   -0.73155000   9.47419000
C   0.57819000   -3.71184000   9.93865000
C   0.58326000   -5.15517000   9.42598000
H   0.60468000   -0.73045000   8.36203000
H   1.80447000   -1.51510000   11.10957000
H   1.86739000   -2.95309000   8.37198000
H   0.50237000   -3.71328000   11.04823000
H   0.56219000   -5.15330000   8.31403000
H   1.78595000   -5.92663000   11.05415000
C   0.62588000   0.71360000   9.98475000
C   1.90770000   1.43389000   9.55321000
C   3.14582000   0.68543000   10.06879000
C   4.42981000   1.41011000   9.62970000
C   5.67328000   0.66715000   10.14490000
C   6.95698000   1.39593000   9.70770000
H   0.54442000   0.72112000   11.09295000
H   3.11174000   0.68116000   11.18174000
H   5.63985000   0.66028000   11.25777000
H   1.93129000   1.50464000   8.44330000
H   4.46400000   1.47890000   8.51888000
H   6.99019000   1.46860000   8.59716000
C   6.90781000   5.86553000   9.53021000
C   5.62880000   5.12956000   9.98985000
C   4.37196000   5.87716000   9.48011000
H   6.92839000   5.88640000   8.41508000
C   5.63561000   3.67060000   9.46905000
H   5.60772000   5.11092000   11.10509000
C   4.36137000   2.94123000   9.92465000
C   3.10791000   3.67874000   9.42300000
C   3.09365000   5.14013000   9.94035000
H   5.65458000   3.67652000   8.35580000
H   4.39396000   5.89488000   8.36500000
H   3.07304000   5.12405000   11.05579000
H   3.12836000   3.68234000   8.30968000
H   4.34126000   2.87352000   11.03586000
C   6.89005000   2.92929000   9.96615000
H   6.87237000   2.85846000   11.07711000
C   1.82924000   5.88056000   9.43109000
C   1.83823000   2.94368000   9.87725000
C   0.56908000   5.12248000   9.89192000
C   0.58687000   3.67694000   9.38271000
H   1.84246000   5.89256000   8.31684000
H   0.50075000   5.12234000   11.00203000
H   0.56012000   3.66938000   8.27183000
H   1.80640000   2.87367000   10.98701000
C   11.96328000   -5.92348000   10.00064000
C   14.50179000   -5.93640000   10.05478000
C   13.24639000   -5.18831000   9.54448000
H   14.47878000   -5.95744000   11.16981000
H   14.55415000   -2.97490000   8.49972000
C   14.52699000   -2.99651000   9.61469000
C   13.24183000   -3.73155000   10.06634000
H   13.27114000   -5.16885000   8.42944000
C   11.98949000   -2.98309000   9.55003000
C   10.70236000   -3.71514000   10.00240000
C   10.70727000   -5.17827000   9.48638000
H   10.73462000   -5.16248000   8.37133000
H   11.93821000   -5.94110000   11.11561000
H   13.21434000   -3.75105000   11.18127000
H   12.01809000   -2.96511000   8.43512000
H   10.67521000   -3.73102000   11.11743000
C   11.98742000   -1.52598000   10.07129000
C   14.52366000   -1.54074000   10.14009000
C   13.27477000   -0.79130000   9.62274000
C   10.74066000   -0.77553000   9.55002000
H   11.95566000   -1.54417000   11.18613000
H   14.49397000   -1.56221000   11.25496000
H   10.77467000   -0.75886000   8.43492000
H   13.30610000   -0.77173000   8.50768000
C   9.44514000   -1.50281000   9.99606000
C   9.44633000   -2.96551000   9.48610000
C   9.41972000   -5.91454000   9.94045000
C   8.21718000   -0.73155000   9.47419000
C   8.17719000   -3.71184000   9.93865000
C   8.18226000   -5.15517000   9.42598000
H   8.20368000   -0.73045000   8.36203000
H   9.40347000   -1.51510000   11.10957000
H   9.46639000   -2.95309000   8.37198000
H   8.10137000   -3.71328000   11.04823000
H   8.16119000   -5.15330000   8.31403000
H   9.38495000   -5.92663000   11.05415000
C   8.22488000   0.71360000   9.98475000
C   9.50670000   1.43389000   9.55321000
C   10.74482000   0.68543000   10.06879000
C   12.02881000   1.41011000   9.62970000
C   13.27228000   0.66715000   10.14490000
C   14.55598000   1.39593000   9.70770000
H   8.14342000   0.72112000   11.09295000
H   10.71074000   0.68116000   11.18174000
H   13.23885000   0.66028000   11.25777000
H   9.53029000   1.50464000   8.44330000
H   12.06300000   1.47890000   8.51888000
H   14.58919000   1.46860000   8.59716000
C   14.50681000   5.86553000   9.53021000
C   13.22780000   5.12956000   9.98985000
C   11.97096000   5.87716000   9.48011000
H   14.52739000   5.88640000   8.41508000
C   13.23461000   3.67060000   9.46905000
H   13.20672000   5.11092000   11.10509000
C   11.96037000   2.94123000   9.92465000
C   10.70691000   3.67874000   9.42300000
C   10.69265000   5.14013000   9.94035000
H   13.25358000   3.67652000   8.35580000
H   11.99296000   5.89488000   8.36500000
H   10.67204000   5.12405000   11.05579000
H   10.72736000   3.68234000   8.30968000
H   11.94026000   2.87352000   11.03586000
C   14.48905000   2.92929000   9.96615000
H   14.47137000   2.85846000   11.07711000
C   9.42824000   5.88056000   9.43109000
C   9.43723000   2.94368000   9.87725000
C   8.16808000   5.12248000   9.89192000
C   8.18587000   3.67694000   9.38271000
H   9.44146000   5.89256000   8.31684000
H   8.09975000   5.12234000   11.00203000
H   8.15912000   3.66938000   8.27183000
H   9.40540000   2.87367000   10.98701000
N   -4.82367149   -0.42261683   5.29671844
C   -5.47379983   -0.56042574   6.82521710
H   -6.10506565   0.35884685   6.94446172
H   -6.04324242   -1.44727648   6.71533853
C   -4.36858229   -0.80799582   7.93179264
H   -3.93718117   -1.76356613   7.58486782
H   -3.58225130   -0.06431061   7.73048457
C   -4.05595940   0.90944235   5.11463193
H   -4.72814288   1.74679688   5.45240426
H   -3.21271736   1.00344814   5.79801367
H   -3.79973251   0.97782827   4.12546543
C   -6.02612225   -0.36358804   4.36369748
H   -6.68255797   0.51775745   4.33187156
H   -5.69600051   -0.59569839   3.41841496
H   -6.61027101   -1.27110632   4.60027416
C   -3.89254888   -1.52088796   4.89164752
H   -3.12008493   -1.54850772   5.62928730
H   -4.30903657   -2.49911495   4.76383922
H   -3.50328358   -1.22412290   3.87960886
N   4.42813913   -0.28131644   1.20875939
C   4.84547748   0.38348874   2.55276604
H   4.85784987   1.44888339   2.32563798
H   4.09600463   0.14433612   3.31617298
C   6.29772680   0.01860162   3.08120098
H   6.45594167   -1.11713837   3.25764059
H   6.98896256   0.35790661   2.36532053
C   5.56715169   -0.83583032   7.94767975
H   4.50864166   -0.89318483   7.62743898
H   6.06429567   -1.79649103   7.65334487
C   6.15109631   0.16443637   6.94204520
H   5.78903430   1.15584701   6.98425187
H   7.24269249   0.21801154   7.16595350
C   5.85657179   -0.31652327   5.54105031
H   4.68339648   -0.35781063   5.36638975
H   6.37244276   -1.24705170   5.36868332
C   6.53322884   0.63265464   4.47038964
H   6.15904418   1.68852134   4.59840048
H   7.64239622   0.62315843   4.58385010
C   5.33522460   0.15144883   0.15713855
H   6.23771210   -0.49026428   0.19222952
H   5.69847099   1.20031550   0.39552007
H   4.95326503   0.03139993   -0.83297984
C   3.06120784   0.19520759   0.82696605
H   2.22461880   -0.15478431   1.49235163
H   2.90271820   -0.28710879   -0.12567011
H   3.01494164   1.24170946   0.80961090
C   4.41941778   -1.73074539   1.37506638
H   4.28449816   -2.29484951   0.46038223
H   3.52462761   -1.86646007   1.95539717
H   5.32522847   -2.01078354   1.88916710
O   0.66577926   -0.89362564   3.19866285
H   0.10313266   -1.61427745   3.63288473
H   2.42112745   3.76224703   0.62525900
O   -10.11071353   4.20436621   1.26477803
H   -10.29225174   3.46628798   0.69816092
H   -9.13761540   4.13815603   1.31212686
O   0.50559375   3.16552402   5.76796249
H   1.01533492   2.58790575   6.36009235
H   -0.40054907   2.86922600   5.77839637
O   -5.35095197   -3.73042611   0.95296424
H   -4.58328722   -3.51940888   1.49963741
H   -5.13302012   -4.56173273   0.50646044
O   -0.59263717   0.81604225   4.71801277
H   -0.03447948   0.37651719   4.02119005
H   -1.50644256   0.51213625   4.64575826
O   -2.13140985   -2.73564412   2.34509710
H   -1.60528537   -1.96352583   2.11253735
H   -1.77722769   -3.39142586   1.76452355
O   -7.44282865   -2.15441987   2.18553199
H   -7.92678960   -1.95999287   1.40107361
H   -6.73037991   -2.78473602   1.92270932
O   1.06911392   -2.46715121   0.99149198
H   0.95263483   -1.98057550   1.84829826
H   0.09437386   -2.51102839   0.76061748
O   9.03347246   6.62250069   -1.98911999
H   9.31241547   -6.35220563   -1.17942921
H   8.11402533   6.42149209   -1.96890047
O   -9.63754140   -1.62843585   5.38685510
H   -10.39413155   -2.22285367   5.32654733
H   -4.65226197   -6.68888482   5.67957867
O   -0.72777819   -0.30086903   0.94360139
H   -0.08405005   -0.27885996   1.74570940
H   -0.58996833   -0.98926230   0.29005175
O   -2.48731782   3.58675857   5.53770435
H   -2.11299157   4.19399067   4.86083085
H   -3.43884784   3.59919543   5.36862933
O   -0.76488764   -5.00351509   0.35514589
H   0.21642005   -5.13998669   0.30138482
H   -1.18583252   -5.87222322   0.19014034
O   -8.85256026   -3.43276558   -0.94229609
H   -8.33025758   -3.94799020   -1.60339870
H   -9.20968658   -2.62959748   -1.33960563
O   -3.69140831   -5.94754863   0.00808156
H   -2.82276447   -6.11201115   0.36210277
H   -4.22490364   -6.55803834   0.53519638
O   -4.51862525   5.48247054   1.87960756
H   -5.26709537   5.22653943   1.27417342
H   -4.54630081   4.88164989   2.61742832
O   2.20052306   1.87730681   3.21368146
H   1.32990773   2.26065766   3.25219428
H   2.34191652   1.37747989   4.08688917
O   -7.26101559   -3.27034074   6.19609586
H   -7.23289947   -4.11621028   5.69632256
H   -8.17842300   -2.93963592   5.98004178
O   8.70379389   6.69346236   3.98796075
H   9.15353907   5.91203210   3.63459398
H   8.67882773   6.55139888   4.91044342
O   5.96046720   3.77493973   -2.12086695
H   5.05509858   3.89310247   -2.37899902
H   6.02255673   4.12737071   -1.20786191
O   -8.63316115   -5.82903133   -5.59622072
H   -7.89128266   -6.40703723   -5.50970073
H   -8.88589729   -5.86913931   -6.52906156
O   -6.26043230   -3.15451626   -6.26827445
H   -6.64367683   -2.35665270   -5.92746488
H   -5.76106211   -2.86104750   -7.05253295
O   14.57466739   -0.59593607   4.02833466
H   15.05071252   0.14574641   4.44960696
H   13.99783369   -1.06972097   4.56422366
O   -7.05697689   5.71986430   3.51426101
H   -7.87463590   5.53897831   3.91964339
H   -9.23053706   -1.61140215   4.49456379
O   -7.26772772   4.47125559   1.10500462
H   -7.10473434   5.20314256   2.66457553
H   -7.46639600   5.33834731   0.73607553
O   0.33747401   3.30991051   0.72426777
H   -0.16221140   4.13251983   0.73232272
H   -0.07429412   2.68622456   1.26556941
O   -1.76100349   1.20032461   -1.96191943
H   -1.05386617   1.80868762   -2.12825079
H   -1.61902094   1.10995086   -1.01652769
O   8.80607917   -5.05994808   1.43811701
H   9.06038471   -5.97812875   1.06904327
H   8.14730084   -5.33958068   2.10745616
O   -6.89202154   -0.31427949   -6.62065812
H   -6.23134184   0.20998533   -7.00287110
H   -7.56248911   0.34253821   -6.33859719
O   5.32523805   -1.29985514   -3.62978922
H   5.15207368   -2.21398647   -3.96742641
H   6.12638656   -1.26126405   -3.12326082
O   -10.72791899   -5.76066714   0.02848141
H   -10.49266514   -6.22641010   0.86835159
H   -10.16981547   -4.97628084   -0.05801294
O   -6.17277992   5.54440525   -3.96707824
H   -5.50539956   4.90976073   -3.77707978
H   -6.87856199   5.37442039   -3.37034699
O   -10.91557202   -4.31981707   4.21169769
H   -10.40228754   -4.61886998   4.99622984
H   -10.82273394   -5.03854642   3.58990570
O   -5.15193676   3.57113757   4.27154533
H   -5.98466114   3.19039746   3.82409552
H   -5.40969859   4.50139035   4.34057368
O   -3.10250973   -0.40529424   -4.03045977
H   -3.67899333   -1.20686217   -3.84664433
H   -2.82855987   -0.19524154   -3.17209113
O   -6.45375501   -5.08640480   4.18647481
H   -6.68916070   -6.06967356   3.96766744
H   -6.12535310   -4.72691685   3.35045517
O   -14.10970485   -3.57547250   2.43064104
H   -13.35133527   -3.39149643   1.92360039
H   -13.92666168   -3.07296100   3.32704278
O   -10.57134012   1.78192001   2.70315699
H   -10.68179006   2.72995112   2.56324793
H   -11.28364702   1.28519593   2.31146771
O   -5.09383453   2.28690887   -0.23681391
H   -5.22570573   2.70483985   0.68866133
H   -5.82503989   1.57575016   -0.15583897
O   -0.20091088   -0.28528748   -4.26822891
H   -0.39019224   0.13823063   -3.39187602
H   -1.01730060   -0.58112042   -4.58527209
O   -0.62901712   5.74618988   -0.80156826
H   -1.10919360   5.22213990   -1.50109805
H   0.28693752   5.75629607   -1.07125343
O   -4.66043039   1.43369400   -5.69641929
H   -4.12712456   0.72166965   -5.35551851
H   -4.84410285   2.02821719   -4.97594403
O   9.38062193   2.48618406   -4.43728090
H   8.56146207   2.80829923   -4.89442857
H   10.06743178   2.86679575   -4.96015432
O   -8.59686815   5.55311502   -2.02510722
H   -8.39653986   4.79866430   -1.41813491
H   -8.92224341   6.32609163   -1.51635157
O   -8.33876033   -3.44730198   -3.56077538
H   -7.89009830   -3.48321278   -4.40634727
H   -8.93997751   -4.19841815   -3.57553912
O   2.64235288   -0.63718440   -2.57942688
H   1.91645818   -0.61445953   -3.22206063
H   3.46845160   -0.66880581   -3.04274318
O   5.77761385   -5.52106083   -5.29567897
H   6.22089242   -5.35011165   -4.49428030
H   6.35513636   -4.99580644   -5.90007763
O   -2.09547302   3.99862065   -2.18887737
H   -2.66324298   4.44729041   -2.84054955
H   -2.62126824   3.30530480   -1.70831760
O   -3.40937615   0.02699364   2.12084468
H   -2.50257493   0.10992482   1.76000056
H   -4.14082599   -0.05956243   1.56491511
O   -6.64770432   2.09134981   2.39923366
H   -6.95211175   1.28285828   2.04495325
H   -6.96278374   2.91121646   1.94614789
O   6.19502711   3.86377665   -6.41877832
H   5.76260623   3.09547664   -6.02827076
H   5.47015475   4.59663091   -6.41081254
O   -4.88934147   2.84012370   -2.88739430
H   -5.27788056   3.12261873   -2.02358441
H   -4.17493420   2.23781517   -2.62421918
O   1.05626752   -4.25769124   3.24088478
H   1.57748291   -3.45224271   3.32301557
H   0.43671473   -4.15238751   2.51850357
O   9.98626473   5.49972095   1.67739727
H   9.89532802   4.89543835   0.93586070
H   10.84926445   5.96419505   1.69597200
O   7.36084744   0.73859527   -3.00956715
H   8.11397670   0.76647281   -3.66218101
H   7.39859769   1.62070410   -2.62090216
O   -0.97940018   -2.38174139   -1.29989904
H   -0.59901084   -3.23661753   -1.29275009
H   -1.93397674   -2.56511802   -1.23220372
O   -5.57450604   -5.40482712   -2.20257785
H   -4.68664975   -5.64194905   -1.85434400
H   -5.83930563   -5.92792029   -2.96049286
O   -11.23347647   6.39918606   2.54289505
H   -12.19237063   6.32976919   2.37376206
H   -10.82999972   5.57291547   2.22305036
O   0.39590076   6.18243436   2.69181816
H   0.76396429   -6.23434305   2.86008994
H   -0.06403514   5.90213385   3.50219636
O   2.72067549   -0.36632676   4.79363191
H   2.21223829   -0.06606493   5.59524933
H   1.91124810   -0.60957673   4.06868592
O   3.90682537   -6.68884930   2.13266184
H   3.93974236   -6.23787454   2.98512154
H   3.55020772   5.80411684   2.26869293
O   -2.69116364   -6.60957564   3.89497632
H   6.20875294   -4.28158056   -0.41311795
H   -3.23100490   6.16804462   3.33359722
O   12.68491915   -2.28162129   4.95155152
H   12.27162243   -2.21737649   4.12410453
H   13.55372782   -2.71574713   4.84194554
O   4.65310634   -5.59433046   -2.03250418
H   5.17277283   -6.28133567   -2.48300400
H   4.74202481   -4.74687858   -2.55070648
O   -7.69311608   2.62171914   -0.95298256
H   -7.07713116   2.97664680   -1.57539083
H   -7.60373267   3.25385785   -0.17090051
O   2.25919286   -5.48560324   -0.11410313
H   2.22017798   -5.74078828   0.83148591
H   3.19402932   -5.34689939   -0.36892969
O   -5.30060795   -0.79475084   0.09344940
H   -5.03733520   -1.61795414   0.51010392
H   -5.28371872   -0.67914100   -0.85710578
O   6.33478174   5.47847760   0.86078299
H   6.80185733   5.93076289   1.60516792
H   5.43758468   5.78948766   1.03528205
O   -12.41428190   5.63432885   -1.32262304
H   -11.61438709   5.79974486   -1.84905262
H   -12.37978256   6.26360458   -0.58697017
O   -8.86246164   0.09158822   -0.33259010
H   -8.91274827   1.05482665   -0.27380345
H   -8.95005089   -0.08572450   -1.27089630
O   1.73922148   -6.69385487   -2.48810518
H   1.51526421   -5.88374712   -2.95629400
H   1.80164142   -6.48825639   -1.51581685
O   -4.14580341   -3.13892818   -3.22425742
H   -4.83202449   -3.30790103   -3.88381029
H   -4.43871110   -3.38633790   -2.29825904
O   -5.64620064   5.17568462   -1.01570606
H   -5.89018621   6.09003823   -1.05237330
H   -6.19674787   4.76486162   -0.31854818
O   -4.26721274   6.00590085   6.25330654
H   -2.73199127   -5.66406781   3.57278816
H   -3.52613695   5.57930656   5.83513973
O   3.16861792   3.97728270   1.23884291
H   2.95222481   3.49862064   2.05357629
O   6.81640758   -3.58552125   -0.15092169
H   7.70841813   -3.93881900   -0.02174426
