#
Geometry = GenFormat {
462 S
C  H  O N
1    1   -6.96632000   -5.60023000   7.13173000
2    1   -4.42781000   -5.61315000   7.07759000
3    1   -5.68321000   -4.86506000   7.58789000
4    2   -4.45082000   -5.63419000   5.96256000
5    2   -4.37545000   -2.65165000   8.63265000
6    1   -4.40261000   -2.67326000   7.51768000
7    1   -5.68777000   -3.40830000   7.06603000
8    2   -5.65846000   -4.84560000   8.70293000
9    1   -6.94011000   -2.65984000   7.58234000
10    1   -8.22724000   -3.39189000   7.12997000
11    1   -8.22233000   -4.85502000   7.64599000
12    2   -8.19498000   -4.83923000   8.76104000
13    2   -6.99139000   -5.61785000   6.01676000
14    2   -5.71526000   -3.42780000   5.95110000
15    2   -6.91151000   -2.64186000   8.69725000
16    2   -8.25439000   -3.40777000   6.01494000
17    1   -6.94218000   -1.20273000   7.06108000
18    1   -4.40594000   -1.21749000   6.99228000
19    1   -5.65483000   -0.46805000   7.50963000
20    1   -8.18894000   -0.45228000   7.58235000
21    2   -6.97394000   -1.22092000   5.94624000
22    2   -8.15493000   -0.43561000   8.69745000
23    2   -5.62350000   -0.44848000   8.62469000
24    1   -9.48446000   -1.17956000   7.13631000
25    1   -9.48327000   -2.64226000   7.64627000
26    1   -9.50988000   -5.59129000   7.19192000
27    1   -10.71242000   -0.40830000   7.65818000
28    1   -10.75241000   -3.38859000   7.19372000
29    1   -10.74734000   -4.83192000   7.70639000
30    2   -10.72592000   -0.40720000   8.77034000
31    2   -9.52613000   -1.19185000   6.02280000
32    2   -9.46321000   -2.62984000   8.76039000
33    2   -10.82823000   -3.39003000   6.08414000
34    2   -10.76841000   -4.83005000   8.81834000
35    2   -9.54465000   -5.60338000   6.07822000
36    1   -10.70472000   1.03685000   7.14762000
37    1   -9.42290000   1.75714000   7.57916000
38    1   -8.18478000   1.00868000   7.06358000
39    1   -6.90079000   1.73336000   7.50267000
40    1   -5.65732000   0.99040000   6.98747000
41    1   -4.37362000   1.71918000   7.42467000
42    2   -10.78618000   1.04437000   6.03942000
43    2   -8.21886000   1.00441000   5.95063000
44    2   -5.69075000   0.98353000   5.87460000
45    2   -9.39931000   1.82789000   8.68907000
46    2   -6.86660000   1.80215000   8.61349000
47    2   -4.34041000   1.79185000   8.53521000
48    1   -4.42279000   6.18878000   7.60216000
49    1   -5.70180000   5.45281000   7.14252000
50    1   -6.95864000   6.20041000   7.65226000
51    2   -4.40221000   6.20965000   8.71729000
52    1   -5.69499000   3.99385000   7.66332000
53    2   -5.72288000   5.43417000   6.02728000
54    1   -6.96923000   3.26448000   7.20772000
55    1   -8.22269000   4.00199000   7.70937000
56    1   -8.23695000   5.46338000   7.19202000
57    2   -5.67602000   3.99977000   8.77657000
58    2   -6.93664000   6.21813000   8.76737000
59    2   -8.25756000   5.44730000   6.07658000
60    2   -8.20224000   4.00559000   8.82269000
61    2   -6.98934000   3.19677000   6.09651000
62    1   -4.44055000   3.25254000   7.16622000
63    2   -4.45823000   3.18171000   6.05526000
64    1   -9.50136000   6.20381000   7.70128000
65    1   -9.49237000   3.26693000   7.25512000
66    1   -10.76152000   5.44573000   7.24045000
67    1   -10.74373000   4.00019000   7.74966000
68    2   -9.48814000   6.21581000   8.81553000
69    2   -10.82985000   5.44559000   6.13034000
70    2   -10.77048000   3.99263000   8.86054000
71    2   -9.52420000   3.19692000   6.14536000
72    1   0.63268000   -5.60023000   7.13173000
73    1   3.17119000   -5.61315000   7.07759000
74    1   1.91579000   -4.86506000   7.58789000
75    2   3.14818000   -5.63419000   5.96256000
76    2   3.22355000   -2.65165000   8.63265000
77    1   3.19639000   -2.67326000   7.51768000
78    1   1.91123000   -3.40830000   7.06603000
79    2   1.94054000   -4.84560000   8.70293000
80    1   0.65889000   -2.65984000   7.58234000
81    1   -0.62824000   -3.39189000   7.12997000
82    1   -0.62333000   -4.85502000   7.64599000
83    2   -0.59598000   -4.83923000   8.76104000
84    2   0.60761000   -5.61785000   6.01676000
85    2   1.88374000   -3.42780000   5.95110000
86    2   0.68749000   -2.64186000   8.69725000
87    2   -0.65539000   -3.40777000   6.01494000
88    1   0.65682000   -1.20273000   7.06108000
89    1   3.19306000   -1.21749000   6.99228000
90    1   1.94417000   -0.46805000   7.50963000
91    1   -0.58994000   -0.45228000   7.58235000
92    2   0.62506000   -1.22092000   5.94624000
93    2   3.16337000   -1.23896000   5.87741000
94    2   -0.55593000   -0.43561000   8.69745000
95    2   1.97550000   -0.44848000   8.62469000
96    1   -1.88546000   -1.17956000   7.13631000
97    1   -1.88427000   -2.64226000   7.64627000
98    1   -1.91088000   -5.59129000   7.19192000
99    1   -3.11342000   -0.40830000   7.65818000
100    1   -3.15341000   -3.38859000   7.19372000
101    1   -3.14834000   -4.83192000   7.70639000
102    2   -3.12692000   -0.40720000   8.77034000
103    2   -1.92713000   -1.19185000   6.02280000
104    2   -1.86421000   -2.62984000   8.76039000
105    2   -3.22923000   -3.39003000   6.08414000
106    2   -3.16941000   -4.83005000   8.81834000
107    2   -1.94565000   -5.60338000   6.07822000
108    1   -3.10572000   1.03685000   7.14762000
109    1   -1.82390000   1.75714000   7.57916000
110    1   -0.58578000   1.00868000   7.06358000
111    1   0.69821000   1.73336000   7.50267000
112    1   1.94168000   0.99040000   6.98747000
113    1   3.22538000   1.71918000   7.42467000
114    2   -3.18718000   1.04437000   6.03942000
115    2   -0.61986000   1.00441000   5.95063000
116    2   1.90825000   0.98353000   5.87460000
117    2   -1.80031000   1.82789000   8.68907000
118    2   0.73240000   1.80215000   8.61349000
119    2   3.25859000   1.79185000   8.53521000
120    1   3.17621000   6.18878000   7.60216000
121    1   1.89720000   5.45281000   7.14252000
122    1   0.64036000   6.20041000   7.65226000
123    2   3.19679000   6.20965000   8.71729000
124    1   1.90401000   3.99385000   7.66332000
125    2   1.87612000   5.43417000   6.02728000
126    1   0.62977000   3.26448000   7.20772000
127    1   -0.62369000   4.00199000   7.70937000
128    1   -0.63795000   5.46338000   7.19202000
129    2   1.92298000   3.99977000   8.77657000
130    2   0.66236000   6.21813000   8.76737000
131    2   -0.65856000   5.44730000   6.07658000
132    2   -0.60324000   4.00559000   8.82269000
133    2   0.60966000   3.19677000   6.09651000
134    1   3.15845000   3.25254000   7.16622000
135    2   3.14077000   3.18171000   6.05526000
136    1   -1.90236000   6.20381000   7.70128000
137    1   -1.89337000   3.26693000   7.25512000
138    1   -3.16252000   5.44573000   7.24045000
139    1   -3.14473000   4.00019000   7.74966000
140    2   -1.88914000   6.21581000   8.81553000
141    2   -3.23085000   5.44559000   6.13034000
142    2   -3.17148000   3.99263000   8.86054000
143    2   -1.92520000   3.19692000   6.14536000
144    1   8.23168000   -5.60023000   7.13173000
145    1   10.77019000   -5.61315000   7.07759000
146    1   9.51479000   -4.86506000   7.58789000
147    2   10.74718000   -5.63419000   5.96256000
148    2   10.82255000   -2.65165000   8.63265000
149    1   10.79539000   -2.67326000   7.51768000
150    1   9.51023000   -3.40830000   7.06603000
151    2   9.53954000   -4.84560000   8.70293000
152    1   8.25789000   -2.65984000   7.58234000
153    1   6.97076000   -3.39189000   7.12997000
154    1   6.97567000   -4.85502000   7.64599000
155    2   7.00302000   -4.83923000   8.76104000
156    2   8.20661000   -5.61785000   6.01676000
157    2   9.48274000   -3.42780000   5.95110000
158    2   8.28649000   -2.64186000   8.69725000
159    2   6.94361000   -3.40777000   6.01494000
160    1   8.25582000   -1.20273000   7.06108000
161    1   10.79206000   -1.21749000   6.99228000
162    1   9.54317000   -0.46805000   7.50963000
163    1   7.00906000   -0.45228000   7.58235000
164    2   8.22406000   -1.22092000   5.94624000
165    2   10.76237000   -1.23896000   5.87741000
166    2   7.04307000   -0.43561000   8.69745000
167    2   9.57450000   -0.44848000   8.62469000
168    1   5.71354000   -1.17956000   7.13631000
169    1   5.71473000   -2.64226000   7.64627000
170    1   5.68812000   -5.59129000   7.19192000
171    1   4.48558000   -0.40830000   7.65818000
172    1   4.44559000   -3.38859000   7.19372000
173    1   4.45066000   -4.83192000   7.70639000
174    2   4.47208000   -0.40720000   8.77034000
175    2   5.73479000   -2.62984000   8.76039000
176    2   4.36977000   -3.39003000   6.08414000
177    2   4.42959000   -4.83005000   8.81834000
178    2   5.65335000   -5.60338000   6.07822000
179    1   4.49328000   1.03685000   7.14762000
180    1   5.77510000   1.75714000   7.57916000
181    1   7.01322000   1.00868000   7.06358000
182    1   8.29721000   1.73336000   7.50267000
183    1   9.54068000   0.99040000   6.98747000
184    1   10.82438000   1.71918000   7.42467000
185    2   4.41182000   1.04437000   6.03942000
186    2   6.97914000   1.00441000   5.95063000
187    2   9.50725000   0.98353000   5.87460000
188    2   5.79869000   1.82789000   8.68907000
189    2   8.33140000   1.80215000   8.61349000
190    2   10.85759000   1.79185000   8.53521000
191    1   10.77521000   6.18878000   7.60216000
192    1   9.49620000   5.45281000   7.14252000
193    1   8.23936000   6.20041000   7.65226000
194    2   10.79579000   6.20965000   8.71729000
195    1   9.50301000   3.99385000   7.66332000
196    2   9.47512000   5.43417000   6.02728000
197    1   8.22877000   3.26448000   7.20772000
198    1   6.97531000   4.00199000   7.70937000
199    1   6.96105000   5.46338000   7.19202000
200    2   9.52198000   3.99977000   8.77657000
201    2   8.26136000   6.21813000   8.76737000
202    2   6.94044000   5.44730000   6.07658000
203    2   6.99576000   4.00559000   8.82269000
204    2   8.20866000   3.19677000   6.09651000
205    1   10.75745000   3.25254000   7.16622000
206    2   10.73977000   3.18171000   6.05526000
207    1   5.69664000   6.20381000   7.70128000
208    1   5.70563000   3.26693000   7.25512000
209    1   4.43648000   5.44573000   7.24045000
210    1   4.45427000   4.00019000   7.74966000
211    2   5.70986000   6.21581000   8.81553000
212    2   4.36815000   5.44559000   6.13034000
213    2   4.42752000   3.99263000   8.86054000
214    2   5.67380000   3.19692000   6.14536000
215    1   -6.96632000   -5.60023000   -7.86827000
216    1   -4.42781000   -5.61315000   -7.92241000
217    1   -5.68321000   -4.86506000   -7.41211000
218    2   -4.45082000   -5.63419000   -9.03744000
219    2   -4.37545000   -2.65165000   -6.36735000
220    1   -4.40261000   -2.67326000   -7.48232000
221    1   -5.68777000   -3.40830000   -7.93397000
222    2   -5.65846000   -4.84560000   -6.29707000
223    1   -6.94011000   -2.65984000   -7.41766000
224    1   -8.22724000   -3.39189000   -7.87003000
225    1   -8.22233000   -4.85502000   -7.35401000
226    2   -8.19498000   -4.83923000   -6.23896000
227    2   -6.99139000   -5.61785000   -8.98324000
228    2   -5.71526000   -3.42780000   -9.04890000
229    2   -6.91151000   -2.64186000   -6.30275000
230    2   -8.25439000   -3.40777000   -8.98506000
231    1   -6.94218000   -1.20273000   -7.93892000
232    1   -4.40594000   -1.21749000   -8.00772000
233    1   -5.65483000   -0.46805000   -7.49037000
234    1   -8.18894000   -0.45228000   -7.41765000
235    2   -6.97394000   -1.22092000   -9.05376000
236    2   -4.43563000   -1.23896000   -9.12259000
237    2   -8.15493000   -0.43561000   -6.30255000
238    2   -5.62350000   -0.44848000   -6.37531000
239    1   -9.48446000   -1.17956000   -7.86369000
240    1   -9.48327000   -2.64226000   -7.35373000
241    1   -9.50988000   -5.59129000   -7.80808000
242    1   -10.71242000   -0.40830000   -7.34182000
243    1   -10.75241000   -3.38859000   -7.80628000
244    1   -10.74734000   -4.83192000   -7.29361000
245    2   -10.72592000   -0.40720000   -6.22966000
246    2   -9.52613000   -1.19185000   -8.97720000
247    2   -9.46321000   -2.62984000   -6.23961000
248    2   -10.82823000   -3.39003000   -8.91586000
249    2   -10.76841000   -4.83005000   -6.18166000
250    2   -9.54465000   -5.60338000   -8.92178000
251    1   -10.70472000   1.03685000   -7.85238000
252    1   -9.42290000   1.75714000   -7.42084000
253    1   -8.18478000   1.00868000   -7.93642000
254    1   -6.90079000   1.73336000   -7.49733000
255    1   -5.65732000   0.99040000   -8.01253000
256    1   -4.37362000   1.71918000   -7.57533000
257    2   -10.78618000   1.04437000   -8.96058000
258    2   -8.21886000   1.00441000   -9.04937000
259    2   -5.69075000   0.98353000   -9.12540000
260    2   -9.39931000   1.82789000   -6.31093000
261    2   -6.86660000   1.80215000   -6.38651000
262    2   -4.34041000   1.79185000   -6.46479000
263    1   -4.42279000   6.18878000   -7.39784000
264    1   -5.70180000   5.45281000   -7.85748000
265    1   -6.95864000   6.20041000   -7.34774000
266    2   -4.40221000   6.20965000   -6.28271000
267    1   -5.69499000   3.99385000   -7.33668000
268    2   -5.72288000   5.43417000   -8.97272000
269    1   -6.96923000   3.26448000   -7.79228000
270    1   -8.22269000   4.00199000   -7.29063000
271    1   -8.23695000   5.46338000   -7.80798000
272    2   -5.67602000   3.99977000   -6.22343000
273    2   -6.93664000   6.21813000   -6.23263000
274    2   -8.25756000   5.44730000   -8.92342000
275    2   -8.20224000   4.00559000   -6.17731000
276    2   -6.98934000   3.19677000   -8.90349000
277    1   -4.44055000   3.25254000   -7.83378000
278    2   -4.45823000   3.18171000   -8.94474000
279    1   -9.50136000   6.20381000   -7.29872000
280    1   -9.49237000   3.26693000   -7.74488000
281    1   -10.76152000   5.44573000   -7.75955000
282    1   -10.74373000   4.00019000   -7.25034000
283    2   -9.48814000   6.21581000   -6.18447000
284    2   -10.82985000   5.44559000   -8.86966000
285    2   -10.77048000   3.99263000   -6.13946000
286    2   -9.52420000   3.19692000   -8.85464000
287    1   0.63268000   -5.60023000   -7.86827000
288    1   3.17119000   -5.61315000   -7.92241000
289    1   1.91579000   -4.86506000   -7.41211000
290    2   3.14818000   -5.63419000   -9.03744000
291    2   3.22355000   -2.65165000   -6.36735000
292    1   3.19639000   -2.67326000   -7.48232000
293    1   1.91123000   -3.40830000   -7.93397000
294    2   1.94054000   -4.84560000   -6.29707000
295    1   0.65889000   -2.65984000   -7.41766000
296    1   -0.62824000   -3.39189000   -7.87003000
297    1   -0.62333000   -4.85502000   -7.35401000
298    2   -0.59598000   -4.83923000   -6.23896000
299    2   0.60761000   -5.61785000   -8.98324000
300    2   1.88374000   -3.42780000   -9.04890000
301    2   0.68749000   -2.64186000   -6.30275000
302    2   -0.65539000   -3.40777000   -8.98506000
303    1   0.65682000   -1.20273000   -7.93892000
304    1   3.19306000   -1.21749000   -8.00772000
305    1   1.94417000   -0.46805000   -7.49037000
306    1   -0.58994000   -0.45228000   -7.41765000
307    2   0.62506000   -1.22092000   -9.05376000
308    2   3.16337000   -1.23896000   -9.12259000
309    2   -0.55593000   -0.43561000   -6.30255000
310    2   1.97550000   -0.44848000   -6.37531000
311    1   -1.88546000   -1.17956000   -7.86369000
312    1   -1.88427000   -2.64226000   -7.35373000
313    1   -1.91088000   -5.59129000   -7.80808000
314    1   -3.11342000   -0.40830000   -7.34182000
315    1   -3.15341000   -3.38859000   -7.80628000
316    1   -3.14834000   -4.83192000   -7.29361000
317    2   -3.12692000   -0.40720000   -6.22966000
318    2   -1.92713000   -1.19185000   -8.97720000
319    2   -1.86421000   -2.62984000   -6.23961000
320    2   -3.22923000   -3.39003000   -8.91586000
321    2   -3.16941000   -4.83005000   -6.18166000
322    2   -1.94565000   -5.60338000   -8.92178000
323    1   -3.10572000   1.03685000   -7.85238000
324    1   -1.82390000   1.75714000   -7.42084000
325    1   -0.58578000   1.00868000   -7.93642000
326    1   0.69821000   1.73336000   -7.49733000
327    1   1.94168000   0.99040000   -8.01253000
328    1   3.22538000   1.71918000   -7.57533000
329    2   -3.18718000   1.04437000   -8.96058000
330    2   -0.61986000   1.00441000   -9.04937000
331    2   1.90825000   0.98353000   -9.12540000
332    2   -1.80031000   1.82789000   -6.31093000
333    2   0.73240000   1.80215000   -6.38651000
334    2   3.25859000   1.79185000   -6.46479000
335    1   3.17621000   6.18878000   -7.39784000
336    1   1.89720000   5.45281000   -7.85748000
337    1   0.64036000   6.20041000   -7.34774000
338    2   3.19679000   6.20965000   -6.28271000
339    1   1.90401000   3.99385000   -7.33668000
340    2   1.87612000   5.43417000   -8.97272000
341    1   0.62977000   3.26448000   -7.79228000
342    1   -0.62369000   4.00199000   -7.29063000
343    1   -0.63795000   5.46338000   -7.80798000
344    2   1.92298000   3.99977000   -6.22343000
345    2   0.66236000   6.21813000   -6.23263000
346    2   -0.65856000   5.44730000   -8.92342000
347    2   -0.60324000   4.00559000   -6.17731000
348    2   0.60966000   3.19677000   -8.90349000
349    1   3.15845000   3.25254000   -7.83378000
350    2   3.14077000   3.18171000   -8.94474000
351    1   -1.90236000   6.20381000   -7.29872000
352    1   -1.89337000   3.26693000   -7.74488000
353    1   -3.16252000   5.44573000   -7.75955000
354    1   -3.14473000   4.00019000   -7.25034000
355    2   -1.88914000   6.21581000   -6.18447000
356    2   -3.23085000   5.44559000   -8.86966000
357    2   -3.17148000   3.99263000   -6.13946000
358    2   -1.92520000   3.19692000   -8.85464000
359    1   8.23168000   -5.60023000   -7.86827000
360    1   10.77019000   -5.61315000   -7.92241000
361    1   9.51479000   -4.86506000   -7.41211000
362    2   10.74718000   -5.63419000   -9.03744000
363    2   10.82255000   -2.65165000   -6.36735000
364    1   10.79539000   -2.67326000   -7.48232000
365    1   9.51023000   -3.40830000   -7.93397000
366    2   9.53954000   -4.84560000   -6.29707000
367    1   8.25789000   -2.65984000   -7.41766000
368    1   6.97076000   -3.39189000   -7.87003000
369    1   6.97567000   -4.85502000   -7.35401000
370    2   7.00302000   -4.83923000   -6.23896000
371    2   8.20661000   -5.61785000   -8.98324000
372    2   9.48274000   -3.42780000   -9.04890000
373    2   8.28649000   -2.64186000   -6.30275000
374    2   6.94361000   -3.40777000   -8.98506000
375    1   8.25582000   -1.20273000   -7.93892000
376    1   10.79206000   -1.21749000   -8.00772000
377    1   9.54317000   -0.46805000   -7.49037000
378    1   7.00906000   -0.45228000   -7.41765000
379    2   8.22406000   -1.22092000   -9.05376000
380    2   10.76237000   -1.23896000   -9.12259000
381    2   7.04307000   -0.43561000   -6.30255000
382    2   9.57450000   -0.44848000   -6.37531000
383    1   5.71354000   -1.17956000   -7.86369000
384    1   5.71473000   -2.64226000   -7.35373000
385    1   5.68812000   -5.59129000   -7.80808000
386    1   4.48558000   -0.40830000   -7.34182000
387    1   4.44559000   -3.38859000   -7.80628000
388    1   4.45066000   -4.83192000   -7.29361000
389    2   4.47208000   -0.40720000   -6.22966000
390    2   5.67187000   -1.19185000   -8.97720000
391    2   5.73479000   -2.62984000   -6.23961000
392    2   4.36977000   -3.39003000   -8.91586000
393    2   4.42959000   -4.83005000   -6.18166000
394    2   5.65335000   -5.60338000   -8.92178000
395    1   4.49328000   1.03685000   -7.85238000
396    1   5.77510000   1.75714000   -7.42084000
397    1   7.01322000   1.00868000   -7.93642000
398    1   8.29721000   1.73336000   -7.49733000
399    1   9.54068000   0.99040000   -8.01253000
400    1   10.82438000   1.71918000   -7.57533000
401    2   4.41182000   1.04437000   -8.96058000
402    2   6.97914000   1.00441000   -9.04937000
403    2   9.50725000   0.98353000   -9.12540000
404    2   5.79869000   1.82789000   -6.31093000
405    2   8.33140000   1.80215000   -6.38651000
406    2   10.85759000   1.79185000   -6.46479000
407    1   10.77521000   6.18878000   -7.39784000
408    1   9.49620000   5.45281000   -7.85748000
409    1   8.23936000   6.20041000   -7.34774000
410    2   10.79579000   6.20965000   -6.28271000
411    1   9.50301000   3.99385000   -7.33668000
412    2   9.47512000   5.43417000   -8.97272000
413    1   8.22877000   3.26448000   -7.79228000
414    1   6.97531000   4.00199000   -7.29063000
415    1   6.96105000   5.46338000   -7.80798000
416    2   9.52198000   3.99977000   -6.22343000
417    2   8.26136000   6.21813000   -6.23263000
418    2   6.94044000   5.44730000   -8.92342000
419    2   6.99576000   4.00559000   -6.17731000
420    2   8.20866000   3.19677000   -8.90349000
421    1   10.75745000   3.25254000   -7.83378000
422    2   10.73977000   3.18171000   -8.94474000
423    1   5.69664000   6.20381000   -7.29872000
424    1   5.70563000   3.26693000   -7.74488000
425    1   4.43648000   5.44573000   -7.75955000
426    1   4.45427000   4.00019000   -7.25034000
427    2   5.70986000   6.21581000   -6.18447000
428    2   4.36815000   5.44559000   -8.86966000
429    2   4.42752000   3.99263000   -6.13946000
430    2   5.67380000   3.19692000   -8.85464000
431    4   -6.46590000   -2.55952000   1.04147000
432    2   -5.63639000   -3.05182000   0.69782000
433    2   -7.28393000   -3.10364000   0.75229000
434    2   -6.51131000   -1.65620000   0.56237000
435    1   -6.43740000   -2.37728000   2.52530000
436    2   -6.59164000   -3.36167000   2.96656000
437    2   -7.30425000   -1.76129000   2.76702000
438    1   -5.14291000   -1.75239000   3.03628000
439    2   -4.33150000   -2.48748000   2.97770000
440    2   -4.85624000   -0.88886000   2.42758000
441    1   -5.46260000   -1.36187000   4.48362000
442    2   -6.13652000   -2.14174000   4.82896000
443    2   -6.04744000   -0.43966000   4.45477000
444    1   -4.26191000   -1.23417000   5.42817000
445    2   -3.60850000   -2.06348000   5.15915000
446    2   -3.71095000   -0.34884000   5.11054000
447    4   3.65468000   -2.55952000   1.04147000
448    2   4.48419000   -3.05182000   0.69782000
449    2   2.83665000   -3.10364000   0.75229000
450    2   3.60927000   -1.65620000   0.56237000
451    1   3.68318000   -2.37728000   2.52530000
452    2   3.52894000   -3.36167000   2.96656000
453    2   2.81633000   -1.76129000   2.76702000
454    1   4.97767000   -1.75239000   3.03628000
455    2   5.78908000   -2.48748000   2.97770000
456    2   5.26434000   -0.88886000   2.42758000
457    1   4.65798000   -1.36187000   4.48362000
458    2   3.98406000   -2.14174000   4.82896000
459    2   4.07314000   -0.43966000   4.45477000
460    1   5.85867000   -1.23417000   5.42817000
461    2   6.51208000   -2.06348000   5.15915000
462    2   6.40963000   -0.34884000   5.11054000
#dimensions of perodic box
     0.000     0.000     0.000
    22.797     0.000     0.000
     0.000     13.392    0.000
     0.000     0.000     60.000
}
Driver = VelocityVerlet{
  TimeStep [fs] = 1
  Thermostat = NoseHoover {
    Temperature [Kelvin] = 300
    CouplingStrength [cm^-1] = 3700
  }
  Steps = 5000
  MovedAtoms =433:-1 # last -1 means all atoms; otherwise list first:last out of movable
  MDRestartFrequency = 10
  ConvergentForcesOnly = Yes #if the SCC cycle does not converge at any geometric step, forces will be calculated using the non-converged charges
  ConvergentForcesOnly = No #if the SCC cycle does not converge at any geometric step, forces will be calculated using the non-converged charges
	}
Hamiltonian = DFTB {
  Scc = Yes
  SCCTolerance = 1e-005
  MaxSCCIterations= 500
# set non-zero temperature for convergence
  Filling = Fermi {
  Temperature[K] = 300.0
  }

 SlaterKosterFiles = Type2FileNames {
  Prefix = "/home/shehani/DOE_project/slakos/" 
  Separator = "-"                     # Dash between type names
  Suffix = ".skf"
 }

  MaxAngularMomentum {
    C = "p"
    N = "p"
    O = "p"
    H = "s"
  }
 KPointsAndWeights = {
 0 0 0 1.0
 }
}

Options {
 WriteChargesAsText = yes
}

Analysis {
  CalculateForces = Yes
}

ParserOptions {
  ParserVersion = 7
}
