#
Geometry = GenFormat {
335 S
C  H  O N
1 2 -1.9434900000000006 16.41731 41.21983
2 1 0.6052999999999997 16.47308 40.15012
3 2 0.5876199999999994 16.40225 41.26108
4 1 -4.45551 19.42435 39.61506
5 1 -4.44652 16.487470000000002 40.06122
6 1 -5.715670000000001 18.66627 40.07589
7 1 -5.69788 17.22073 39.56668
8 2 -4.44229 19.43635 38.50081
9 2 -5.784000000000001 18.66613 41.186
10 2 -5.724630000000001 17.213169999999998 38.455799999999996
11 2 -4.478350000000001 16.41746 41.17098
12 1 13.27753 7.62031 55.18461
13 1 15.816040000000001 7.60739 55.238749999999996
14 1 14.560640000000001 8.35548 54.72845
15 2 15.79303 7.58635 56.35378
16 2 15.868400000000001 10.56889 53.68369
17 1 15.84124 10.54728 54.79866
18 1 14.55608 9.81224 55.25031
19 2 14.58539 8.374939999999999 53.61341
20 1 13.303740000000001 10.5607 54.734
21 1 12.01661 9.82865 55.18637
22 1 12.02152 8.36552 54.67035
23 2 12.04887 8.38131 53.5553
24 2 13.252460000000001 7.60269 56.29958
25 2 14.528590000000001 9.79274 56.36524
26 2 13.33234 10.57868 53.61909
27 2 11.989460000000001 9.81277 56.3014
28 1 13.30167 12.01781 55.25526
29 1 15.83791 12.00305 55.32406
30 1 14.58902 12.75249 54.80671
31 1 12.05491 12.76826 54.73399
32 2 13.26991 11.99962 56.3701
33 2 15.80822 11.98158 56.43893
34 2 12.08892 12.78493 53.61889
35 2 14.62035 12.77206 53.691649999999996
36 1 10.75939 12.04098 55.18003
37 1 10.760580000000001 10.57828 54.67007
38 1 10.73397 7.62925 55.12442
39 1 9.53143 12.81224 54.65816
40 1 9.49144 9.831949999999999 55.12262
41 1 9.49651 8.38862 54.60995
42 2 9.51793 12.81334 53.546
43 2 10.71772 12.028690000000001 56.29354
44 2 10.78064 10.5907 53.555949999999996
45 2 9.41562 9.83051 56.2322
46 2 9.47544 8.39049 53.498
47 2 10.699200000000001 7.61716 56.238119999999995
48 1 9.53913 14.257390000000001 55.16872
49 1 10.82095 14.97768 54.73718
50 1 12.05907 14.22922 55.25276
51 1 13.343060000000001 14.9539 54.81367
52 1 14.58653 14.21094 55.32887
53 1 15.870230000000001 14.93972 54.89167
54 2 9.45767 14.26491 56.276920000000004
55 2 12.02499 14.22495 56.36571
56 2 14.5531 14.20407 56.441739999999996
57 2 10.84454 15.04843 53.627269999999996
58 2 13.37725 15.02269 53.70285
59 2 15.90344 15.01239 53.78113
60 1 15.821060000000001 19.40932 54.71418
61 1 14.54205 18.67335 55.17382
62 1 13.285210000000001 19.42095 54.66408
63 2 15.84164 19.43019 53.59905
64 1 14.548860000000001 17.21439 54.65302
65 2 14.52097 18.65471 56.28906
66 1 13.27462 16.48502 55.10862
67 1 12.02116 17.22253 54.606970000000004
68 1 12.0069 18.68392 55.12432
69 2 14.56783 17.22031 53.539770000000004
70 2 13.307210000000001 19.438670000000002 53.54897
71 2 11.98629 18.667839999999998 56.239760000000004
72 2 12.04161 17.22613 53.49365
73 2 13.25451 16.41731 56.21983
74 1 15.8033 16.47308 55.15012
75 2 15.78562 16.40225 56.26108
76 1 10.74249 19.42435 54.61506
77 1 10.75148 16.487470000000002 55.06122
78 1 9.482330000000001 18.66627 55.07589
79 1 9.50012 17.22073 54.56668
80 2 10.75571 19.43635 53.50081
81 2 9.414000000000001 18.66613 56.186
82 2 9.47337 17.213169999999998 53.455799999999996
83 2 10.719650000000001 16.41746 56.17098
84 1 20.876530000000002 7.62031 55.18461
85 1 -6.98096 7.60739 55.238749999999996
86 1 22.15964 8.35548 54.72845
87 2 -7.003970000000001 7.58635 56.35378
88 2 -6.928600000000001 10.56889 53.68369
89 1 -6.95576 10.54728 54.79866
90 1 22.15508 9.81224 55.25031
91 2 22.18439 8.374939999999999 53.61341
92 1 20.90274 10.5607 54.734
93 1 19.61561 9.82865 55.18637
94 1 19.62052 8.36552 54.67035
95 2 19.64787 8.38131 53.5553
96 2 20.85146 7.60269 56.29958
97 2 22.12759 9.79274 56.36524
98 2 20.93134 10.57868 53.61909
99 2 19.58846 9.81277 56.3014
100 1 20.90067 12.01781 55.25526
101 1 -6.95909 12.00305 55.32406
102 1 22.18802 12.75249 54.80671
103 1 19.65391 12.76826 54.73399
104 2 20.86891 11.99962 56.3701
105 2 -6.98878 11.98158 56.43893
106 2 19.68792 12.78493 53.61889
107 2 22.21935 12.77206 53.691649999999996
108 1 18.35839 12.04098 55.18003
109 1 18.35958 10.57828 54.67007
110 1 18.33297 7.62925 55.12442
111 1 17.13043 12.81224 54.65816
112 1 17.09044 9.831949999999999 55.12262
113 1 17.09551 8.38862 54.60995
114 2 17.11693 12.81334 53.546
115 2 18.31672 12.028690000000001 56.29354
116 2 18.379640000000002 10.5907 53.555949999999996
117 2 17.01462 9.83051 56.2322
118 2 17.07444 8.39049 53.498
119 2 18.2982 7.61716 56.238119999999995
120 1 17.13813 14.257390000000001 55.16872
121 1 18.41995 14.97768 54.73718
122 1 19.658070000000002 14.22922 55.25276
123 1 20.94206 14.9539 54.81367
124 1 22.18553 14.21094 55.32887
125 1 -6.926770000000001 14.93972 54.89167
126 2 17.05667 14.26491 56.276920000000004
127 2 19.62399 14.22495 56.36571
128 2 22.1521 14.20407 56.441739999999996
129 2 18.44354 15.04843 53.627269999999996
130 2 20.97625 15.02269 53.70285
131 2 -6.893560000000001 15.01239 53.78113
132 1 -6.97594 19.40932 54.71418
133 1 22.14105 18.67335 55.17382
134 1 20.88421 19.42095 54.66408
135 2 -6.955360000000001 19.43019 53.59905
136 1 22.14786 17.21439 54.65302
137 2 22.119970000000002 18.65471 56.28906
138 1 20.873620000000003 16.48502 55.10862
139 1 19.62016 17.22253 54.606970000000004
140 1 19.6059 18.68392 55.12432
141 2 22.16683 17.22031 53.539770000000004
142 2 20.90621 19.438670000000002 53.54897
143 2 19.58529 18.667839999999998 56.239760000000004
144 2 19.640610000000002 17.22613 53.49365
145 2 20.85351 16.41731 56.21983
146 1 -6.9937000000000005 16.47308 55.15012
147 2 -7.011380000000001 16.40225 56.26108
148 1 18.34149 19.42435 54.61506
149 1 18.35048 16.487470000000002 55.06122
150 1 17.08133 18.66627 55.07589
151 1 17.09912 17.22073 54.56668
152 2 18.35471 19.43635 53.50081
153 2 17.013 18.66613 56.186
154 2 17.07237 17.213169999999998 53.455799999999996
155 2 18.31865 16.41746 56.17098
156 1 -1.92047 7.62031 55.18461
157 1 0.6180399999999988 7.60739 55.238749999999996
158 1 -0.637360000000001 8.35548 54.72845
159 2 0.5950299999999995 7.58635 56.35378
160 2 0.670399999999999 10.56889 53.68369
161 1 0.6432400000000005 10.54728 54.79866
162 1 -0.6419200000000007 9.81224 55.25031
163 2 -0.6126100000000001 8.374939999999999 53.61341
164 1 -1.894260000000001 10.5607 54.734
165 1 -3.1813900000000004 9.82865 55.18637
166 1 -3.1764799999999997 8.36552 54.67035
167 2 -3.1491299999999995 8.38131 53.5553
168 2 -1.9455400000000012 7.60269 56.29958
169 2 -0.669410000000001 9.79274 56.36524
170 2 -1.86566 10.57868 53.61909
171 2 -3.208540000000001 9.81277 56.3014
172 1 -1.8963300000000007 12.01781 55.25526
173 1 0.6399100000000004 12.00305 55.32406
174 1 -0.6089800000000007 12.75249 54.80671
175 1 -3.143090000000001 12.76826 54.73399
176 2 -1.928090000000001 11.99962 56.3701
177 2 0.61022 11.98158 56.43893
178 2 -3.1090800000000005 12.78493 53.61889
179 2 -0.5776500000000002 12.77206 53.691649999999996
180 1 -4.438610000000001 12.04098 55.18003
181 1 -4.437420000000001 10.57828 54.67007
182 1 -4.464030000000001 7.62925 55.12442
183 1 -5.66657 12.81224 54.65816
184 1 -5.70656 9.831949999999999 55.12262
185 1 -5.70149 8.38862 54.60995
186 2 -5.680070000000001 12.81334 53.546
187 2 -4.4802800000000005 12.028690000000001 56.29354
188 2 -4.41736 10.5907 53.555949999999996
189 2 -5.78238 9.83051 56.2322
190 2 -5.72256 8.39049 53.498
191 2 -4.498800000000001 7.61716 56.238119999999995
192 1 -5.65887 14.257390000000001 55.16872
193 1 -4.3770500000000006 14.97768 54.73718
194 1 -3.13893 14.22922 55.25276
195 1 -1.854940000000001 14.9539 54.81367
196 1 -0.6114700000000006 14.21094 55.32887
197 1 0.672229999999999 14.93972 54.89167
198 2 -5.74033 14.26491 56.276920000000004
199 2 -3.1730099999999997 14.22495 56.36571
200 2 -0.6448999999999998 14.20407 56.441739999999996
201 2 -4.35346 15.04843 53.627269999999996
202 2 -1.8207500000000003 15.02269 53.70285
203 2 0.7054399999999994 15.01239 53.78113
204 1 0.6230599999999988 19.40932 54.71418
205 1 -0.6559500000000007 18.67335 55.17382
206 1 -1.912790000000001 19.42095 54.66408
207 2 0.6436399999999995 19.43019 53.59905
208 1 -0.6491400000000009 17.21439 54.65302
209 2 -0.6770300000000002 18.65471 56.28906
210 1 -1.9233799999999999 16.48502 55.10862
211 1 -3.1768400000000003 17.22253 54.606970000000004
212 1 -3.1911000000000005 18.68392 55.12432
213 2 -0.6301699999999997 17.22031 53.539770000000004
214 2 -1.8907900000000009 19.438670000000002 53.54897
215 2 -3.21171 18.667839999999998 56.239760000000004
216 2 -3.15639 17.22613 53.49365
217 2 -1.9434900000000006 16.41731 56.21983
218 1 0.6052999999999997 16.47308 55.15012
219 2 0.5876199999999994 16.40225 56.26108
220 1 -4.45551 19.42435 54.61506
221 1 -4.44652 16.487470000000002 55.06122
222 1 -5.715670000000001 18.66627 55.07589
223 1 -5.69788 17.22073 54.56668
224 2 -4.44229 19.43635 53.50081
225 2 -5.784000000000001 18.66613 56.186
226 2 -5.724630000000001 17.213169999999998 53.455799999999996
227 2 -4.478350000000001 16.41746 56.17098
228 4 13.77795 10.661025 46.27487
229 2 14.607458000000001 10.168721999999999 46.618518
230 2 12.95992 10.116908 46.564049
231 2 13.732545 11.564346 46.753966
232 1 13.806452 10.843268 44.791033
233 2 13.652207 9.858872999999999 44.34978
234 2 12.939602 11.459256 44.54932
235 1 15.100942 11.468155 44.280056
236 2 15.912354 10.733067 44.338636
237 2 15.387612 12.331685 44.888757
238 1 14.781247 11.858679 42.832714
239 2 14.107328 11.078801 42.487379
240 2 14.196413 12.780882 42.861565
241 1 15.981945 11.986378 41.888169
242 2 16.63535 11.157065 42.157191
243 2 16.532902 12.871704 42.205801
244 3 -6.652045880000001 8.96154339 48.00145619
245 2 -7.00810937 8.3691307 48.70177703
246 2 -6.03209966 8.35456376 47.54850013
247 3 16.1785567 8.14382245 45.47440821
248 2 1.1009885799999992 14.64595342 50.58988631
249 2 17.12289164 8.27257801 45.18313459
250 3 6.27917815 7.97663397 43.74088215
251 2 6.993337889999999 8.02342303 44.43788053
252 2 6.707950619999998 7.63754423 42.9474219
253 3 11.41637708 -4.056049529999999 47.1870173
254 2 10.96670342 -4.90306318 46.97624819
255 2 11.50348498 -3.9928971499999992 48.17397973
256 3 14.641572980000001 14.59665749 47.855446459999996
257 2 15.46915895 14.32001533 48.38324744
258 2 15.156858660000001 14.95740226 47.11106527
259 3 14.19462651 19.87786924 46.8332717
260 2 14.153788950000001 -6.17134912 47.08668768
261 2 14.888375400000001 19.88191787 46.14181161
262 3 19.16275708 -6.33012488 45.39616212
263 2 19.2692506 -5.77139082 46.18893831
264 2 19.94975157 -6.15987108 44.79643194
265 3 3.6276977399999986 13.43118783 49.16849987
266 2 4.317776460000001 14.12110898 49.08241487
267 2 3.408103839999999 13.0971648 48.28122069
268 3 -37.34296613 -46.96675672 49.13271785
269 2 -36.92855011 -47.5972054 49.68728454
270 2 -36.879704669999995 -46.86687791 48.32099712
271 3 7.85781139 -39.90601137 43.76574048
272 2 8.45548748 -39.70219099 44.5088904
273 2 -23.10704024 -40.61105742 44.10928561
274 3 12.82186173 -23.000055 47.47172546
275 2 12.47076226 -22.599679690000002 48.26215603
276 2 12.76884985 -22.24396859 46.886780279999996
277 3 17.058803440000002 2.262526920000001 46.44785007
278 2 17.48941712 3.1533805999999984 46.371440050000004
279 2 17.47022921 1.8489030500000005 47.26867179
280 3 10.2055306 -28.559509249999998 47.99153661
281 2 10.82680529 -28.83757008 47.238368
282 2 9.451478689999998 -29.24833424 47.888778880000004
283 3 14.92457117 11.73344653 49.37971117
284 2 15.523736900000001 12.49441785 49.56574713
285 2 15.54551981 11.08191939 48.97415318
286 3 4.8382717 -3.628623449999999 50.1552912
287 2 4.3048639999999985 -2.85555641 50.38760608
288 2 5.713970639999999 -3.380477150000001 49.89949354
289 3 12.16076344 -43.68211035 51.32203635
290 2 11.848671119999999 -44.61725801 51.37043545
291 2 12.42813899 -43.57060075 50.419762649999996
292 3 16.12005268 9.83927915 47.364593310000004
293 2 16.21466423 9.071560850000001 47.99093751
294 2 16.06297359 8.90436293 46.13335342
295 3 -41.97321253 19.80948445 43.81807322
296 2 -41.13325028 -6.67721949 43.73294295
297 2 -41.742697899999996 18.87991914 43.6670947
298 3 10.08296631 17.14556179 45.37422398
299 2 9.315972120000001 17.671799919999998 45.59828298
300 2 10.85684449 17.735557540000002 45.42521945
301 3 21.75240828 -33.29418958 48.59589423
302 2 20.834481320000002 -33.34021569 48.90666436
303 2 21.76552186 -33.73371507 47.70133627
304 3 17.02876017 14.24520841 49.21728815
305 2 17.41749109 13.36671467 48.93797303
306 2 17.16374855 14.3414251 50.17628251
307 3 9.905432390000001 -26.04622258 46.02821611
308 2 9.89284682 -26.16176072 47.01176576
309 2 10.092378060000001 -25.126975440000002 45.85352833
310 3 -6.182918130000001 -28.99013971 45.72849119
311 2 -5.72779182 -28.64293184 46.47842462
312 2 -6.74565235 -29.73933837 45.91890415
313 3 -7.13665636 0.7806698399999998 47.95347935
314 2 -7.51009008 0.07526574000000075 48.55684477
315 2 -6.74332603 0.31514735000000016 47.19720118
316 3 5.2231491299999995 13.11093052 46.77216593
317 2 5.65477834 13.51160468 47.56815332
318 2 5.103811669999999 13.86161433 46.09406958
319 3 -35.76023472 -21.74049835 46.51753181
320 2 -36.66091005 -21.46904454 46.1883143
321 2 -35.15166102 -21.1037732 46.03138682
322 3 11.415614219999998 -24.12796163 51.25291462
323 2 11.753774360000001 -23.222135440000002 51.30541805
324 2 11.66427667 -24.64398278 52.05906248
325 3 11.246364190000001 -3.6829870699999994 46.05698369
326 2 10.288498569999998 -3.8038096699999997 46.20373836
327 2 11.657690389999999 -3.6455345900000005 46.93866036
328 3 12.08955328 14.1744259 44.00275688
329 2 12.11552773 13.18761236 44.25019997
330 2 11.16808653 14.3901726 44.15592283
331 3 20.09775178 1.1550452100000008 48.95981954
332 2 20.61787669 1.6120211199999996 49.62715992
333 2 19.21973648 1.4961561799999998 49.222999290000004
334 3 1.824265050000001 15.1848899 50.94679519
335 2 2.64900235 14.87792769 50.55468216
#dimensions of perodic box
     0.000     0.000     0.000
    15.198     0.000     0.000
     0.000     13.500    0.000
     0.000     0.000     40.000
}
Driver = VelocityVerlet{
  TimeStep [fs] = 1
  Thermostat = None{}
  Steps = 10000
  MovedAtoms =304:-1 # last -1 means all atoms; otherwise list first:last out of movable
  MDRestartFrequency = 10
  ConvergentForcesOnly = Yes #if the SCC cycle does not converge at any geometric step, forces will be calculated using the non-converged charges
  Velocities [AA/ps] {
   0.00000000   0.00000000   0.00000000
   0.00000000   0.00000000   0.00000000
   0.00000000   0.00000000   0.00000000
   0.00000000   0.00000000   0.00000000
   0.00000000   0.00000000   0.00000000
   0.00000000   0.00000000   0.00000000
   0.00000000   0.00000000   0.00000000
   0.00000000   0.00000000   0.00000000
   0.00000000   0.00000000   0.00000000
   0.00000000   0.00000000   0.00000000
   0.00000000   0.00000000   0.00000000
   0.00000000   0.00000000   0.00000000
   0.00000000   0.00000000   0.00000000
   0.00000000   0.00000000   0.00000000
   0.00000000   0.00000000   0.00000000
   0.00000000   0.00000000   0.00000000
   0.00000000   0.00000000   0.00000000
   0.00000000   0.00000000   0.00000000
   0.00000000   0.00000000   0.00000000
   0.00000000   0.00000000   0.00000000
   0.00000000   0.00000000   0.00000000
   0.00000000   0.00000000   0.00000000
   0.00000000   0.00000000   0.00000000
   0.00000000   0.00000000   0.00000000
   0.00000000   0.00000000   0.00000000
   0.00000000   0.00000000   0.00000000
   0.00000000   0.00000000   0.00000000
   0.00000000   0.00000000   0.00000000
   0.00000000   0.00000000   0.00000000
   0.00000000   0.00000000   0.00000000
   0.00000000   0.00000000   0.00000000
   0.00000000   0.00000000   0.00000000
   0.00000000   0.00000000   0.00000000
   0.00000000   0.00000000   0.00000000
   0.00000000   0.00000000   0.00000000
   0.00000000   0.00000000   0.00000000
   0.00000000   0.00000000   0.00000000
   0.00000000   0.00000000   0.00000000
   0.00000000   0.00000000   0.00000000
   0.00000000   0.00000000   0.00000000
   0.00000000   0.00000000   0.00000000
   0.00000000   0.00000000   0.00000000
   0.00000000   0.00000000   0.00000000
   0.00000000   0.00000000   0.00000000
   0.00000000   0.00000000   0.00000000
   0.00000000   0.00000000   0.00000000
   0.00000000   0.00000000   0.00000000
   0.00000000   0.00000000   0.00000000
   0.00000000   0.00000000   0.00000000
   0.00000000   0.00000000   0.00000000
   0.00000000   0.00000000   0.00000000
   0.00000000   0.00000000   0.00000000
   0.00000000   0.00000000   0.00000000
   0.00000000   0.00000000   0.00000000
   0.00000000   0.00000000   0.00000000
   0.00000000   0.00000000   0.00000000
   0.00000000   0.00000000   0.00000000
   0.00000000   0.00000000   0.00000000
   0.00000000   0.00000000   0.00000000
   0.00000000   0.00000000   0.00000000
   0.00000000   0.00000000   0.00000000
   0.00000000   0.00000000   0.00000000
   0.00000000   0.00000000   0.00000000
   0.00000000   0.00000000   0.00000000
   0.00000000   0.00000000   0.00000000
   0.00000000   0.00000000   0.00000000
   0.00000000   0.00000000   0.00000000
   0.00000000   0.00000000   0.00000000
   0.00000000   0.00000000   0.00000000
   0.00000000   0.00000000   0.00000000
   0.00000000   0.00000000   0.00000000
   0.00000000   0.00000000   0.00000000
   0.00000000   0.00000000   0.00000000
   0.00000000   0.00000000   0.00000000
   0.00000000   0.00000000   0.00000000
   0.00000000   0.00000000   0.00000000
   0.00000000   0.00000000   0.00000000
   0.00000000   0.00000000   0.00000000
   0.00000000   0.00000000   0.00000000
   0.00000000   0.00000000   0.00000000
   0.00000000   0.00000000   0.00000000
   0.00000000   0.00000000   0.00000000
   0.00000000   0.00000000   0.00000000
   0.00000000   0.00000000   0.00000000
   0.00000000   0.00000000   0.00000000
   0.00000000   0.00000000   0.00000000
   0.00000000   0.00000000   0.00000000
   0.00000000   0.00000000   0.00000000
   0.00000000   0.00000000   0.00000000
   0.00000000   0.00000000   0.00000000
   0.00000000   0.00000000   0.00000000
   0.00000000   0.00000000   0.00000000
   0.00000000   0.00000000   0.00000000
   0.00000000   0.00000000   0.00000000
   0.00000000   0.00000000   0.00000000
   0.00000000   0.00000000   0.00000000
   0.00000000   0.00000000   0.00000000
   0.00000000   0.00000000   0.00000000
   0.00000000   0.00000000   0.00000000
   0.00000000   0.00000000   0.00000000
   0.00000000   0.00000000   0.00000000
   0.00000000   0.00000000   0.00000000
   0.00000000   0.00000000   0.00000000
   0.00000000   0.00000000   0.00000000
   0.00000000   0.00000000   0.00000000
   0.00000000   0.00000000   0.00000000
   0.00000000   0.00000000   0.00000000
   0.00000000   0.00000000   0.00000000
   0.00000000   0.00000000   0.00000000
   0.00000000   0.00000000   0.00000000
   0.00000000   0.00000000   0.00000000
   0.00000000   0.00000000   0.00000000
   0.00000000   0.00000000   0.00000000
   0.00000000   0.00000000   0.00000000
   0.00000000   0.00000000   0.00000000
   0.00000000   0.00000000   0.00000000
   0.00000000   0.00000000   0.00000000
   0.00000000   0.00000000   0.00000000
   0.00000000   0.00000000   0.00000000
   0.00000000   0.00000000   0.00000000
   0.00000000   0.00000000   0.00000000
   0.00000000   0.00000000   0.00000000
   0.00000000   0.00000000   0.00000000
   0.00000000   0.00000000   0.00000000
   0.00000000   0.00000000   0.00000000
   0.00000000   0.00000000   0.00000000
   0.00000000   0.00000000   0.00000000
   0.00000000   0.00000000   0.00000000
   0.00000000   0.00000000   0.00000000
   0.00000000   0.00000000   0.00000000
   0.00000000   0.00000000   0.00000000
   0.00000000   0.00000000   0.00000000
   0.00000000   0.00000000   0.00000000
   0.00000000   0.00000000   0.00000000
   0.00000000   0.00000000   0.00000000
   0.00000000   0.00000000   0.00000000
   0.00000000   0.00000000   0.00000000
   0.00000000   0.00000000   0.00000000
   0.00000000   0.00000000   0.00000000
   0.00000000   0.00000000   0.00000000
   0.00000000   0.00000000   0.00000000
   0.00000000   0.00000000   0.00000000
   0.00000000   0.00000000   0.00000000
   0.00000000   0.00000000   0.00000000
   0.00000000   0.00000000   0.00000000
   0.00000000   0.00000000   0.00000000
   0.00000000   0.00000000   0.00000000
   0.00000000   0.00000000   0.00000000
   0.00000000   0.00000000   0.00000000
   0.00000000   0.00000000   0.00000000
   0.00000000   0.00000000   0.00000000
   0.00000000   0.00000000   0.00000000
   0.00000000   0.00000000   0.00000000
   0.00000000   0.00000000   0.00000000
   0.00000000   0.00000000   0.00000000
   0.00000000   0.00000000   0.00000000
   0.00000000   0.00000000   0.00000000
   0.00000000   0.00000000   0.00000000
   0.00000000   0.00000000   0.00000000
   0.00000000   0.00000000   0.00000000
   0.00000000   0.00000000   0.00000000
   0.00000000   0.00000000   0.00000000
   0.00000000   0.00000000   0.00000000
   0.00000000   0.00000000   0.00000000
   0.00000000   0.00000000   0.00000000
   0.00000000   0.00000000   0.00000000
   0.00000000   0.00000000   0.00000000
   0.00000000   0.00000000   0.00000000
   0.00000000   0.00000000   0.00000000
   0.00000000   0.00000000   0.00000000
   0.00000000   0.00000000   0.00000000
   0.00000000   0.00000000   0.00000000
   0.00000000   0.00000000   0.00000000
   0.00000000   0.00000000   0.00000000
   0.00000000   0.00000000   0.00000000
   0.00000000   0.00000000   0.00000000
   0.00000000   0.00000000   0.00000000
   0.00000000   0.00000000   0.00000000
   0.00000000   0.00000000   0.00000000
   0.00000000   0.00000000   0.00000000
   0.00000000   0.00000000   0.00000000
   0.00000000   0.00000000   0.00000000
   0.00000000   0.00000000   0.00000000
   0.00000000   0.00000000   0.00000000
   0.00000000   0.00000000   0.00000000
   0.00000000   0.00000000   0.00000000
   0.00000000   0.00000000   0.00000000
   0.00000000   0.00000000   0.00000000
   0.00000000   0.00000000   0.00000000
   0.00000000   0.00000000   0.00000000
   0.00000000   0.00000000   0.00000000
   0.00000000   0.00000000   0.00000000
   0.00000000   0.00000000   0.00000000
   0.00000000   0.00000000   0.00000000
   0.00000000   0.00000000   0.00000000
   0.00000000   0.00000000   0.00000000
   0.00000000   0.00000000   0.00000000
   0.00000000   0.00000000   0.00000000
   0.00000000   0.00000000   0.00000000
   0.00000000   0.00000000   0.00000000
   0.00000000   0.00000000   0.00000000
   0.00000000   0.00000000   0.00000000
   0.00000000   0.00000000   0.00000000
   0.00000000   0.00000000   0.00000000
   0.00000000   0.00000000   0.00000000
   0.00000000   0.00000000   0.00000000
   0.00000000   0.00000000   0.00000000
   0.00000000   0.00000000   0.00000000
   0.00000000   0.00000000   0.00000000
   0.00000000   0.00000000   0.00000000
   0.00000000   0.00000000   0.00000000
   0.00000000   0.00000000   0.00000000
   0.00000000   0.00000000   0.00000000
   0.00000000   0.00000000   0.00000000
   0.00000000   0.00000000   0.00000000
   0.00000000   0.00000000   0.00000000
   0.00000000   0.00000000   0.00000000
   0.00000000   0.00000000   0.00000000
   0.00000000   0.00000000   0.00000000
   0.00000000   0.00000000   0.00000000
   0.00000000   0.00000000   0.00000000
   0.00000000   0.00000000   0.00000000
   0.00000000   0.00000000   0.00000000
   0.00000000   0.00000000   0.00000000
   0.00000000   0.00000000   0.00000000
   0.00000000   0.00000000   0.00000000
   0.00000000   0.00000000   0.00000000
   0.00000000   0.00000000   0.00000000
   0.00000000   0.00000000   0.00000000
   0.00000000   0.00000000   0.00000000
   0.00000000   0.00000000   0.00000000
   0.00000000   0.00000000   0.00000000
   0.00000000   0.00000000   0.00000000
   0.00000000   0.00000000   0.00000000
   0.00000000   0.00000000   0.00000000
   0.00000000   0.00000000   0.00000000
   0.00000000   0.00000000   0.00000000
   0.00000000   0.00000000   0.00000000
   0.00000000   0.00000000   0.00000000
   0.00000000   0.00000000   0.00000000
   0.00000000   0.00000000   0.00000000
   0.00000000   0.00000000   0.00000000
   0.00000000   0.00000000   0.00000000
   -3.26249616   -1.00507997   -3.25794708
   11.92063940   -20.69064727   -3.07038732
   13.50038527   3.00166862   10.85175148
   3.00446963   -5.08864656   2.92924674
   3.75852039   13.65719974   -13.11965538
   27.34932956   -10.98618816   3.05298388
   -0.56246062   -0.20365078   0.92252717
   -30.06035954   23.16341777   5.66611797
   -14.11122552   11.11680307   1.90307934
   4.34091261   -11.55315871   3.47900085
   -15.92407124   -15.37247883   17.08588418
   -34.96307802   -20.49777804   22.57799770
   8.95039992   0.53410447   8.89816490
   -12.23897376   -17.42182716   -1.55364560
   -42.44642407   17.20112365   10.45113709
   2.77199763   11.73383470   2.60574227
   -4.18380547   -7.70246168   -6.97589228
   -9.24356624   -19.14979827   -9.78683761
   1.27836391   2.12951966   -1.04339533
   25.34424504   20.96456886   -16.49598700
   -24.03649966   -25.37736338   -39.83925416
   2.34612668   1.10022740   -0.56619935
   23.17141211   -25.89449944   10.35273230
   -23.27005282   3.10888147   1.58359508
   -2.48823396   2.43603461   0.49645901
   -7.78807490   -7.18672914   4.91893517
   24.54610707   2.21685353   7.27247311
   2.27466299   -9.46642629   -11.36965961
   19.29838027   5.29973756   -4.95312746
   -10.92439795   1.69340882   -32.70810976
   -1.72514515   -1.09808803   -2.68057252
   -0.67110810   23.40812526   11.58480554
   7.58818903   -25.87639758   -9.70611816
   -5.66560715   -2.17677864   1.98471337
   7.17088190   -3.72046697   22.24546730
   -6.66685323   -0.57342000   -7.76746302
   1.65381839   -0.11715779   3.77789015
   -18.06322915   -0.66443309   -22.53689286
   6.90750320   -11.46402645   -10.25182957
   0.27630915   -5.19335516   -2.01247320
   -23.12173419   22.24448595   5.86205643
   3.83357757   26.65502392   31.60930949
   4.26445927   1.59568726   -6.87910869
   1.37960957   17.46943237   11.61976656
   -13.96643456   5.14458068   0.54688550
   -4.90278456   1.21383281   7.74376571
   -12.31810075   8.05360973   16.16744668
   18.21016625   -10.94443702   4.20781856
   5.73727641   -0.35913477   0.00860371
   13.14436010   8.34422651   -6.66534650
   -15.66561248   -8.74731224   -14.37299773
   -2.38597194   -0.71056653   -8.88746503
   4.49709779   -8.73132964   14.22010946
   -20.01200208   -10.60674963   11.60426914
   4.88120136   -0.32367314   -7.64932843
   12.95062210   -8.81867877   3.19078045
   9.80283497   -15.39852694   -0.32571820
   -6.67825394   -3.02533396   2.97087715
   -3.17011494   -26.34845031   -15.34973367
   18.04872282   -15.03422674   22.97639409
   1.56193529   -6.19140271   2.96349495
   16.70299839   3.74419362   0.89392437
   22.10332328   -27.85829942   8.08860808
   8.35260102   0.99728756   -2.64277740
   -10.14236026   -0.38766852   -15.87967863
   -22.31638318   -7.82771615   6.93101867
   -2.69249981   -2.26428594   6.13405004
   20.24871706   -4.19761467   0.67043545
   -39.15483791   17.89867481   5.12503447
   -5.39215038   1.61317340   0.27184068
   -11.63418556   5.70140444   -11.10459925
   5.73997704   -19.85948804   13.16202498
   -2.06051024   4.92743602   -1.74207199
   -18.56520867   -9.10950702   -20.43591787
   -13.89369188   5.64596740   -28.53646185
   1.46281306   3.86156679   7.12444704
   6.94359064   -21.44189756   -16.14108891
   -4.51718837   0.47345275   -0.08732281
   -3.40908387   6.90477780   -0.53255682
   -1.81562521   19.45158665   9.95824869
   3.95117530   21.26271736   15.55031616
   3.10781427   2.43523725   4.41163907
   -1.03326578   -11.72662099   5.53992987
   16.51414643   -12.45284250   -10.15454296
   -5.35071933   2.39925234   1.15007668
   -20.66944506   -23.30327397   6.55713278
   23.72042014   -18.00964570   -17.17257096
   -7.12670366   8.45607596   -3.21079342
   -5.04992591   -12.39997395   11.04104687
   -4.38999347   10.49190429   -17.40699595
   -1.98436612   7.81003465   -3.98667447
   2.71872143   -9.00106107   13.10047327
	}
}

Hamiltonian = DFTB {
  Scc = Yes
  SCCTolerance = 1e-005
  MaxSCCIterations= 500
# set non-zero temperature for convergence
  Filling = Fermi {
  Temperature[K] = 300.0
  }

 SlaterKosterFiles = Type2FileNames {
  Prefix = "/home/shehani/DOE_project/slakos/" 
  Separator = "-"                     # Dash between type names
  Suffix = ".skf"
 }

  MaxAngularMomentum {
    C = "p"
    N = "p"
    O = "p"
    H = "s"
  }
 KPointsAndWeights = {
 0 0 0 1.0
 }
}

Options {
 WriteChargesAsText = yes
}

Analysis {
  CalculateForces = Yes
}

ParserOptions {
  ParserVersion = 7
}
