#
Geometry = GenFormat {
539 S
C  H  O N
1    1   -1.92047000   -5.87969000   0.18461000
2    1   0.61804000   -5.89261000   0.23875000
3    1   -0.63736000   -5.14452000   -0.27155000
4    2   0.59503000   -5.91365000   1.35378000
5    2   0.67040000   -2.93111000   -1.31631000
6    1   0.64324000   -2.95272000   -0.20134000
7    1   -0.64192000   -3.68776000   0.25031000
8    2   -0.61261000   -5.12506000   -1.38659000
9    1   -1.89426000   -2.93930000   -0.26600000
10    1   -3.18139000   -3.67135000   0.18637000
11    1   -3.17648000   -5.13448000   -0.32965000
12    2   -3.14913000   -5.11869000   -1.44470000
13    2   -1.94554000   -5.89731000   1.29958000
14    2   -0.66941000   -3.70726000   1.36524000
15    2   -1.86566000   -2.92132000   -1.38091000
16    2   -3.20854000   -3.68723000   1.30140000
17    1   -1.89633000   -1.48219000   0.25526000
18    1   0.63991000   -1.49695000   0.32406000
19    1   -0.60898000   -0.74751000   -0.19329000
20    1   -3.14309000   -0.73174000   -0.26601000
21    2   -1.92809000   -1.50038000   1.37010000
22    2   -3.10908000   -0.71507000   -1.38111000
23    2   -0.57765000   -0.72794000   -1.30835000
24    1   -4.43861000   -1.45902000   0.18003000
25    1   -4.43742000   -2.92172000   -0.32993000
26    1   -4.46403000   -5.87075000   0.12442000
27    1   -5.66657000   -0.68776000   -0.34184000
28    1   -5.70656000   -3.66805000   0.12262000
29    1   -5.70149000   -5.11138000   -0.39005000
30    2   -5.68007000   -0.68666000   -1.45400000
31    2   -4.48028000   -1.47131000   1.29354000
32    2   -4.41736000   -2.90930000   -1.44405000
33    2   -5.78238000   -3.66949000   1.23220000
34    2   -5.72256000   -5.10951000   -1.50200000
35    2   -4.49880000   -5.88284000   1.23812000
36    1   -5.65887000   0.75739000   0.16872000
37    1   -4.37705000   1.47768000   -0.26282000
38    1   -3.13893000   0.72922000   0.25276000
39    1   -1.85494000   1.45390000   -0.18633000
40    1   -0.61147000   0.71094000   0.32887000
41    1   0.67223000   1.43972000   -0.10833000
42    2   -5.74033000   0.76491000   1.27692000
43    2   -3.17301000   0.72495000   1.36571000
44    2   -0.64490000   0.70407000   1.44174000
45    2   -4.35346000   1.54843000   -1.37273000
46    2   -1.82075000   1.52269000   -1.29715000
47    2   0.70544000   1.51239000   -1.21887000
48    1   0.62306000   5.90932000   -0.28582000
49    1   -0.65595000   5.17335000   0.17382000
50    1   -1.91279000   5.92095000   -0.33592000
51    2   0.64364000   5.93019000   -1.40095000
52    1   -0.64914000   3.71439000   -0.34698000
53    2   -0.67703000   5.15471000   1.28906000
54    1   -1.92338000   2.98502000   0.10862000
55    1   -3.17684000   3.72253000   -0.39303000
56    1   -3.19110000   5.18392000   0.12432000
57    2   -0.63017000   3.72031000   -1.46023000
58    2   -1.89079000   5.93867000   -1.45103000
59    2   -3.21171000   5.16784000   1.23976000
60    2   -3.15639000   3.72613000   -1.50635000
61    2   -1.94349000   2.91731000   1.21983000
62    1   0.60530000   2.97308000   0.15012000
63    2   0.58762000   2.90225000   1.26108000
64    1   -4.45551000   5.92435000   -0.38494000
65    1   -4.44652000   2.98747000   0.06122000
66    1   -5.71567000   5.16627000   0.07589000
67    1   -5.69788000   3.72073000   -0.43332000
68    2   -4.44229000   5.93635000   -1.49919000
69    2   -5.78400000   5.16613000   1.18600000
70    2   -5.72463000   3.71317000   -1.54420000
71    2   -4.47835000   2.91746000   1.17098000
72    1   5.67853000   -5.87969000   0.18461000
73    1   8.21704000   -5.89261000   0.23875000
74    1   6.96164000   -5.14452000   -0.27155000
75    2   8.19403000   -5.91365000   1.35378000
76    2   8.26940000   -2.93111000   -1.31631000
77    1   8.24224000   -2.95272000   -0.20134000
78    1   6.95708000   -3.68776000   0.25031000
79    2   6.98639000   -5.12506000   -1.38659000
80    1   5.70474000   -2.93930000   -0.26600000
81    1   4.41761000   -3.67135000   0.18637000
82    1   4.42252000   -5.13448000   -0.32965000
83    2   4.44987000   -5.11869000   -1.44470000
84    2   5.65346000   -5.89731000   1.29958000
85    2   6.92959000   -3.70726000   1.36524000
86    2   5.73334000   -2.92132000   -1.38091000
87    2   4.39046000   -3.68723000   1.30140000
88    1   5.70267000   -1.48219000   0.25526000
89    1   8.23891000   -1.49695000   0.32406000
90    1   6.99002000   -0.74751000   -0.19329000
91    1   4.45591000   -0.73174000   -0.26601000
92    2   5.67091000   -1.50038000   1.37010000
93    2   8.20922000   -1.51842000   1.43893000
94    2   4.48992000   -0.71507000   -1.38111000
95    2   7.02135000   -0.72794000   -1.30835000
96    1   3.16039000   -1.45902000   0.18003000
97    1   3.16158000   -2.92172000   -0.32993000
98    1   3.13497000   -5.87075000   0.12442000
99    1   1.93243000   -0.68776000   -0.34184000
100    1   1.89244000   -3.66805000   0.12262000
101    1   1.89751000   -5.11138000   -0.39005000
102    2   1.91893000   -0.68666000   -1.45400000
103    2   3.11872000   -1.47131000   1.29354000
104    2   3.18164000   -2.90930000   -1.44405000
105    2   1.81662000   -3.66949000   1.23220000
106    2   1.87644000   -5.10951000   -1.50200000
107    2   3.10020000   -5.88284000   1.23812000
108    1   1.94013000   0.75739000   0.16872000
109    1   3.22195000   1.47768000   -0.26282000
110    1   4.46007000   0.72922000   0.25276000
111    1   5.74406000   1.45390000   -0.18633000
112    1   6.98753000   0.71094000   0.32887000
113    1   8.27123000   1.43972000   -0.10833000
114    2   1.85867000   0.76491000   1.27692000
115    2   4.42599000   0.72495000   1.36571000
116    2   6.95410000   0.70407000   1.44174000
117    2   3.24554000   1.54843000   -1.37273000
118    2   5.77825000   1.52269000   -1.29715000
119    2   8.30444000   1.51239000   -1.21887000
120    1   8.22206000   5.90932000   -0.28582000
121    1   6.94305000   5.17335000   0.17382000
122    1   5.68621000   5.92095000   -0.33592000
123    2   8.24264000   5.93019000   -1.40095000
124    1   6.94986000   3.71439000   -0.34698000
125    2   6.92197000   5.15471000   1.28906000
126    1   5.67562000   2.98502000   0.10862000
127    1   4.42216000   3.72253000   -0.39303000
128    1   4.40790000   5.18392000   0.12432000
129    2   6.96883000   3.72031000   -1.46023000
130    2   5.70821000   5.93867000   -1.45103000
131    2   4.38729000   5.16784000   1.23976000
132    2   4.44261000   3.72613000   -1.50635000
133    2   5.65551000   2.91731000   1.21983000
134    1   8.20430000   2.97308000   0.15012000
135    2   8.18662000   2.90225000   1.26108000
136    1   3.14349000   5.92435000   -0.38494000
137    1   3.15248000   2.98747000   0.06122000
138    1   1.88333000   5.16627000   0.07589000
139    1   1.90112000   3.72073000   -0.43332000
140    2   3.15671000   5.93635000   -1.49919000
141    2   1.81500000   5.16613000   1.18600000
142    2   1.87437000   3.71317000   -1.54420000
143    2   3.12065000   2.91746000   1.17098000
144    1   13.27753000   -5.87969000   0.18461000
145    1   15.81604000   -5.89261000   0.23875000
146    1   14.56064000   -5.14452000   -0.27155000
147    2   15.79303000   -5.91365000   1.35378000
148    2   15.86840000   -2.93111000   -1.31631000
149    1   15.84124000   -2.95272000   -0.20134000
150    1   14.55608000   -3.68776000   0.25031000
151    2   14.58539000   -5.12506000   -1.38659000
152    1   13.30374000   -2.93930000   -0.26600000
153    1   12.01661000   -3.67135000   0.18637000
154    1   12.02152000   -5.13448000   -0.32965000
155    2   12.04887000   -5.11869000   -1.44470000
156    2   13.25246000   -5.89731000   1.29958000
157    2   14.52859000   -3.70726000   1.36524000
158    2   13.33234000   -2.92132000   -1.38091000
159    2   11.98946000   -3.68723000   1.30140000
160    1   13.30167000   -1.48219000   0.25526000
161    1   15.83791000   -1.49695000   0.32406000
162    1   14.58902000   -0.74751000   -0.19329000
163    1   12.05491000   -0.73174000   -0.26601000
164    2   13.26991000   -1.50038000   1.37010000
165    2   15.80822000   -1.51842000   1.43893000
166    2   12.08892000   -0.71507000   -1.38111000
167    2   14.62035000   -0.72794000   -1.30835000
168    1   10.75939000   -1.45902000   0.18003000
169    1   10.76058000   -2.92172000   -0.32993000
170    1   10.73397000   -5.87075000   0.12442000
171    1   9.53143000   -0.68776000   -0.34184000
172    1   9.49144000   -3.66805000   0.12262000
173    1   9.49651000   -5.11138000   -0.39005000
174    2   9.51793000   -0.68666000   -1.45400000
175    2   10.71772000   -1.47131000   1.29354000
176    2   10.78064000   -2.90930000   -1.44405000
177    2   9.41562000   -3.66949000   1.23220000
178    2   9.47544000   -5.10951000   -1.50200000
179    2   10.69920000   -5.88284000   1.23812000
180    1   9.53913000   0.75739000   0.16872000
181    1   10.82095000   1.47768000   -0.26282000
182    1   12.05907000   0.72922000   0.25276000
183    1   13.34306000   1.45390000   -0.18633000
184    1   14.58653000   0.71094000   0.32887000
185    1   15.87023000   1.43972000   -0.10833000
186    2   9.45767000   0.76491000   1.27692000
187    2   12.02499000   0.72495000   1.36571000
188    2   14.55310000   0.70407000   1.44174000
189    2   10.84454000   1.54843000   -1.37273000
190    2   13.37725000   1.52269000   -1.29715000
191    2   15.90344000   1.51239000   -1.21887000
192    1   15.82106000   5.90932000   -0.28582000
193    1   14.54205000   5.17335000   0.17382000
194    1   13.28521000   5.92095000   -0.33592000
195    2   15.84164000   5.93019000   -1.40095000
196    1   14.54886000   3.71439000   -0.34698000
197    2   14.52097000   5.15471000   1.28906000
198    1   13.27462000   2.98502000   0.10862000
199    1   12.02116000   3.72253000   -0.39303000
200    1   12.00690000   5.18392000   0.12432000
201    2   14.56783000   3.72031000   -1.46023000
202    2   13.30721000   5.93867000   -1.45103000
203    2   11.98629000   5.16784000   1.23976000
204    2   12.04161000   3.72613000   -1.50635000
205    2   13.25451000   2.91731000   1.21983000
206    1   15.80330000   2.97308000   0.15012000
207    2   15.78562000   2.90225000   1.26108000
208    1   10.74249000   5.92435000   -0.38494000
209    1   10.75148000   2.98747000   0.06122000
210    1   9.48233000   5.16627000   0.07589000
211    1   9.50012000   3.72073000   -0.43332000
212    2   10.75571000   5.93635000   -1.49919000
213    2   9.41400000   5.16613000   1.18600000
214    2   9.47337000   3.71317000   -1.54420000
215    2   10.71965000   2.91746000   1.17098000
216    1   -1.92047000   -5.87969000   15.18461000
217    1   0.61804000   -5.89261000   15.23875000
218    1   -0.63736000   -5.14452000   14.72845000
219    2   0.59503000   -5.91365000   16.35378000
220    2   0.67040000   -2.93111000   13.68369000
221    1   0.64324000   -2.95272000   14.79866000
222    1   -0.64192000   -3.68776000   15.25031000
223    2   -0.61261000   -5.12506000   13.61341000
224    1   -1.89426000   -2.93930000   14.73400000
225    1   -3.18139000   -3.67135000   15.18637000
226    1   -3.17648000   -5.13448000   14.67035000
227    2   -3.14913000   -5.11869000   13.55530000
228    2   -1.94554000   -5.89731000   16.29958000
229    2   -0.66941000   -3.70726000   16.36524000
230    2   -1.86566000   -2.92132000   13.61909000
231    2   -3.20854000   -3.68723000   16.30140000
232    1   -1.89633000   -1.48219000   15.25526000
233    1   0.63991000   -1.49695000   15.32406000
234    1   -0.60898000   -0.74751000   14.80671000
235    1   -3.14309000   -0.73174000   14.73399000
236    2   -1.92809000   -1.50038000   16.37010000
237    2   0.61022000   -1.51842000   16.43893000
238    2   -3.10908000   -0.71507000   13.61889000
239    2   -0.57765000   -0.72794000   13.69165000
240    1   -4.43861000   -1.45902000   15.18003000
241    1   -4.43742000   -2.92172000   14.67007000
242    1   -4.46403000   -5.87075000   15.12442000
243    1   -5.66657000   -0.68776000   14.65816000
244    1   -5.70656000   -3.66805000   15.12262000
245    1   -5.70149000   -5.11138000   14.60995000
246    2   -5.68007000   -0.68666000   13.54600000
247    2   -4.48028000   -1.47131000   16.29354000
248    2   -4.41736000   -2.90930000   13.55595000
249    2   -5.78238000   -3.66949000   16.23220000
250    2   -5.72256000   -5.10951000   13.49800000
251    2   -4.49880000   -5.88284000   16.23812000
252    1   -5.65887000   0.75739000   15.16872000
253    1   -4.37705000   1.47768000   14.73718000
254    1   -3.13893000   0.72922000   15.25276000
255    1   -1.85494000   1.45390000   14.81367000
256    1   -0.61147000   0.71094000   15.32887000
257    1   0.67223000   1.43972000   14.89167000
258    2   -5.74033000   0.76491000   16.27692000
259    2   -3.17301000   0.72495000   16.36571000
260    2   -0.64490000   0.70407000   16.44174000
261    2   -4.35346000   1.54843000   13.62727000
262    2   -1.82075000   1.52269000   13.70285000
263    2   0.70544000   1.51239000   13.78113000
264    1   0.62306000   5.90932000   14.71418000
265    1   -0.65595000   5.17335000   15.17382000
266    1   -1.91279000   5.92095000   14.66408000
267    2   0.64364000   5.93019000   13.59905000
268    1   -0.64914000   3.71439000   14.65302000
269    2   -0.67703000   5.15471000   16.28906000
270    1   -1.92338000   2.98502000   15.10862000
271    1   -3.17684000   3.72253000   14.60697000
272    1   -3.19110000   5.18392000   15.12432000
273    2   -0.63017000   3.72031000   13.53977000
274    2   -1.89079000   5.93867000   13.54897000
275    2   -3.21171000   5.16784000   16.23976000
276    2   -3.15639000   3.72613000   13.49365000
277    2   -1.94349000   2.91731000   16.21983000
278    1   0.60530000   2.97308000   15.15012000
279    2   0.58762000   2.90225000   16.26108000
280    1   -4.45551000   5.92435000   14.61506000
281    1   -4.44652000   2.98747000   15.06122000
282    1   -5.71567000   5.16627000   15.07589000
283    1   -5.69788000   3.72073000   14.56668000
284    2   -4.44229000   5.93635000   13.50081000
285    2   -5.78400000   5.16613000   16.18600000
286    2   -5.72463000   3.71317000   13.45580000
287    2   -4.47835000   2.91746000   16.17098000
288    1   5.67853000   -5.87969000   15.18461000
289    1   8.21704000   -5.89261000   15.23875000
290    1   6.96164000   -5.14452000   14.72845000
291    2   8.19403000   -5.91365000   16.35378000
292    2   8.26940000   -2.93111000   13.68369000
293    1   8.24224000   -2.95272000   14.79866000
294    1   6.95708000   -3.68776000   15.25031000
295    2   6.98639000   -5.12506000   13.61341000
296    1   5.70474000   -2.93930000   14.73400000
297    1   4.41761000   -3.67135000   15.18637000
298    1   4.42252000   -5.13448000   14.67035000
299    2   4.44987000   -5.11869000   13.55530000
300    2   5.65346000   -5.89731000   16.29958000
301    2   6.92959000   -3.70726000   16.36524000
302    2   5.73334000   -2.92132000   13.61909000
303    2   4.39046000   -3.68723000   16.30140000
304    1   5.70267000   -1.48219000   15.25526000
305    1   8.23891000   -1.49695000   15.32406000
306    1   6.99002000   -0.74751000   14.80671000
307    1   4.45591000   -0.73174000   14.73399000
308    2   5.67091000   -1.50038000   16.37010000
309    2   8.20922000   -1.51842000   16.43893000
310    2   4.48992000   -0.71507000   13.61889000
311    2   7.02135000   -0.72794000   13.69165000
312    1   3.16039000   -1.45902000   15.18003000
313    1   3.16158000   -2.92172000   14.67007000
314    1   3.13497000   -5.87075000   15.12442000
315    1   1.93243000   -0.68776000   14.65816000
316    1   1.89244000   -3.66805000   15.12262000
317    1   1.89751000   -5.11138000   14.60995000
318    2   1.91893000   -0.68666000   13.54600000
319    2   3.11872000   -1.47131000   16.29354000
320    2   3.18164000   -2.90930000   13.55595000
321    2   1.81662000   -3.66949000   16.23220000
322    2   1.87644000   -5.10951000   13.49800000
323    2   3.10020000   -5.88284000   16.23812000
324    1   1.94013000   0.75739000   15.16872000
325    1   3.22195000   1.47768000   14.73718000
326    1   4.46007000   0.72922000   15.25276000
327    1   5.74406000   1.45390000   14.81367000
328    1   6.98753000   0.71094000   15.32887000
329    1   8.27123000   1.43972000   14.89167000
330    2   1.85867000   0.76491000   16.27692000
331    2   4.42599000   0.72495000   16.36571000
332    2   6.95410000   0.70407000   16.44174000
333    2   3.24554000   1.54843000   13.62727000
334    2   5.77825000   1.52269000   13.70285000
335    2   8.30444000   1.51239000   13.78113000
336    1   8.22206000   5.90932000   14.71418000
337    1   6.94305000   5.17335000   15.17382000
338    1   5.68621000   5.92095000   14.66408000
339    2   8.24264000   5.93019000   13.59905000
340    1   6.94986000   3.71439000   14.65302000
341    2   6.92197000   5.15471000   16.28906000
342    1   5.67562000   2.98502000   15.10862000
343    1   4.42216000   3.72253000   14.60697000
344    1   4.40790000   5.18392000   15.12432000
345    2   6.96883000   3.72031000   13.53977000
346    2   5.70821000   5.93867000   13.54897000
347    2   4.38729000   5.16784000   16.23976000
348    2   4.44261000   3.72613000   13.49365000
349    2   5.65551000   2.91731000   16.21983000
350    1   8.20430000   2.97308000   15.15012000
351    2   8.18662000   2.90225000   16.26108000
352    1   3.14349000   5.92435000   14.61506000
353    1   3.15248000   2.98747000   15.06122000
354    1   1.88333000   5.16627000   15.07589000
355    1   1.90112000   3.72073000   14.56668000
356    2   3.15671000   5.93635000   13.50081000
357    2   1.81500000   5.16613000   16.18600000
358    2   1.87437000   3.71317000   13.45580000
359    2   3.12065000   2.91746000   16.17098000
360    1   13.27753000   -5.87969000   15.18461000
361    1   15.81604000   -5.89261000   15.23875000
362    1   14.56064000   -5.14452000   14.72845000
363    2   15.79303000   -5.91365000   16.35378000
364    2   15.86840000   -2.93111000   13.68369000
365    1   15.84124000   -2.95272000   14.79866000
366    1   14.55608000   -3.68776000   15.25031000
367    2   14.58539000   -5.12506000   13.61341000
368    1   13.30374000   -2.93930000   14.73400000
369    1   12.01661000   -3.67135000   15.18637000
370    1   12.02152000   -5.13448000   14.67035000
371    2   12.04887000   -5.11869000   13.55530000
372    2   13.25246000   -5.89731000   16.29958000
373    2   14.52859000   -3.70726000   16.36524000
374    2   13.33234000   -2.92132000   13.61909000
375    2   11.98946000   -3.68723000   16.30140000
376    1   13.30167000   -1.48219000   15.25526000
377    1   15.83791000   -1.49695000   15.32406000
378    1   14.58902000   -0.74751000   14.80671000
379    1   12.05491000   -0.73174000   14.73399000
380    2   13.26991000   -1.50038000   16.37010000
381    2   15.80822000   -1.51842000   16.43893000
382    2   12.08892000   -0.71507000   13.61889000
383    2   14.62035000   -0.72794000   13.69165000
384    1   10.75939000   -1.45902000   15.18003000
385    1   10.76058000   -2.92172000   14.67007000
386    1   10.73397000   -5.87075000   15.12442000
387    1   9.53143000   -0.68776000   14.65816000
388    1   9.49144000   -3.66805000   15.12262000
389    1   9.49651000   -5.11138000   14.60995000
390    2   9.51793000   -0.68666000   13.54600000
391    2   10.71772000   -1.47131000   16.29354000
392    2   10.78064000   -2.90930000   13.55595000
393    2   9.41562000   -3.66949000   16.23220000
394    2   9.47544000   -5.10951000   13.49800000
395    2   10.69920000   -5.88284000   16.23812000
396    1   9.53913000   0.75739000   15.16872000
397    1   10.82095000   1.47768000   14.73718000
398    1   12.05907000   0.72922000   15.25276000
399    1   13.34306000   1.45390000   14.81367000
400    1   14.58653000   0.71094000   15.32887000
401    1   15.87023000   1.43972000   14.89167000
402    2   9.45767000   0.76491000   16.27692000
403    2   12.02499000   0.72495000   16.36571000
404    2   14.55310000   0.70407000   16.44174000
405    2   10.84454000   1.54843000   13.62727000
406    2   13.37725000   1.52269000   13.70285000
407    2   15.90344000   1.51239000   13.78113000
408    1   15.82106000   5.90932000   14.71418000
409    1   14.54205000   5.17335000   15.17382000
410    1   13.28521000   5.92095000   14.66408000
411    2   15.84164000   5.93019000   13.59905000
412    1   14.54886000   3.71439000   14.65302000
413    2   14.52097000   5.15471000   16.28906000
414    1   13.27462000   2.98502000   15.10862000
415    1   12.02116000   3.72253000   14.60697000
416    1   12.00690000   5.18392000   15.12432000
417    2   14.56783000   3.72031000   13.53977000
418    2   13.30721000   5.93867000   13.54897000
419    2   11.98629000   5.16784000   16.23976000
420    2   12.04161000   3.72613000   13.49365000
421    2   13.25451000   2.91731000   16.21983000
422    1   15.80330000   2.97308000   15.15012000
423    2   15.78562000   2.90225000   16.26108000
424    1   10.74249000   5.92435000   14.61506000
425    1   10.75148000   2.98747000   15.06122000
426    1   9.48233000   5.16627000   15.07589000
427    1   9.50012000   3.72073000   14.56668000
428    2   10.75571000   5.93635000   13.50081000
429    2   9.41400000   5.16613000   16.18600000
430    2   9.47337000   3.71317000   13.45580000
431    2   10.71965000   2.91746000   16.17098000
432    4   -1.42005000   -2.83897500   6.27487000
433    2   -0.59054200   -3.33127800   6.61851800
434    2   -2.23808000   -3.38309200   6.56404900
435    2   -1.46545500   -1.93565400   6.75396600
436    1   -1.39154800   -2.65673200   4.79103300
437    2   -1.54579300   -3.64112700   4.34978000
438    2   -2.25839800   -2.04074400   4.54932000
439    1   -0.09705800   -2.03184500   4.28005600
440    2   0.71435400   -2.76693300   4.33863600
441    2   0.18961200   -1.16831500   4.88875700
442    1   -0.41675300   -1.64132100   2.83271400
443    2   -1.09067200   -2.42119900   2.48737900
444    2   -1.00158700   -0.71911800   2.86156500
445    1   0.78394500   -1.51362200   1.88816900
446    2   1.43735000   -2.34293500   2.15719100
447    2   1.33490200   -0.62829600   2.20580100
448    3   8.54595412   -4.53845661   8.00145619
449    2   8.18989063   -5.13086930   8.70177703
450    2   9.16590034   -5.14543624   7.54850013
451    3   0.98055670   -5.35617755   5.47440821
452    2   -6.49801142   1.14595342   10.58988631
453    2   1.92489164   -5.22742199   5.18313459
454    3   -1.31982185   -5.52336603   3.74088215
455    2   -0.60566211   -5.47657697   4.43788053
456    2   -0.89104938   -5.86245577   2.94742190
457    3   -3.78162292   -3.94804953   7.18701730
458    2   -4.23129658   -4.79506318   6.97624819
459    2   -3.69451502   -3.88489715   8.17397973
460    3   -0.55642702   1.09665749   7.85544646
461    2   0.27115895   0.82001533   8.38324744
462    2   -0.04114134   1.45740226   7.11106527
463    3   -1.00337349   6.37786924   6.83327170
464    2   -1.04421105   -6.06334912   7.08668768
465    2   -0.30962460   6.38191787   6.14181161
466    3   3.96475708   -6.22212488   5.39616212
467    2   4.07125060   -5.66339082   6.18893831
468    2   4.75175157   -6.05187108   4.79643194
469    3   -3.97130226   -0.06881217   9.16849987
470    2   -3.28122354   0.62110898   9.08241487
471    2   -4.19089616   -0.40283520   8.28122069
472    3   0.65203387   -20.07475672   9.13271785
473    2   1.06644989   -20.70520540   9.68728454
474    2   1.11529533   -19.97487791   8.32099712
475    3   -7.34018861   -13.01401137   3.76574048
476    2   -6.74251252   -12.81019099   4.50889040
477    2   -7.90904024   -13.71905742   4.10928561
478    3   -2.37613827   3.89194500   7.47172546
479    2   -2.72723774   4.29232031   8.26215603
480    2   -2.42915015   4.64803141   6.88678028
481    3   1.86080344   2.37052692   6.44785007
482    2   2.29141712   3.26138060   6.37144005
483    2   2.27222921   1.95690305   7.26867179
484    3   2.60653060   -1.66750925   7.99153661
485    2   3.22780529   -1.94557008   7.23836800
486    2   1.85247869   -2.35633424   7.88877888
487    3   -0.27342883   -1.76655347   9.37971117
488    2   0.32573690   -1.00558215   9.56574713
489    2   0.34751981   -2.41808061   8.97415318
490    3   -2.76072830   -3.52062345   10.15529120
491    2   -3.29413600   -2.74755641   10.38760608
492    2   -1.88502936   -3.27247715   9.89949354
493    3   4.56176344   -16.79011035   11.32203635
494    2   4.24967112   -17.72525801   11.37043545
495    2   4.82913899   -16.67860075   10.41976265
496    3   0.92205268   -3.66072085   7.36459331
497    2   1.01666423   -4.42843915   7.99093751
498    2   0.86497359   -4.59563707   6.13335342
499    3   -3.97821253   6.30948445   3.81807322
500    2   -3.13825028   -6.56921949   3.73294295
501    2   -3.74769790   5.37991914   3.66709470
502    3   -5.11503369   3.64556179   5.37422398
503    2   -5.88202788   4.17179992   5.59828298
504    2   -4.34115551   4.23555754   5.42521945
505    3   6.55440828   -6.40218958   8.59589423
506    2   5.63648132   -6.44821569   8.90666436
507    2   6.56752186   -6.84171507   7.70133627
508    3   1.83076017   0.74520841   9.21728815
509    2   2.21949109   -0.13328533   8.93797303
510    2   1.96574855   0.84142510   10.17628251
511    3   -5.29256761   0.84577742   6.02821611
512    2   -5.30515318   0.73023928   7.01176576
513    2   -5.10562194   1.76502456   5.85352833
514    3   9.01508187   -2.09813971   5.72849119
515    2   9.47020818   -1.75093184   6.47842462
516    2   8.45234765   -2.84733837   5.91890415
517    3   8.06134364   0.88866984   7.95347935
518    2   7.68790992   0.18326574   8.55684477
519    2   8.45467397   0.42314735   7.19720118
520    3   -2.37585087   -0.38906948   6.77216593
521    2   -1.94422166   0.01160468   7.56815332
522    2   -2.49518833   0.36161433   6.09406958
523    3   2.23476528   5.15150165   6.51753181
524    2   1.33408995   5.42295546   6.18831430
525    2   2.84333898   5.78822680   6.03138682
526    3   3.81661422   2.76403837   11.25291462
527    2   4.15477436   3.66986456   11.30541805
528    2   4.06527667   2.24801722   12.05906248
529    3   3.64736419   -3.57498707   6.05698369
530    2   2.68949857   -3.69580967   6.20373836
531    2   4.05869039   -3.53753459   6.93866036
532    3   -3.10844672   0.67442590   4.00275688
533    2   -3.08247227   -0.31238764   4.25019997
534    2   -4.02991347   0.89017260   4.15592283
535    3   4.89975178   1.26304521   8.95981954
536    2   5.41987669   1.72002112   9.62715992
537    2   4.02173648   1.60415618   9.22299929
538    3   -5.77473495   1.68488990   10.94679519
539    2   -4.94999765   1.37792769   10.55468216
#dimensions of perodic box
     0.000     0.000     0.000
    22.797     0.000     0.000
     0.000     13.392    0.000
     0.000     0.000     60.000
}
Driver = VelocityVerlet{
  TimeStep [fs] = 1
  Thermostat = None{}
  Steps = 10000
  MovedAtoms =448:-1 # last -1 means all atoms; otherwise list first:last out of movable
  MDRestartFrequency = 10
  ConvergentForcesOnly = Yes #if the SCC cycle does not converge at any geometric step, forces will be calculated using the non-converged charges
  Velocities [AA/ps] {
   0.00000000   0.00000000   0.00000000
   0.00000000   0.00000000   0.00000000
   0.00000000   0.00000000   0.00000000
   0.00000000   0.00000000   0.00000000
   0.00000000   0.00000000   0.00000000
   0.00000000   0.00000000   0.00000000
   0.00000000   0.00000000   0.00000000
   0.00000000   0.00000000   0.00000000
   0.00000000   0.00000000   0.00000000
   0.00000000   0.00000000   0.00000000
   0.00000000   0.00000000   0.00000000
   0.00000000   0.00000000   0.00000000
   0.00000000   0.00000000   0.00000000
   0.00000000   0.00000000   0.00000000
   0.00000000   0.00000000   0.00000000
   0.00000000   0.00000000   0.00000000
   0.00000000   0.00000000   0.00000000
   0.00000000   0.00000000   0.00000000
   0.00000000   0.00000000   0.00000000
   0.00000000   0.00000000   0.00000000
   0.00000000   0.00000000   0.00000000
   0.00000000   0.00000000   0.00000000
   0.00000000   0.00000000   0.00000000
   0.00000000   0.00000000   0.00000000
   0.00000000   0.00000000   0.00000000
   0.00000000   0.00000000   0.00000000
   0.00000000   0.00000000   0.00000000
   0.00000000   0.00000000   0.00000000
   0.00000000   0.00000000   0.00000000
   0.00000000   0.00000000   0.00000000
   0.00000000   0.00000000   0.00000000
   0.00000000   0.00000000   0.00000000
   0.00000000   0.00000000   0.00000000
   0.00000000   0.00000000   0.00000000
   0.00000000   0.00000000   0.00000000
   0.00000000   0.00000000   0.00000000
   0.00000000   0.00000000   0.00000000
   0.00000000   0.00000000   0.00000000
   0.00000000   0.00000000   0.00000000
   0.00000000   0.00000000   0.00000000
   0.00000000   0.00000000   0.00000000
   0.00000000   0.00000000   0.00000000
   0.00000000   0.00000000   0.00000000
   0.00000000   0.00000000   0.00000000
   0.00000000   0.00000000   0.00000000
   0.00000000   0.00000000   0.00000000
   0.00000000   0.00000000   0.00000000
   0.00000000   0.00000000   0.00000000
   0.00000000   0.00000000   0.00000000
   0.00000000   0.00000000   0.00000000
   0.00000000   0.00000000   0.00000000
   0.00000000   0.00000000   0.00000000
   0.00000000   0.00000000   0.00000000
   0.00000000   0.00000000   0.00000000
   0.00000000   0.00000000   0.00000000
   0.00000000   0.00000000   0.00000000
   0.00000000   0.00000000   0.00000000
   0.00000000   0.00000000   0.00000000
   0.00000000   0.00000000   0.00000000
   0.00000000   0.00000000   0.00000000
   0.00000000   0.00000000   0.00000000
   0.00000000   0.00000000   0.00000000
   0.00000000   0.00000000   0.00000000
   0.00000000   0.00000000   0.00000000
   0.00000000   0.00000000   0.00000000
   0.00000000   0.00000000   0.00000000
   0.00000000   0.00000000   0.00000000
   0.00000000   0.00000000   0.00000000