#
Geometry = GenFormat {
335 S
C  H  O N
1    2   -1.94349000   16.41731000   41.21983000
2    1   0.60530000   16.47308000   40.15012000
3    2   0.58762000   16.40225000   41.26108000
4    1   -4.45551000   19.42435000   39.61506000
5    1   -4.44652000   16.48747000   40.06122000
6    1   -5.71567000   18.66627000   40.07589000
7    1   -5.69788000   17.22073000   39.56668000
8    2   -4.44229000   19.43635000   38.50081000
9    2   -5.78400000   18.66613000   41.18600000
10    2   -5.72463000   17.21317000   38.45580000
11    2   -4.47835000   16.41746000   41.17098000
12    1   13.27753000   7.62031000   55.18461000
13    1   15.81604000   7.60739000   55.23875000
14    1   14.56064000   8.35548000   54.72845000
15    2   15.79303000   7.58635000   56.35378000
16    2   15.86840000   10.56889000   53.68369000
17    1   15.84124000   10.54728000   54.79866000
18    1   14.55608000   9.81224000   55.25031000
19    2   14.58539000   8.37494000   53.61341000
20    1   13.30374000   10.56070000   54.73400000
21    1   12.01661000   9.82865000   55.18637000
22    1   12.02152000   8.36552000   54.67035000
23    2   12.04887000   8.38131000   53.55530000
24    2   13.25246000   7.60269000   56.29958000
25    2   14.52859000   9.79274000   56.36524000
26    2   13.33234000   10.57868000   53.61909000
27    2   11.98946000   9.81277000   56.30140000
28    1   13.30167000   12.01781000   55.25526000
29    1   15.83791000   12.00305000   55.32406000
30    1   14.58902000   12.75249000   54.80671000
31    1   12.05491000   12.76826000   54.73399000
32    2   13.26991000   11.99962000   56.37010000
33    2   15.80822000   11.98158000   56.43893000
34    2   12.08892000   12.78493000   53.61889000
35    2   14.62035000   12.77206000   53.69165000
36    1   10.75939000   12.04098000   55.18003000
37    1   10.76058000   10.57828000   54.67007000
38    1   10.73397000   7.62925000   55.12442000
39    1   9.53143000   12.81224000   54.65816000
40    1   9.49144000   9.83195000   55.12262000
41    1   9.49651000   8.38862000   54.60995000
42    2   9.51793000   12.81334000   53.54600000
43    2   10.71772000   12.02869000   56.29354000
44    2   10.78064000   10.59070000   53.55595000
45    2   9.41562000   9.83051000   56.23220000
46    2   9.47544000   8.39049000   53.49800000
47    2   10.69920000   7.61716000   56.23812000
48    1   9.53913000   14.25739000   55.16872000
49    1   10.82095000   14.97768000   54.73718000
50    1   12.05907000   14.22922000   55.25276000
51    1   13.34306000   14.95390000   54.81367000
52    1   14.58653000   14.21094000   55.32887000
53    1   15.87023000   14.93972000   54.89167000
54    2   9.45767000   14.26491000   56.27692000
55    2   12.02499000   14.22495000   56.36571000
56    2   14.55310000   14.20407000   56.44174000
57    2   10.84454000   15.04843000   53.62727000
58    2   13.37725000   15.02269000   53.70285000
59    2   15.90344000   15.01239000   53.78113000
60    1   15.82106000   19.40932000   54.71418000
61    1   14.54205000   18.67335000   55.17382000
62    1   13.28521000   19.42095000   54.66408000
63    2   15.84164000   19.43019000   53.59905000
64    1   14.54886000   17.21439000   54.65302000
65    2   14.52097000   18.65471000   56.28906000
66    1   13.27462000   16.48502000   55.10862000
67    1   12.02116000   17.22253000   54.60697000
68    1   12.00690000   18.68392000   55.12432000
69    2   14.56783000   17.22031000   53.53977000
70    2   13.30721000   19.43867000   53.54897000
71    2   11.98629000   18.66784000   56.23976000
72    2   12.04161000   17.22613000   53.49365000
73    2   13.25451000   16.41731000   56.21983000
74    1   15.80330000   16.47308000   55.15012000
75    2   15.78562000   16.40225000   56.26108000
76    1   10.74249000   19.42435000   54.61506000
77    1   10.75148000   16.48747000   55.06122000
78    1   9.48233000   18.66627000   55.07589000
79    1   9.50012000   17.22073000   54.56668000
80    2   10.75571000   19.43635000   53.50081000
81    2   9.41400000   18.66613000   56.18600000
82    2   9.47337000   17.21317000   53.45580000
83    2   10.71965000   16.41746000   56.17098000
84    1   20.87653000   7.62031000   55.18461000
85    1   -6.98096000   7.60739000   55.23875000
86    1   22.15964000   8.35548000   54.72845000
87    2   -7.00397000   7.58635000   56.35378000
88    2   -6.92860000   10.56889000   53.68369000
89    1   -6.95576000   10.54728000   54.79866000
90    1   22.15508000   9.81224000   55.25031000
91    2   22.18439000   8.37494000   53.61341000
92    1   20.90274000   10.56070000   54.73400000
93    1   19.61561000   9.82865000   55.18637000
94    1   19.62052000   8.36552000   54.67035000
95    2   19.64787000   8.38131000   53.55530000
96    2   20.85146000   7.60269000   56.29958000
97    2   22.12759000   9.79274000   56.36524000
98    2   20.93134000   10.57868000   53.61909000
99    2   19.58846000   9.81277000   56.30140000
100    1   20.90067000   12.01781000   55.25526000
101    1   -6.95909000   12.00305000   55.32406000
102    1   22.18802000   12.75249000   54.80671000
103    1   19.65391000   12.76826000   54.73399000
104    2   20.86891000   11.99962000   56.37010000
105    2   -6.98878000   11.98158000   56.43893000
106    2   19.68792000   12.78493000   53.61889000
107    2   22.21935000   12.77206000   53.69165000
108    1   18.35839000   12.04098000   55.18003000
109    1   18.35958000   10.57828000   54.67007000
110    1   18.33297000   7.62925000   55.12442000
111    1   17.13043000   12.81224000   54.65816000
112    1   17.09044000   9.83195000   55.12262000
113    1   17.09551000   8.38862000   54.60995000
114    2   17.11693000   12.81334000   53.54600000
115    2   18.31672000   12.02869000   56.29354000
116    2   18.37964000   10.59070000   53.55595000
117    2   17.01462000   9.83051000   56.23220000
118    2   17.07444000   8.39049000   53.49800000
119    2   18.29820000   7.61716000   56.23812000
120    1   17.13813000   14.25739000   55.16872000
121    1   18.41995000   14.97768000   54.73718000
122    1   19.65807000   14.22922000   55.25276000
123    1   20.94206000   14.95390000   54.81367000
124    1   22.18553000   14.21094000   55.32887000
125    1   -6.92677000   14.93972000   54.89167000
126    2   17.05667000   14.26491000   56.27692000
127    2   19.62399000   14.22495000   56.36571000
128    2   22.15210000   14.20407000   56.44174000
129    2   18.44354000   15.04843000   53.62727000
130    2   20.97625000   15.02269000   53.70285000
131    2   -6.89356000   15.01239000   53.78113000
132    1   -6.97594000   19.40932000   54.71418000
133    1   22.14105000   18.67335000   55.17382000
134    1   20.88421000   19.42095000   54.66408000
135    2   -6.95536000   19.43019000   53.59905000
136    1   22.14786000   17.21439000   54.65302000
137    2   22.11997000   18.65471000   56.28906000
138    1   20.87362000   16.48502000   55.10862000
139    1   19.62016000   17.22253000   54.60697000
140    1   19.60590000   18.68392000   55.12432000
141    2   22.16683000   17.22031000   53.53977000
142    2   20.90621000   19.43867000   53.54897000
143    2   19.58529000   18.66784000   56.23976000
144    2   19.64061000   17.22613000   53.49365000
145    2   20.85351000   16.41731000   56.21983000
146    1   -6.99370000   16.47308000   55.15012000
147    2   -7.01138000   16.40225000   56.26108000
148    1   18.34149000   19.42435000   54.61506000
149    1   18.35048000   16.48747000   55.06122000
150    1   17.08133000   18.66627000   55.07589000
151    1   17.09912000   17.22073000   54.56668000
152    2   18.35471000   19.43635000   53.50081000
153    2   17.01300000   18.66613000   56.18600000
154    2   17.07237000   17.21317000   53.45580000
155    2   18.31865000   16.41746000   56.17098000
156    1   -1.92047000   7.62031000   55.18461000
157    1   0.61804000   7.60739000   55.23875000
158    1   -0.63736000   8.35548000   54.72845000
159    2   0.59503000   7.58635000   56.35378000
160    2   0.67040000   10.56889000   53.68369000
161    1   0.64324000   10.54728000   54.79866000
162    1   -0.64192000   9.81224000   55.25031000
163    2   -0.61261000   8.37494000   53.61341000
164    1   -1.89426000   10.56070000   54.73400000
165    1   -3.18139000   9.82865000   55.18637000
166    1   -3.17648000   8.36552000   54.67035000
167    2   -3.14913000   8.38131000   53.55530000
168    2   -1.94554000   7.60269000   56.29958000
169    2   -0.66941000   9.79274000   56.36524000
170    2   -1.86566000   10.57868000   53.61909000
171    2   -3.20854000   9.81277000   56.30140000
172    1   -1.89633000   12.01781000   55.25526000
173    1   0.63991000   12.00305000   55.32406000
174    1   -0.60898000   12.75249000   54.80671000
175    1   -3.14309000   12.76826000   54.73399000
176    2   -1.92809000   11.99962000   56.37010000
177    2   0.61022000   11.98158000   56.43893000
178    2   -3.10908000   12.78493000   53.61889000
179    2   -0.57765000   12.77206000   53.69165000
180    1   -4.43861000   12.04098000   55.18003000
181    1   -4.43742000   10.57828000   54.67007000
182    1   -4.46403000   7.62925000   55.12442000
183    1   -5.66657000   12.81224000   54.65816000
184    1   -5.70656000   9.83195000   55.12262000
185    1   -5.70149000   8.38862000   54.60995000
186    2   -5.68007000   12.81334000   53.54600000
187    2   -4.48028000   12.02869000   56.29354000
188    2   -4.41736000   10.59070000   53.55595000
189    2   -5.78238000   9.83051000   56.23220000
190    2   -5.72256000   8.39049000   53.49800000
191    2   -4.49880000   7.61716000   56.23812000
192    1   -5.65887000   14.25739000   55.16872000
193    1   -4.37705000   14.97768000   54.73718000
194    1   -3.13893000   14.22922000   55.25276000
195    1   -1.85494000   14.95390000   54.81367000
196    1   -0.61147000   14.21094000   55.32887000
197    1   0.67223000   14.93972000   54.89167000
198    2   -5.74033000   14.26491000   56.27692000
199    2   -3.17301000   14.22495000   56.36571000
200    2   -0.64490000   14.20407000   56.44174000
201    2   -4.35346000   15.04843000   53.62727000
202    2   -1.82075000   15.02269000   53.70285000
203    2   0.70544000   15.01239000   53.78113000
204    1   0.62306000   19.40932000   54.71418000
205    1   -0.65595000   18.67335000   55.17382000
206    1   -1.91279000   19.42095000   54.66408000
207    2   0.64364000   19.43019000   53.59905000
208    1   -0.64914000   17.21439000   54.65302000
209    2   -0.67703000   18.65471000   56.28906000
210    1   -1.92338000   16.48502000   55.10862000
211    1   -3.17684000   17.22253000   54.60697000
212    1   -3.19110000   18.68392000   55.12432000
213    2   -0.63017000   17.22031000   53.53977000
214    2   -1.89079000   19.43867000   53.54897000
215    2   -3.21171000   18.66784000   56.23976000
216    2   -3.15639000   17.22613000   53.49365000
217    2   -1.94349000   16.41731000   56.21983000
218    1   0.60530000   16.47308000   55.15012000
219    2   0.58762000   16.40225000   56.26108000
220    1   -4.45551000   19.42435000   54.61506000
221    1   -4.44652000   16.48747000   55.06122000
222    1   -5.71567000   18.66627000   55.07589000
223    1   -5.69788000   17.22073000   54.56668000
224    2   -4.44229000   19.43635000   53.50081000
225    2   -5.78400000   18.66613000   56.18600000
226    2   -5.72463000   17.21317000   53.45580000
227    2   -4.47835000   16.41746000   56.17098000
228    4   13.77795000   10.66102500   46.27487000
229    2   14.60745800   10.16872200   46.61851800
230    2   12.95992000   10.11690800   46.56404900
231    2   13.73254500   11.56434600   46.75396600
232    1   13.80645200   10.84326800   44.79103300
233    2   13.65220700   9.85887300   44.34978000
234    2   12.93960200   11.45925600   44.54932000
235    1   15.10094200   11.46815500   44.28005600
236    2   15.91235400   10.73306700   44.33863600
237    2   15.38761200   12.33168500   44.88875700
238    1   14.78124700   11.85867900   42.83271400
239    2   14.10732800   11.07880100   42.48737900
240    2   14.19641300   12.78088200   42.86156500
241    1   15.98194500   11.98637800   41.88816900
242    2   16.63535000   11.15706500   42.15719100
243    2   16.53290200   12.87170400   42.20580100
244    3   -6.65204588   8.96154339   48.00145619
245    2   -7.00810937   8.36913070   48.70177703
246    2   -6.03209966   8.35456376   47.54850013
247    3   16.17855670   8.14382245   45.47440821
248    2   1.10098858   14.64595342   50.58988631
249    2   17.12289164   8.27257801   45.18313459
250    3   6.27917815   7.97663397   43.74088215
251    2   6.99333789   8.02342303   44.43788053
252    2   6.70795062   7.63754423   42.94742190
253    3   11.41637708   -4.05604953   47.18701730
254    2   10.96670342   -4.90306318   46.97624819
255    2   11.50348498   -3.99289715   48.17397973
256    3   14.64157298   14.59665749   47.85544646
257    2   15.46915895   14.32001533   48.38324744
258    2   15.15685866   14.95740226   47.11106527
259    3   14.19462651   19.87786924   46.83327170
260    2   14.15378895   -6.17134912   47.08668768
261    2   14.88837540   19.88191787   46.14181161
262    3   19.16275708   -6.33012488   45.39616212
263    2   19.26925060   -5.77139082   46.18893831
264    2   19.94975157   -6.15987108   44.79643194
265    3   3.62769774   13.43118783   49.16849987
266    2   4.31777646   14.12110898   49.08241487
267    2   3.40810384   13.09716480   48.28122069
268    3   -37.34296613   -46.96675672   49.13271785
269    2   -36.92855011   -47.59720540   49.68728454
270    2   -36.87970467   -46.86687791   48.32099712
271    3   7.85781139   -39.90601137   43.76574048
272    2   8.45548748   -39.70219099   44.50889040
273    2   -23.10704024   -40.61105742   44.10928561
274    3   12.82186173   -23.00005500   47.47172546
275    2   12.47076226   -22.59967969   48.26215603
276    2   12.76884985   -22.24396859   46.88678028
277    3   17.05880344   2.26252692   46.44785007
278    2   17.48941712   3.15338060   46.37144005
279    2   17.47022921   1.84890305   47.26867179
280    3   10.20553060   -28.55950925   47.99153661
281    2   10.82680529   -28.83757008   47.23836800
282    2   9.45147869   -29.24833424   47.88877888
283    3   14.92457117   11.73344653   49.37971117
284    2   15.52373690   12.49441785   49.56574713
285    2   15.54551981   11.08191939   48.97415318
286    3   4.83827170   -3.62862345   50.15529120
287    2   4.30486400   -2.85555641   50.38760608
288    2   5.71397064   -3.38047715   49.89949354
289    3   12.16076344   -43.68211035   51.32203635
290    2   11.84867112   -44.61725801   51.37043545
291    2   12.42813899   -43.57060075   50.41976265
292    3   16.12005268   9.83927915   47.36459331
293    2   16.21466423   9.07156085   47.99093751
294    2   16.06297359   8.90436293   46.13335342
295    3   -41.97321253   19.80948445   43.81807322
296    2   -41.13325028   -6.67721949   43.73294295
297    2   -41.74269790   18.87991914   43.66709470
298    3   10.08296631   17.14556179   45.37422398
299    2   9.31597212   17.67179992   45.59828298
300    2   10.85684449   17.73555754   45.42521945
301    3   21.75240828   -33.29418958   48.59589423
302    2   20.83448132   -33.34021569   48.90666436
303    2   21.76552186   -33.73371507   47.70133627
304    3   17.02876017   14.24520841   49.21728815
305    2   17.41749109   13.36671467   48.93797303
306    2   17.16374855   14.34142510   50.17628251
307    3   9.90543239   -26.04622258   46.02821611
308    2   9.89284682   -26.16176072   47.01176576
309    2   10.09237806   -25.12697544   45.85352833
310    3   -6.18291813   -28.99013971   45.72849119
311    2   -5.72779182   -28.64293184   46.47842462
312    2   -6.74565235   -29.73933837   45.91890415
313    3   -7.13665636   0.78066984   47.95347935
314    2   -7.51009008   0.07526574   48.55684477
315    2   -6.74332603   0.31514735   47.19720118
316    3   5.22314913   13.11093052   46.77216593
317    2   5.65477834   13.51160468   47.56815332
318    2   5.10381167   13.86161433   46.09406958
319    3   -35.76023472   -21.74049835   46.51753181
320    2   -36.66091005   -21.46904454   46.18831430
321    2   -35.15166102   -21.10377320   46.03138682
322    3   11.41561422   -24.12796163   51.25291462
323    2   11.75377436   -23.22213544   51.30541805
324    2   11.66427667   -24.64398278   52.05906248
325    3   11.24636419   -3.68298707   46.05698369
326    2   10.28849857   -3.80380967   46.20373836
327    2   11.65769039   -3.64553459   46.93866036
328    3   12.08955328   14.17442590   44.00275688
329    2   12.11552773   13.18761236   44.25019997
330    2   11.16808653   14.39017260   44.15592283
331    3   20.09775178   1.15504521   48.95981954
332    2   20.61787669   1.61202112   49.62715992
333    2   19.21973648   1.49615618   49.22299929
334    3   1.82426505   15.18488990   50.94679519
335    2   2.64900235   14.87792769   50.55468216
#dimensions of perodic box
     0.000     0.000     0.000
    15.198     0.000     0.000
     0.000     13.500    0.000
     0.000     0.000     40.000
}
Driver = VelocityVerlet{
  TimeStep [fs] = 1
  Thermostat = None{}
  Steps = 10000
  MovedAtoms =304:-1 # last -1 means all atoms; otherwise list first:last out of movable
  MDRestartFrequency = 10
  ConvergentForcesOnly = Yes #if the SCC cycle does not converge at any geometric step, forces will be calculated using the non-converged charges
  Velocities [AA/ps] {
   0.00000000   0.00000000   0.00000000
   0.00000000   0.00000000   0.00000000
   0.00000000   0.00000000   0.00000000
   0.00000000   0.00000000   0.00000000
   0.00000000   0.00000000   0.00000000
   0.00000000   0.00000000   0.00000000
   0.00000000   0.00000000   0.00000000
   0.00000000   0.00000000   0.00000000
   0.00000000   0.00000000   0.00000000
   0.00000000   0.00000000   0.00000000
   0.00000000   0.00000000   0.00000000
   0.00000000   0.00000000   0.00000000
   0.00000000   0.00000000   0.00000000
   0.00000000   0.00000000   0.00000000
   0.00000000   0.00000000   0.00000000
   0.00000000   0.00000000   0.00000000
   0.00000000   0.00000000   0.00000000
   0.00000000   0.00000000   0.00000000
   0.00000000   0.00000000   0.00000000
   0.00000000   0.00000000   0.00000000
   0.00000000   0.00000000   0.00000000
   0.00000000   0.00000000   0.00000000
   0.00000000   0.00000000   0.00000000
   0.00000000   0.00000000   0.00000000
   0.00000000   0.00000000   0.00000000
   0.00000000   0.00000000   0.00000000
   0.00000000   0.00000000   0.00000000
   0.00000000   0.00000000   0.00000000
   0.00000000   0.00000000   0.00000000
   0.00000000   0.00000000   0.00000000
   0.00000000   0.00000000   0.00000000
   0.00000000   0.00000000   0.00000000
   0.00000000   0.00000000   0.00000000
   0.00000000   0.00000000   0.00000000
   0.00000000   0.00000000   0.00000000
   0.00000000   0.00000000   0.00000000
   0.00000000   0.00000000   0.00000000
   0.00000000   0.00000000   0.00000000
   0.00000000   0.00000000   0.00000000
   0.00000000   0.00000000   0.00000000
   0.00000000   0.00000000   0.00000000
   0.00000000   0.00000000   0.00000000
   0.00000000   0.00000000   0.00000000
   0.00000000   0.00000000   0.00000000
   0.00000000   0.00000000   0.00000000
   0.00000000   0.00000000   0.00000000
   0.00000000   0.00000000   0.00000000
   0.00000000   0.00000000   0.00000000
   0.00000000   0.00000000   0.00000000
   0.00000000   0.00000000   0.00000000
   0.00000000   0.00000000   0.00000000
   0.00000000   0.00000000   0.00000000
   0.00000000   0.00000000   0.00000000
   0.00000000   0.00000000   0.00000000
   0.00000000   0.00000000   0.00000000
   0.00000000   0.00000000   0.00000000
   0.00000000   0.00000000   0.00000000
   0.00000000   0.00000000   0.00000000
   0.00000000   0.00000000   0.00000000
   0.00000000   0.00000000   0.00000000
   0.00000000   0.00000000   0.00000000
   0.00000000   0.00000000   0.00000000
   0.00000000   0.00000000   0.00000000
   0.00000000   0.00000000   0.00000000
   0.00000000   0.00000000   0.00000000
   0.00000000   0.00000000   0.00000000
   0.00000000   0.00000000   0.00000000
   0.00000000   0.00000000   0.00000000
   0.00000000   0.00000000   0.00000000
   0.00000000   0.00000000   0.00000000
   0.00000000   0.00000000   0.00000000
   0.00000000   0.00000000   0.00000000
   0.00000000   0.00000000   0.00000000
   0.00000000   0.00000000   0.00000000
   0.00000000   0.00000000   0.00000000
   0.00000000   0.00000000   0.00000000
   0.00000000   0.00000000   0.00000000
   0.00000000   0.00000000   0.00000000
   0.00000000   0.00000000   0.00000000
   0.00000000   0.00000000   0.00000000
   0.00000000   0.00000000   0.00000000
   0.00000000   0.00000000   0.00000000
   0.00000000   0.00000000   0.00000000
   0.00000000   0.00000000   0.00000000
   0.00000000   0.00000000   0.00000000
   0.00000000   0.00000000   0.00000000
   0.00000000   0.00000000   0.00000000
   0.00000000   0.00000000   0.00000000
   0.00000000   0.00000000   0.00000000
   0.00000000   0.00000000   0.00000000
   0.00000000   0.00000000   0.00000000
   0.00000000   0.00000000   0.00000000
   0.00000000   0.00000000   0.00000000
   0.00000000   0.00000000   0.00000000
   0.00000000   0.00000000   0.00000000
   0.00000000   0.00000000   0.00000000
   0.00000000   0.00000000   0.00000000
   0.00000000   0.00000000   0.00000000
   0.00000000   0.00000000   0.00000000
   0.00000000   0.00000000   0.00000000
   0.00000000   0.00000000   0.00000000
   0.00000000   0.00000000   0.00000000
   0.00000000   0.00000000   0.00000000
   0.00000000   0.00000000   0.00000000
   0.00000000   0.00000000   0.00000000
   0.00000000   0.00000000   0.00000000
   0.00000000   0.00000000   0.00000000
   0.00000000   0.00000000   0.00000000
   0.00000000   0.00000000   0.00000000
   0.00000000   0.00000000   0.00000000
   0.00000000   0.00000000   0.00000000
   0.00000000   0.00000000   0.00000000
   0.00000000   0.00000000   0.00000000
   0.00000000   0.00000000   0.00000000
   0.00000000   0.00000000   0.00000000
   0.00000000   0.00000000   0.00000000
   0.00000000   0.00000000   0.00000000
   0.00000000   0.00000000   0.00000000
   0.00000000   0.00000000   0.00000000
   0.00000000   0.00000000   0.00000000
   0.00000000   0.00000000   0.00000000
   0.00000000   0.00000000   0.00000000
   0.00000000   0.00000000   0.00000000
   0.00000000   0.00000000   0.00000000
   0.00000000   0.00000000   0.00000000
   0.00000000   0.00000000   0.00000000
   0.00000000   0.00000000   0.00000000
   0.00000000   0.00000000   0.00000000
   0.00000000   0.00000000   0.00000000
   0.00000000   0.00000000   0.00000000
   0.00000000   0.00000000   0.00000000
   0.00000000   0.00000000   0.00000000
   0.00000000   0.00000000   0.00000000
   0.00000000   0.00000000   0.00000000
   0.00000000   0.00000000   0.00000000
   0.00000000   0.00000000   0.00000000
   0.00000000   0.00000000   0.00000000
   0.00000000   0.00000000   0.00000000
   0.00000000   0.00000000   0.00000000
   0.00000000   0.00000000   0.00000000
   0.00000000   0.00000000   0.00000000
   0.00000000   0.00000000   0.00000000
   0.00000000   0.00000000   0.00000000
   0.00000000   0.00000000   0.00000000
   0.00000000   0.00000000   0.00000000
   0.00000000   0.00000000   0.00000000
   0.00000000   0.00000000   0.00000000
   0.00000000   0.00000000   0.00000000
   0.00000000   0.00000000   0.00000000
   0.00000000   0.00000000   0.00000000
   0.00000000   0.00000000   0.00000000
   0.00000000   0.00000000   0.00000000
   0.00000000   0.00000000   0.00000000
   0.00000000   0.00000000   0.00000000
   0.00000000   0.00000000   0.00000000
   0.00000000   0.00000000   0.00000000
   0.00000000   0.00000000   0.00000000
   0.00000000   0.00000000   0.00000000
   0.00000000   0.00000000   0.00000000
   0.00000000   0.00000000   0.00000000
   0.00000000   0.00000000   0.00000000
   0.00000000   0.00000000   0.00000000
   0.00000000   0.00000000   0.00000000
   0.00000000   0.00000000   0.00000000
   0.00000000   0.00000000   0.00000000
   0.00000000   0.00000000   0.00000000
   0.00000000   0.00000000   0.00000000
   0.00000000   0.00000000   0.00000000
   0.00000000   0.00000000   0.00000000
   0.00000000   0.00000000   0.00000000
   0.00000000   0.00000000   0.00000000
   0.00000000   0.00000000   0.00000000
   0.00000000   0.00000000   0.00000000
   0.00000000   0.00000000   0.00000000
   0.00000000   0.00000000   0.00000000
   0.00000000   0.00000000   0.00000000
   0.00000000   0.00000000   0.00000000
   0.00000000   0.00000000   0.00000000
   0.00000000   0.00000000   0.00000000
   0.00000000   0.00000000   0.00000000
   0.00000000   0.00000000   0.00000000
   0.00000000   0.00000000   0.00000000
   0.00000000   0.00000000   0.00000000
   0.00000000   0.00000000   0.00000000
   0.00000000   0.00000000   0.00000000
   0.00000000   0.00000000   0.00000000
   0.00000000   0.00000000   0.00000000
   0.00000000   0.00000000   0.00000000
   0.00000000   0.00000000   0.00000000
   0.00000000   0.00000000   0.00000000
   0.00000000   0.00000000   0.00000000
   0.00000000   0.00000000   0.00000000
   0.00000000   0.00000000   0.00000000
   0.00000000   0.00000000   0.00000000
   0.00000000   0.00000000   0.00000000
   0.00000000   0.00000000   0.00000000
   0.00000000   0.00000000   0.00000000
   0.00000000   0.00000000   0.00000000
   0.00000000   0.00000000   0.00000000
   0.00000000   0.00000000   0.00000000
   0.00000000   0.00000000   0.00000000
   0.00000000   0.00000000   0.00000000
   0.00000000   0.00000000   0.00000000
   0.00000000   0.00000000   0.00000000
   0.00000000   0.00000000   0.00000000
   0.00000000   0.00000000   0.00000000
   0.00000000   0.00000000   0.00000000
   0.00000000   0.00000000   0.00000000
   0.00000000   0.00000000   0.00000000
   0.00000000   0.00000000   0.00000000
   0.00000000   0.00000000   0.00000000
   0.00000000   0.00000000   0.00000000
   0.00000000   0.00000000   0.00000000
   0.00000000   0.00000000   0.00000000
   0.00000000   0.00000000   0.00000000
   0.00000000   0.00000000   0.00000000
   0.00000000   0.00000000   0.00000000
   0.00000000   0.00000000   0.00000000
   0.00000000   0.00000000   0.00000000
   0.00000000   0.00000000   0.00000000
   0.00000000   0.00000000   0.00000000
   0.00000000   0.00000000   0.00000000
   0.00000000   0.00000000   0.00000000
   0.00000000   0.00000000   0.00000000
   0.00000000   0.00000000   0.00000000
   0.00000000   0.00000000   0.00000000
   0.00000000   0.00000000   0.00000000
   0.00000000   0.00000000   0.00000000
   0.00000000   0.00000000   0.00000000
   0.00000000   0.00000000   0.00000000
   0.00000000   0.00000000   0.00000000
   0.00000000   0.00000000   0.00000000
   0.00000000   0.00000000   0.00000000
   0.00000000   0.00000000   0.00000000
   0.00000000   0.00000000   0.00000000
   0.00000000   0.00000000   0.00000000
   0.00000000   0.00000000   0.00000000
   0.00000000   0.00000000   0.00000000
   0.00000000   0.00000000   0.00000000
   0.00000000   0.00000000   0.00000000
   0.00000000   0.00000000   0.00000000
   0.00000000   0.00000000   0.00000000
   0.00000000   0.00000000   0.00000000
   -3.26249616   -1.00507997   -3.25794708
   11.92063940   -20.69064727   -3.07038732
   13.50038527   3.00166862   10.85175148
   3.00446963   -5.08864656   2.92924674
   3.75852039   13.65719974   -13.11965538
   27.34932956   -10.98618816   3.05298388
   -0.56246062   -0.20365078   0.92252717
   -30.06035954   23.16341777   5.66611797
   -14.11122552   11.11680307   1.90307934
   4.34091261   -11.55315871   3.47900085
   -15.92407124   -15.37247883   17.08588418
   -34.96307802   -20.49777804   22.57799770
   8.95039992   0.53410447   8.89816490
   -12.23897376   -17.42182716   -1.55364560
   -42.44642407   17.20112365   10.45113709
   2.77199763   11.73383470   2.60574227
   -4.18380547   -7.70246168   -6.97589228
   -9.24356624   -19.14979827   -9.78683761
   1.27836391   2.12951966   -1.04339533
   25.34424504   20.96456886   -16.49598700
   -24.03649966   -25.37736338   -39.83925416
   2.34612668   1.10022740   -0.56619935
   23.17141211   -25.89449944   10.35273230
   -23.27005282   3.10888147   1.58359508
   -2.48823396   2.43603461   0.49645901
   -7.78807490   -7.18672914   4.91893517
   24.54610707   2.21685353   7.27247311
   2.27466299   -9.46642629   -11.36965961
   19.29838027   5.29973756   -4.95312746
   -10.92439795   1.69340882   -32.70810976
   -1.72514515   -1.09808803   -2.68057252
   -0.67110810   23.40812526   11.58480554
   7.58818903   -25.87639758   -9.70611816
   -5.66560715   -2.17677864   1.98471337
   7.17088190   -3.72046697   22.24546730
   -6.66685323   -0.57342000   -7.76746302
   1.65381839   -0.11715779   3.77789015
   -18.06322915   -0.66443309   -22.53689286
   6.90750320   -11.46402645   -10.25182957
   0.27630915   -5.19335516   -2.01247320
   -23.12173419   22.24448595   5.86205643
   3.83357757   26.65502392   31.60930949
   4.26445927   1.59568726   -6.87910869
   1.37960957   17.46943237   11.61976656
   -13.96643456   5.14458068   0.54688550
   -4.90278456   1.21383281   7.74376571
   -12.31810075   8.05360973   16.16744668
   18.21016625   -10.94443702   4.20781856
   5.73727641   -0.35913477   0.00860371
   13.14436010   8.34422651   -6.66534650
   -15.66561248   -8.74731224   -14.37299773
   -2.38597194   -0.71056653   -8.88746503
   4.49709779   -8.73132964   14.22010946
   -20.01200208   -10.60674963   11.60426914
   4.88120136   -0.32367314   -7.64932843
   12.95062210   -8.81867877   3.19078045
   9.80283497   -15.39852694   -0.32571820
   -6.67825394   -3.02533396   2.97087715
   -3.17011494   -26.34845031   -15.34973367
   18.04872282   -15.03422674   22.97639409
   1.56193529   -6.19140271   2.96349495
   16.70299839   3.74419362   0.89392437
   22.10332328   -27.85829942   8.08860808
   8.35260102   0.99728756   -2.64277740
   -10.14236026   -0.38766852   -15.87967863
   -22.31638318   -7.82771615   6.93101867