#
Geometry = GenFormat {
455 S
C  H  O N
1    1   -3.18592000   -5.89278000   -7.25935000
2    1   -0.64741000   -5.90570000   -7.20521000
3    1   -1.90281000   -5.15761000   -7.71551000
4    2   -0.67042000   -5.92674000   -6.09018000
5    2   -0.59505000   -2.94420000   -8.76027000
6    1   -0.62221000   -2.96581000   -7.64530000
7    1   -1.90737000   -3.70085000   -7.19365000
8    2   -1.87806000   -5.13815000   -8.83055000
9    1   -3.15971000   -2.95239000   -7.70996000
10    1   -4.44684000   -3.68444000   -7.25759000
11    1   -4.44193000   -5.14757000   -7.77361000
12    2   -4.41458000   -5.13178000   -8.88866000
13    2   -3.21099000   -5.91040000   -6.14438000
14    2   -1.93486000   -3.72035000   -6.07872000
15    2   -3.13111000   -2.93441000   -8.82487000
16    2   -4.47399000   -3.70032000   -6.14256000
17    1   -3.16178000   -1.49528000   -7.18870000
18    1   -0.62554000   -1.51004000   -7.11990000
19    1   -1.87443000   -0.76060000   -7.63725000
20    1   -4.40854000   -0.74483000   -7.70997000
21    2   -3.19354000   -1.51347000   -6.07386000
22    2   -0.65523000   -1.53151000   -6.00503000
23    2   -4.37453000   -0.72816000   -8.82507000
24    2   -1.84310000   -0.74103000   -8.75231000
25    1   -5.70406000   -1.47211000   -7.26393000
26    1   -5.70287000   -2.93481000   -7.77389000
27    1   -5.72948000   -5.88384000   -7.31954000
28    1   -6.93202000   -0.70085000   -7.78580000
29    1   -6.97201000   -3.68114000   -7.32134000
30    1   -6.96694000   -5.12447000   -7.83401000
31    2   -6.94552000   -0.69975000   -8.89796000
32    2   -5.74573000   -1.48440000   -6.15042000
33    2   -5.68281000   -2.92239000   -8.88801000
34    2   -7.04783000   -3.68258000   -6.21176000
35    2   -6.98801000   -5.12260000   -8.94596000
36    2   -5.76425000   -5.89593000   -6.20584000
37    1   -6.92432000   0.74430000   -7.27524000
38    1   -5.64250000   1.46459000   -7.70678000
39    1   -4.40438000   0.71613000   -7.19120000
40    1   -3.12039000   1.44081000   -7.63029000
41    1   -1.87692000   0.69785000   -7.11509000
42    1   -0.59322000   1.42663000   -7.55229000
43    2   -7.00578000   0.75182000   -6.16704000
44    2   -4.43846000   0.71186000   -6.07825000
45    2   -1.91035000   0.69098000   -6.00222000
46    2   -5.61891000   1.53534000   -8.81669000
47    2   -3.08620000   1.50960000   -8.74111000
48    2   -0.56001000   1.49930000   -8.66283000
49    1   -0.64239000   5.89623000   -7.72978000
50    1   -1.92140000   5.16026000   -7.27014000
51    1   -3.17824000   5.90786000   -7.77988000
52    2   -0.62181000   5.91710000   -8.84491000
53    1   -1.91459000   3.70130000   -7.79094000
54    2   -1.94248000   5.14162000   -6.15490000
55    1   -3.18883000   2.97193000   -7.33534000
56    1   -4.44229000   3.70944000   -7.83699000
57    1   -4.45655000   5.17083000   -7.31964000
58    2   -1.89562000   3.70722000   -8.90419000
59    2   -3.15624000   5.92558000   -8.89499000
60    2   -4.47716000   5.15475000   -6.20420000
61    2   -4.42184000   3.71304000   -8.95031000
62    2   -3.20894000   2.90422000   -6.22413000
63    1   -0.66015000   2.95999000   -7.29384000
64    2   -0.67783000   2.88916000   -6.18288000
65    1   -5.72096000   5.91126000   -7.82890000
66    1   -5.71197000   2.97438000   -7.38274000
67    1   -6.98112000   5.15318000   -7.36807000
68    1   -6.96333000   3.70764000   -7.87728000
69    2   -5.70774000   5.92326000   -8.94315000
70    2   -7.04945000   5.15304000   -6.25796000
71    2   -6.99008000   3.70008000   -8.98816000
72    2   -5.74380000   2.90437000   -6.27298000
73    1   4.41308000   -5.89278000   -7.25935000
74    1   6.95159000   -5.90570000   -7.20521000
75    1   5.69619000   -5.15761000   -7.71551000
76    2   6.92858000   -5.92674000   -6.09018000
77    2   7.00395000   -2.94420000   -8.76027000
78    1   6.97679000   -2.96581000   -7.64530000
79    1   5.69163000   -3.70085000   -7.19365000
80    2   5.72094000   -5.13815000   -8.83055000
81    1   4.43929000   -2.95239000   -7.70996000
82    1   3.15216000   -3.68444000   -7.25759000
83    1   3.15707000   -5.14757000   -7.77361000
84    2   3.18442000   -5.13178000   -8.88866000
85    2   4.38801000   -5.91040000   -6.14438000
86    2   5.66414000   -3.72035000   -6.07872000
87    2   4.46789000   -2.93441000   -8.82487000
88    2   3.12501000   -3.70032000   -6.14256000
89    1   4.43722000   -1.49528000   -7.18870000
90    1   6.97346000   -1.51004000   -7.11990000
91    1   5.72457000   -0.76060000   -7.63725000
92    1   3.19046000   -0.74483000   -7.70997000
93    2   4.40546000   -1.51347000   -6.07386000
94    2   6.94377000   -1.53151000   -6.00503000
95    2   3.22447000   -0.72816000   -8.82507000
96    2   5.75590000   -0.74103000   -8.75231000
97    1   1.89494000   -1.47211000   -7.26393000
98    1   1.89613000   -2.93481000   -7.77389000
99    1   1.86952000   -5.88384000   -7.31954000
100    1   0.66698000   -0.70085000   -7.78580000
101    1   0.62699000   -3.68114000   -7.32134000
102    1   0.63206000   -5.12447000   -7.83401000
103    2   0.65348000   -0.69975000   -8.89796000
104    2   1.85327000   -1.48440000   -6.15042000
105    2   1.91619000   -2.92239000   -8.88801000
106    2   0.55117000   -3.68258000   -6.21176000
107    2   0.61099000   -5.12260000   -8.94596000
108    2   1.83475000   -5.89593000   -6.20584000
109    1   0.67468000   0.74430000   -7.27524000
110    1   1.95650000   1.46459000   -7.70678000
111    1   3.19462000   0.71613000   -7.19120000
112    1   4.47861000   1.44081000   -7.63029000
113    1   5.72208000   0.69785000   -7.11509000
114    1   7.00578000   1.42663000   -7.55229000
115    2   0.59322000   0.75182000   -6.16704000
116    2   3.16054000   0.71186000   -6.07825000
117    2   5.68865000   0.69098000   -6.00222000
118    2   1.98009000   1.53534000   -8.81669000
119    2   4.51280000   1.50960000   -8.74111000
120    2   7.03899000   1.49930000   -8.66283000
121    1   6.95661000   5.89623000   -7.72978000
122    1   5.67760000   5.16026000   -7.27014000
123    1   4.42076000   5.90786000   -7.77988000
124    2   6.97719000   5.91710000   -8.84491000
125    1   5.68441000   3.70130000   -7.79094000
126    2   5.65652000   5.14162000   -6.15490000
127    1   4.41017000   2.97193000   -7.33534000
128    1   3.15671000   3.70944000   -7.83699000
129    1   3.14245000   5.17083000   -7.31964000
130    2   5.70338000   3.70722000   -8.90419000
131    2   4.44276000   5.92558000   -8.89499000
132    2   3.12184000   5.15475000   -6.20420000
133    2   3.17716000   3.71304000   -8.95031000
134    2   4.39006000   2.90422000   -6.22413000
135    1   6.93885000   2.95999000   -7.29384000
136    2   6.92117000   2.88916000   -6.18288000
137    1   1.87804000   5.91126000   -7.82890000
138    1   1.88703000   2.97438000   -7.38274000
139    1   0.61788000   5.15318000   -7.36807000
140    1   0.63567000   3.70764000   -7.87728000
141    2   1.89126000   5.92326000   -8.94315000
142    2   0.54955000   5.15304000   -6.25796000
143    2   0.60892000   3.70008000   -8.98816000
144    2   1.85520000   2.90437000   -6.27298000
145    1   -3.18592000   -5.89278000   7.74065000
146    1   -0.64741000   -5.90570000   7.79479000
147    1   -1.90281000   -5.15761000   7.28449000
148    2   -0.67042000   -5.92674000   8.90982000
149    2   -0.59505000   -2.94420000   6.23973000
150    1   -0.62221000   -2.96581000   7.35470000
151    1   -1.90737000   -3.70085000   7.80635000
152    2   -1.87806000   -5.13815000   6.16945000
153    1   -3.15971000   -2.95239000   7.29004000
154    1   -4.44684000   -3.68444000   7.74241000
155    1   -4.44193000   -5.14757000   7.22639000
156    2   -4.41458000   -5.13178000   6.11134000
157    2   -3.21099000   -5.91040000   8.85562000
158    2   -1.93486000   -3.72035000   8.92128000
159    2   -3.13111000   -2.93441000   6.17513000
160    2   -4.47399000   -3.70032000   8.85744000
161    1   -3.16178000   -1.49528000   7.81130000
162    1   -0.62554000   -1.51004000   7.88010000
163    1   -1.87443000   -0.76060000   7.36275000
164    1   -4.40854000   -0.74483000   7.29003000
165    2   -3.19354000   -1.51347000   8.92614000
166    2   -0.65523000   -1.53151000   8.99497000
167    2   -4.37453000   -0.72816000   6.17493000
168    2   -1.84310000   -0.74103000   6.24769000
169    1   -5.70406000   -1.47211000   7.73607000
170    1   -5.70287000   -2.93481000   7.22611000
171    1   -5.72948000   -5.88384000   7.68046000
172    1   -6.93202000   -0.70085000   7.21420000
173    1   -6.97201000   -3.68114000   7.67866000
174    1   -6.96694000   -5.12447000   7.16599000
175    2   -6.94552000   -0.69975000   6.10204000
176    2   -5.74573000   -1.48440000   8.84958000
177    2   -5.68281000   -2.92239000   6.11199000
178    2   -7.04783000   -3.68258000   8.78824000
179    2   -6.98801000   -5.12260000   6.05404000
180    2   -5.76425000   -5.89593000   8.79416000
181    1   -6.92432000   0.74430000   7.72476000
182    1   -5.64250000   1.46459000   7.29322000
183    1   -4.40438000   0.71613000   7.80880000
184    1   -3.12039000   1.44081000   7.36971000
185    1   -1.87692000   0.69785000   7.88491000
186    1   -0.59322000   1.42663000   7.44771000
187    2   -7.00578000   0.75182000   8.83296000
188    2   -4.43846000   0.71186000   8.92175000
189    2   -1.91035000   0.69098000   8.99778000
190    2   -5.61891000   1.53534000   6.18331000
191    2   -3.08620000   1.50960000   6.25889000
192    2   -0.56001000   1.49930000   6.33717000
193    1   -0.64239000   5.89623000   7.27022000
194    1   -1.92140000   5.16026000   7.72986000
195    1   -3.17824000   5.90786000   7.22012000
196    2   -0.62181000   5.91710000   6.15509000
197    1   -1.91459000   3.70130000   7.20906000
198    2   -1.94248000   5.14162000   8.84510000
199    1   -3.18883000   2.97193000   7.66466000
200    1   -4.44229000   3.70944000   7.16301000
201    1   -4.45655000   5.17083000   7.68036000
202    2   -1.89562000   3.70722000   6.09581000
203    2   -3.15624000   5.92558000   6.10501000
204    2   -4.47716000   5.15475000   8.79580000
205    2   -4.42184000   3.71304000   6.04969000
206    2   -3.20894000   2.90422000   8.77587000
207    1   -0.66015000   2.95999000   7.70616000
208    2   -0.67783000   2.88916000   8.81712000
209    1   -5.72096000   5.91126000   7.17110000
210    1   -5.71197000   2.97438000   7.61726000
211    1   -6.98112000   5.15318000   7.63193000
212    1   -6.96333000   3.70764000   7.12272000
213    2   -5.70774000   5.92326000   6.05685000
214    2   -7.04945000   5.15304000   8.74204000
215    2   -6.99008000   3.70008000   6.01184000
216    2   -5.74380000   2.90437000   8.72702000
217    1   4.41308000   -5.89278000   7.74065000
218    1   6.95159000   -5.90570000   7.79479000
219    1   5.69619000   -5.15761000   7.28449000
220    2   6.92858000   -5.92674000   8.90982000
221    2   7.00395000   -2.94420000   6.23973000
222    1   6.97679000   -2.96581000   7.35470000
223    1   5.69163000   -3.70085000   7.80635000
224    2   5.72094000   -5.13815000   6.16945000
225    1   4.43929000   -2.95239000   7.29004000
226    1   3.15216000   -3.68444000   7.74241000
227    1   3.15707000   -5.14757000   7.22639000
228    2   3.18442000   -5.13178000   6.11134000
229    2   4.38801000   -5.91040000   8.85562000
230    2   5.66414000   -3.72035000   8.92128000
231    2   4.46789000   -2.93441000   6.17513000
232    2   3.12501000   -3.70032000   8.85744000
233    1   4.43722000   -1.49528000   7.81130000
234    1   6.97346000   -1.51004000   7.88010000
235    1   5.72457000   -0.76060000   7.36275000
236    1   3.19046000   -0.74483000   7.29003000
237    2   4.40546000   -1.51347000   8.92614000
238    2   6.94377000   -1.53151000   8.99497000
239    2   3.22447000   -0.72816000   6.17493000
240    2   5.75590000   -0.74103000   6.24769000
241    1   1.89494000   -1.47211000   7.73607000
242    1   1.89613000   -2.93481000   7.22611000
243    1   1.86952000   -5.88384000   7.68046000
244    1   0.66698000   -0.70085000   7.21420000
245    1   0.62699000   -3.68114000   7.67866000
246    1   0.63206000   -5.12447000   7.16599000
247    2   1.85327000   -1.48440000   8.84958000
248    2   1.91619000   -2.92239000   6.11199000
249    2   0.55117000   -3.68258000   8.78824000
250    2   0.61099000   -5.12260000   6.05404000
251    2   1.83475000   -5.89593000   8.79416000
252    1   0.67468000   0.74430000   7.72476000
253    1   1.95650000   1.46459000   7.29322000
254    1   3.19462000   0.71613000   7.80880000
255    1   4.47861000   1.44081000   7.36971000
256    1   5.72208000   0.69785000   7.88491000
257    1   7.00578000   1.42663000   7.44771000
258    2   0.59322000   0.75182000   8.83296000
259    2   3.16054000   0.71186000   8.92175000
260    2   5.68865000   0.69098000   8.99778000
261    2   1.98009000   1.53534000   6.18331000
262    2   4.51280000   1.50960000   6.25889000
263    2   7.03899000   1.49930000   6.33717000
264    1   6.95661000   5.89623000   7.27022000
265    1   5.67760000   5.16026000   7.72986000
266    1   4.42076000   5.90786000   7.22012000
267    2   6.97719000   5.91710000   6.15509000
268    1   5.68441000   3.70130000   7.20906000
269    2   5.65652000   5.14162000   8.84510000
270    1   4.41017000   2.97193000   7.66466000
271    1   3.15671000   3.70944000   7.16301000
272    1   3.14245000   5.17083000   7.68036000
273    2   5.70338000   3.70722000   6.09581000
274    2   4.44276000   5.92558000   6.10501000
275    2   3.12184000   5.15475000   8.79580000
276    2   3.17716000   3.71304000   6.04969000
277    2   4.39006000   2.90422000   8.77587000
278    1   6.93885000   2.95999000   7.70616000
279    2   6.92117000   2.88916000   8.81712000
280    1   1.87804000   5.91126000   7.17110000
281    1   1.88703000   2.97438000   7.61726000
282    1   0.61788000   5.15318000   7.63193000
283    1   0.63567000   3.70764000   7.12272000
284    2   1.89126000   5.92326000   6.05685000
285    2   0.54955000   5.15304000   8.74204000
286    2   0.60892000   3.70008000   6.01184000
287    2   1.85520000   2.90437000   8.72702000
288    4   -1.53903000   -2.01121000   1.27534000
289    1   -1.59464000   -1.83143000   2.75985000
290    2   -1.76918000   -2.81923000   3.24631000
291    2   -2.46160000   -1.18124000   3.02154000
292    1   -0.33168000   -1.21114000   3.40393000
293    2   0.55178000   -1.85592000   3.21865000
294    2   -0.14169000   -0.20059000   2.98792000
295    1   -0.51228000   -1.07546000   4.92148000
296    2   -0.69570000   -2.07516000   5.37102000
297    2   -1.38399000   -0.42187000   5.14081000
298    1   0.72507000   -0.47015000   5.57397000
299    2   1.61295000   -1.11651000   5.40678000
300    2   0.92225000   0.54726000   5.17398000
301    1   -2.81921000   -2.62303000   0.84198000
302    2   -2.97577000   -3.61282000   1.32740000
303    2   -3.68419000   -1.97294000   1.10459000
304    2   -2.83978000   -2.78188000   -0.26000000
305    1   -0.43439000   -2.91745000   0.87943000
306    2   -0.50700000   -3.89192000   1.41195000
307    2   -0.45884000   -3.12151000   -0.21480000
308    2   0.55958000   -2.47160000   1.09351000
309    1   -1.38664000   -0.71168000   0.57798000
310    2   -1.43945000   -0.84330000   -0.52634000
311    2   -2.18938000   -0.00130000   0.87714000
312    2   -0.40349000   -0.24285000   0.79228000
313    3   -4.51727645   -5.16698720   -3.18937931
314    2   -3.60061112   -5.35708351   -3.00090226
315    2   -4.64102099   -5.32027112   -4.13371688
316    3   5.79228616   -4.09645949   -4.08223908
317    2   5.60981103   -5.02377928   -3.99392344
318    2   5.12081300   -3.54968035   -3.64433184
319    3   0.39203432   3.28927227   2.67628812
320    2   0.42045607   4.22866570   2.91193115
321    2   0.66863918   3.38358465   1.78258602
322    3   7.23525101   -4.35613356   1.77131941
323    2   6.99151281   -3.78001914   2.50558617
324    2   6.48141151   -4.86554348   1.51238783
325    3   2.60677790   3.61970118   -1.92839260
326    2   1.70667853   3.37095935   -1.57023130
327    2   2.43539267   4.55906758   -2.18791591
328    3   1.32678222   6.38387104   2.27785362
329    2   1.83424507   6.03915632   1.43807145
330    2   2.01970065   6.67925060   2.91751877
331    3   3.06121139   -3.79510392   -3.60513799
332    2   2.69441050   -4.48068471   -4.17755970
333    2   2.25985960   -3.41554516   -3.14133345
334    3   -1.82848618   -4.08669199   -2.57285535
335    2   -2.16299835   -4.45462972   -1.73992191
336    2   -2.59035761   -3.85272925   -3.11552826
337    3   4.42196042   -1.55695929   3.43621388
338    2   3.72764509   -2.16195592   3.04445409
339    2   4.60039123   -1.80328968   4.32200147
340    3   6.93266894   5.26394072   1.79568927
341    2   6.68392545   6.15300732   1.53429550
342    2   6.70833198   4.47169177   1.30593606
343    3   -4.96111366   0.51950982   0.40869402
344    2   -5.52932907   1.27441443   0.11169677
345    2   -5.40058371   -0.19176624   -0.04801782
346    3   7.21734680   2.48961113   2.77518253
347    2   6.60883202   3.06565474   3.31103092
348    2   -7.04748411   2.62282419   2.94419558
349    3   2.59866870   5.50553495   0.30992583
350    2   5.10705552   2.15915952   1.29591857
351    2   2.96727924   4.76465849   -0.22012786
352    3   7.56357800   1.73966796   -3.84574143
353    2   -7.25314379   0.86354704   -3.67546992
354    2   6.62119720   1.54944641   -3.82675575
355    3   -5.04924465   4.65197877   -0.15340091
356    2   3.38035866   0.79457191   1.17675157
357    2   -4.19985643   4.27510572   -0.49987720
358    3   -3.98379976   -6.61431162   1.85532496
359    2   -4.65507587   6.14883621   1.58971555
360    2   -3.44760334   6.34796686   2.54148019
361    3   1.55669620   -2.36843241   -0.48648378
362    2   1.24402431   -3.01429760   0.14216715
363    2   2.32320737   -2.69634147   -0.98729160
364    3   4.33399093   2.28393569   0.65759362
365    2   -5.78754270   4.01050918   -0.14820222
366    2   4.43830279   3.00661050   0.04951670
367    3   4.86749167   6.51620138   -0.94425305
368    2   3.99744198   6.38237058   -0.48092848
369    2   4.75455660   -6.19502134   -1.63819780
370    3   -6.07392021   -2.29202840   1.14033375
371    2   -6.44518627   -3.17550644   0.95789720
372    2   -6.76891287   -1.80807775   1.55981884
373    3   0.52936370   -2.72386569   -3.73632495
374    2   -0.28771062   -2.85737496   -3.25542981
375    2   0.52502035   -2.10263077   -4.44547988
376    3   0.49984701   3.65289270   -0.10002381
377    2   1.15502119   4.38016885   -0.19440360
378    2   -0.23503667   4.04817397   0.38581928
379    3   -1.78809107   -0.69270060   -2.55368990
380    2   -2.62986754   -1.18217331   -2.46405395
381    2   -1.81512036   -0.01378528   -3.26226086
382    3   5.40124577   -1.41851823   -0.37037942
383    2   6.34310146   -1.52029501   -0.56270100
384    2   5.20374679   -0.55631210   0.02928795
385    3   -6.69377775   2.20282950   -0.92572320
386    2   7.57542251   2.46102034   -0.68941650
387    2   -6.67978059   2.32264811   -1.88629268
388    3   5.57550347   -0.61561666   -3.38074905
389    2   4.91271906   -0.87756202   -2.75364241
390    2   5.46264576   -1.19121087   -4.16041370
391    3   2.86279594   0.28120073   -1.54752896
392    2   3.37447348   -0.38635633   -1.03251133
393    2   2.76447638   0.01838408   -2.48823625
394    3   -7.12981163   -5.12894847   -2.22277018
395    2   -6.15862196   -5.07870429   -2.24865774
396    2   -7.45326511   -5.11059482   -3.12739463
397    3   5.27447383   2.85176174   -3.24041969
398    2   4.78272267   2.20333565   -3.78196238
399    2   4.70428523   3.12863665   -2.52494924
400    3   -5.83994804   4.53401653   2.93089236
401    2   -6.54342430   4.88787831   2.36452590
402    2   -5.24229835   5.28603460   3.06565551
403    3   6.75165578   6.10786126   -4.28020442
404    2   6.04600792   6.01521363   -3.61136947
405    2   6.89294015   5.28344585   -4.73800050
406    3   6.64727263   4.43997539   -0.63396917
407    2   5.74429898   4.64141183   -0.91307853
408    2   6.99865951   5.34000520   -0.87030970
409    3   -1.93687668   -5.36040853   0.02136069
410    2   -1.01192368   -5.33697654   0.38901910
411    2   -2.37972604   -6.04277882   0.54432144
412    3   -3.03391132   2.68548185   2.00328203
413    2   -3.67011854   3.29483966   1.60723282
414    2   -2.43171059   3.23261985   2.44712742
415    3   -3.76555572   -2.93781455   -0.48243983
416    2   -4.60405008   -2.66107955   -0.04416099
417    2   -3.43208878   -3.69381831   0.05697033
418    3   2.21885405   -3.98581547   3.59057291
419    2   3.14404598   -4.11191644   3.39178222
420    2   1.79991293   -4.61042012   2.99374510
421    3   0.95949251   -5.16493209   0.34110773
422    2   0.94663673   -5.68413842   1.15359471
423    2   0.98362758   -5.77897051   -0.39826688
424    3   -4.51034752   -2.27131210   -3.22984641
425    2   -4.44769706   -2.21708852   -2.25663163
426    2   -4.76128653   -3.20189708   -3.24542391
427    3   1.03278636   5.81225135   -1.87213915
428    2   0.40117631   6.50320850   -1.88023503
429    2   1.66136958   5.93440095   -1.06116861
430    3   -2.64088429   3.19262197   -3.76045146
431    2   -2.82239245   3.75023675   -3.01075924
432    2   -2.56415916   3.75269514   -4.51748430
433    3   3.92135576   -6.02256026   1.85447932
434    2   4.43391878   6.66016162   2.26613419
435    2   3.35876582   -6.29509012   1.13027301
436    3   -7.20058455   -2.36064645   -1.53140740
437    2   -7.33594720   -1.77347967   -2.27999648
438    2   -7.31287775   -3.27759866   -1.77294082
439    3   -3.79111792   -1.57476802   3.24541578
440    2   -4.29850420   -0.94567717   2.70407712
441    2   -4.30186781   -1.57216819   4.06793488
442    3   -1.59742780   6.48953021   -3.97857016
443    2   -1.26156179   6.13474702   -3.12717040
444    2   -0.76446129   -6.51110289   -4.28436440
445    3   3.31095741   4.07252713   2.88304738
446    2   2.72123996   3.67428748   2.21491847
447    2   3.27844108   5.04288298   2.87006125
448    3   2.22697994   1.34796952   -3.95479123
449    2   1.35143223   1.40550384   -3.56278688
450    2   2.66109961   2.10903122   -3.54819727
451    3   -7.22440782   -0.18494815   2.55216444
452    2   -6.74612204   0.20712796   1.78114789
453    2   7.25208119   0.36958666   2.84726580
454    3   2.93272077   -0.01058158   1.41744390
455    2   3.58614085   -0.64798547   1.78726828
#dimensions of perodic box
     0.000     0.000     0.000
    15.198     0.000     0.000
     0.000     13.392    0.000
     0.000     0.000     15.000
}
Driver = VelocityVerlet{
  TimeStep [fs] = 1
  Thermostat = NoseHoover {
    Temperature [Kelvin] = 300
    CouplingStrength [cm^-1] = 3700
  }
  Steps = 5000
  MovedAtoms =288:-1 # last -1 means all atoms; otherwise list first:last out of movable
  MDRestartFrequency = 10
  ConvergentForcesOnly = Yes #if the SCC cycle does not converge at any geometric step, forces will be calculated using the non-converged charges
  ConvergentForcesOnly = No #if the SCC cycle does not converge at any geometric step, forces will be calculated using the non-converged charges
	}
Hamiltonian = DFTB {
  Scc = Yes
  SCCTolerance = 1e-005
  MaxSCCIterations= 500
# set non-zero temperature for convergence
  Filling = Fermi {
  Temperature[K] = 300.0
  }

 SlaterKosterFiles = Type2FileNames {
  Prefix = "/home/shehani/DOE_project/slakos/" 
  Separator = "-"                     # Dash between type names
  Suffix = ".skf"
 }

  MaxAngularMomentum {
    C = "p"
    N = "p"
    O = "p"
    H = "s"
  }
 KPointsAndWeights = {
 0 0 0 1.0
 }
}

Options {
 WriteChargesAsText = yes
}

Analysis {
  CalculateForces = Yes
}

ParserOptions {
  ParserVersion = 7
}
