#
Geometry = GenFormat {
455 S
C  H  O N
1    1   -3.18592000   -5.89278000   -7.25935000
2    1   -0.64741000   -5.90570000   -7.20521000
3    1   -1.90281000   -5.15761000   -7.71551000
4    2   -0.67042000   -5.92674000   -6.09018000
5    2   -0.59505000   -2.94420000   -8.76027000
6    1   -0.62221000   -2.96581000   -7.64530000
7    1   -1.90737000   -3.70085000   -7.19365000
8    2   -1.87806000   -5.13815000   -8.83055000
9    1   -3.15971000   -2.95239000   -7.70996000
10    1   -4.44684000   -3.68444000   -7.25759000
11    1   -4.44193000   -5.14757000   -7.77361000
12    2   -4.41458000   -5.13178000   -8.88866000
13    2   -3.21099000   -5.91040000   -6.14438000
14    2   -1.93486000   -3.72035000   -6.07872000
15    2   -3.13111000   -2.93441000   -8.82487000
16    2   -4.47399000   -3.70032000   -6.14256000
17    1   -3.16178000   -1.49528000   -7.18870000
18    1   -0.62554000   -1.51004000   -7.11990000
19    1   -1.87443000   -0.76060000   -7.63725000
20    1   -4.40854000   -0.74483000   -7.70997000
21    2   -3.19354000   -1.51347000   -6.07386000
22    2   -0.65523000   -1.53151000   -6.00503000
23    2   -4.37453000   -0.72816000   -8.82507000
24    2   -1.84310000   -0.74103000   -8.75231000
25    1   -5.70406000   -1.47211000   -7.26393000
26    1   -5.70287000   -2.93481000   -7.77389000
27    1   -5.72948000   -5.88384000   -7.31954000
28    1   -6.93202000   -0.70085000   -7.78580000
29    1   -6.97201000   -3.68114000   -7.32134000
30    1   -6.96694000   -5.12447000   -7.83401000
31    2   -6.94552000   -0.69975000   -8.89796000
32    2   -5.74573000   -1.48440000   -6.15042000
33    2   -5.68281000   -2.92239000   -8.88801000
34    2   -7.04783000   -3.68258000   -6.21176000
35    2   -6.98801000   -5.12260000   -8.94596000
36    2   -5.76425000   -5.89593000   -6.20584000
37    1   -6.92432000   0.74430000   -7.27524000
38    1   -5.64250000   1.46459000   -7.70678000
39    1   -4.40438000   0.71613000   -7.19120000
40    1   -3.12039000   1.44081000   -7.63029000
41    1   -1.87692000   0.69785000   -7.11509000
42    1   -0.59322000   1.42663000   -7.55229000
43    2   -7.00578000   0.75182000   -6.16704000
44    2   -4.43846000   0.71186000   -6.07825000
45    2   -1.91035000   0.69098000   -6.00222000
46    2   -5.61891000   1.53534000   -8.81669000
47    2   -3.08620000   1.50960000   -8.74111000
48    2   -0.56001000   1.49930000   -8.66283000
49    1   -0.64239000   5.89623000   -7.72978000
50    1   -1.92140000   5.16026000   -7.27014000
51    1   -3.17824000   5.90786000   -7.77988000
52    2   -0.62181000   5.91710000   -8.84491000
53    1   -1.91459000   3.70130000   -7.79094000
54    2   -1.94248000   5.14162000   -6.15490000
55    1   -3.18883000   2.97193000   -7.33534000
56    1   -4.44229000   3.70944000   -7.83699000
57    1   -4.45655000   5.17083000   -7.31964000
58    2   -1.89562000   3.70722000   -8.90419000
59    2   -3.15624000   5.92558000   -8.89499000
60    2   -4.47716000   5.15475000   -6.20420000
61    2   -4.42184000   3.71304000   -8.95031000
62    2   -3.20894000   2.90422000   -6.22413000
63    1   -0.66015000   2.95999000   -7.29384000
64    2   -0.67783000   2.88916000   -6.18288000
65    1   -5.72096000   5.91126000   -7.82890000
66    1   -5.71197000   2.97438000   -7.38274000
67    1   -6.98112000   5.15318000   -7.36807000
68    1   -6.96333000   3.70764000   -7.87728000
69    2   -5.70774000   5.92326000   -8.94315000
70    2   -7.04945000   5.15304000   -6.25796000
71    2   -6.99008000   3.70008000   -8.98816000
72    2   -5.74380000   2.90437000   -6.27298000
73    1   4.41308000   -5.89278000   -7.25935000
74    1   6.95159000   -5.90570000   -7.20521000
75    1   5.69619000   -5.15761000   -7.71551000
76    2   6.92858000   -5.92674000   -6.09018000
77    2   7.00395000   -2.94420000   -8.76027000
78    1   6.97679000   -2.96581000   -7.64530000
79    1   5.69163000   -3.70085000   -7.19365000
80    2   5.72094000   -5.13815000   -8.83055000
81    1   4.43929000   -2.95239000   -7.70996000
82    1   3.15216000   -3.68444000   -7.25759000
83    1   3.15707000   -5.14757000   -7.77361000
84    2   3.18442000   -5.13178000   -8.88866000
85    2   4.38801000   -5.91040000   -6.14438000
86    2   5.66414000   -3.72035000   -6.07872000
87    2   4.46789000   -2.93441000   -8.82487000
88    2   3.12501000   -3.70032000   -6.14256000
89    1   4.43722000   -1.49528000   -7.18870000
90    1   6.97346000   -1.51004000   -7.11990000
91    1   5.72457000   -0.76060000   -7.63725000
92    1   3.19046000   -0.74483000   -7.70997000
93    2   4.40546000   -1.51347000   -6.07386000
94    2   6.94377000   -1.53151000   -6.00503000
95    2   3.22447000   -0.72816000   -8.82507000
96    2   5.75590000   -0.74103000   -8.75231000
97    1   1.89494000   -1.47211000   -7.26393000
98    1   1.89613000   -2.93481000   -7.77389000
99    1   1.86952000   -5.88384000   -7.31954000
100    1   0.66698000   -0.70085000   -7.78580000
101    1   0.62699000   -3.68114000   -7.32134000
102    1   0.63206000   -5.12447000   -7.83401000
103    2   0.65348000   -0.69975000   -8.89796000
104    2   1.85327000   -1.48440000   -6.15042000
105    2   1.91619000   -2.92239000   -8.88801000
106    2   0.55117000   -3.68258000   -6.21176000
107    2   0.61099000   -5.12260000   -8.94596000
108    2   1.83475000   -5.89593000   -6.20584000
109    1   0.67468000   0.74430000   -7.27524000
110    1   1.95650000   1.46459000   -7.70678000
111    1   3.19462000   0.71613000   -7.19120000
112    1   4.47861000   1.44081000   -7.63029000
113    1   5.72208000   0.69785000   -7.11509000
114    1   7.00578000   1.42663000   -7.55229000
115    2   0.59322000   0.75182000   -6.16704000
116    2   3.16054000   0.71186000   -6.07825000
117    2   5.68865000   0.69098000   -6.00222000
118    2   1.98009000   1.53534000   -8.81669000
119    2   4.51280000   1.50960000   -8.74111000
120    2   7.03899000   1.49930000   -8.66283000
121    1   6.95661000   5.89623000   -7.72978000
122    1   5.67760000   5.16026000   -7.27014000
123    1   4.42076000   5.90786000   -7.77988000
124    2   6.97719000   5.91710000   -8.84491000
125    1   5.68441000   3.70130000   -7.79094000
126    2   5.65652000   5.14162000   -6.15490000
127    1   4.41017000   2.97193000   -7.33534000
128    1   3.15671000   3.70944000   -7.83699000
129    1   3.14245000   5.17083000   -7.31964000
130    2   5.70338000   3.70722000   -8.90419000
131    2   4.44276000   5.92558000   -8.89499000
132    2   3.12184000   5.15475000   -6.20420000
133    2   3.17716000   3.71304000   -8.95031000
134    2   4.39006000   2.90422000   -6.22413000
135    1   6.93885000   2.95999000   -7.29384000
136    2   6.92117000   2.88916000   -6.18288000
137    1   1.87804000   5.91126000   -7.82890000
138    1   1.88703000   2.97438000   -7.38274000
139    1   0.61788000   5.15318000   -7.36807000
140    1   0.63567000   3.70764000   -7.87728000
141    2   1.89126000   5.92326000   -8.94315000
142    2   0.54955000   5.15304000   -6.25796000
143    2   0.60892000   3.70008000   -8.98816000
144    2   1.85520000   2.90437000   -6.27298000
145    1   -3.18592000   -5.89278000   7.74065000
146    1   -0.64741000   -5.90570000   7.79479000
147    1   -1.90281000   -5.15761000   7.28449000
148    2   -0.67042000   -5.92674000   8.90982000
149    2   -0.59505000   -2.94420000   6.23973000
150    1   -0.62221000   -2.96581000   7.35470000
151    1   -1.90737000   -3.70085000   7.80635000
152    2   -1.87806000   -5.13815000   6.16945000
153    1   -3.15971000   -2.95239000   7.29004000
154    1   -4.44684000   -3.68444000   7.74241000
155    1   -4.44193000   -5.14757000   7.22639000
156    2   -4.41458000   -5.13178000   6.11134000
157    2   -3.21099000   -5.91040000   8.85562000
158    2   -1.93486000   -3.72035000   8.92128000
159    2   -3.13111000   -2.93441000   6.17513000
160    2   -4.47399000   -3.70032000   8.85744000
161    1   -3.16178000   -1.49528000   7.81130000
162    1   -0.62554000   -1.51004000   7.88010000
163    1   -1.87443000   -0.76060000   7.36275000
164    1   -4.40854000   -0.74483000   7.29003000
165    2   -3.19354000   -1.51347000   8.92614000
166    2   -0.65523000   -1.53151000   8.99497000
167    2   -4.37453000   -0.72816000   6.17493000
168    2   -1.84310000   -0.74103000   6.24769000
169    1   -5.70406000   -1.47211000   7.73607000
170    1   -5.70287000   -2.93481000   7.22611000
171    1   -5.72948000   -5.88384000   7.68046000
172    1   -6.93202000   -0.70085000   7.21420000
173    1   -6.97201000   -3.68114000   7.67866000
174    1   -6.96694000   -5.12447000   7.16599000
175    2   -6.94552000   -0.69975000   6.10204000
176    2   -5.74573000   -1.48440000   8.84958000
177    2   -5.68281000   -2.92239000   6.11199000
178    2   -7.04783000   -3.68258000   8.78824000
179    2   -6.98801000   -5.12260000   6.05404000
180    2   -5.76425000   -5.89593000   8.79416000
181    1   -6.92432000   0.74430000   7.72476000
182    1   -5.64250000   1.46459000   7.29322000
183    1   -4.40438000   0.71613000   7.80880000
184    1   -3.12039000   1.44081000   7.36971000
185    1   -1.87692000   0.69785000   7.88491000
186    1   -0.59322000   1.42663000   7.44771000
187    2   -7.00578000   0.75182000   8.83296000
188    2   -4.43846000   0.71186000   8.92175000
189    2   -1.91035000   0.69098000   8.99778000
190    2   -5.61891000   1.53534000   6.18331000
191    2   -3.08620000   1.50960000   6.25889000
192    2   -0.56001000   1.49930000   6.33717000
193    1   -0.64239000   5.89623000   7.27022000
194    1   -1.92140000   5.16026000   7.72986000
195    1   -3.17824000   5.90786000   7.22012000
196    2   -0.62181000   5.91710000   6.15509000
197    1   -1.91459000   3.70130000   7.20906000
198    2   -1.94248000   5.14162000   8.84510000
199    1   -3.18883000   2.97193000   7.66466000
200    1   -4.44229000   3.70944000   7.16301000
201    1   -4.45655000   5.17083000   7.68036000
202    2   -1.89562000   3.70722000   6.09581000
203    2   -3.15624000   5.92558000   6.10501000
204    2   -4.47716000   5.15475000   8.79580000
205    2   -4.42184000   3.71304000   6.04969000
206    2   -3.20894000   2.90422000   8.77587000
207    1   -0.66015000   2.95999000   7.70616000
208    2   -0.67783000   2.88916000   8.81712000
209    1   -5.72096000   5.91126000   7.17110000
210    1   -5.71197000   2.97438000   7.61726000
211    1   -6.98112000   5.15318000   7.63193000
212    1   -6.96333000   3.70764000   7.12272000
213    2   -5.70774000   5.92326000   6.05685000
214    2   -7.04945000   5.15304000   8.74204000
215    2   -6.99008000   3.70008000   6.01184000
216    2   -5.74380000   2.90437000   8.72702000
217    1   4.41308000   -5.89278000   7.74065000
218    1   6.95159000   -5.90570000   7.79479000
219    1   5.69619000   -5.15761000   7.28449000
220    2   6.92858000   -5.92674000   8.90982000
221    2   7.00395000   -2.94420000   6.23973000
222    1   6.97679000   -2.96581000   7.35470000
223    1   5.69163000   -3.70085000   7.80635000
224    2   5.72094000   -5.13815000   6.16945000
225    1   4.43929000   -2.95239000   7.29004000
226    1   3.15216000   -3.68444000   7.74241000
227    1   3.15707000   -5.14757000   7.22639000
228    2   3.18442000   -5.13178000   6.11134000
229    2   4.38801000   -5.91040000   8.85562000
230    2   5.66414000   -3.72035000   8.92128000
231    2   4.46789000   -2.93441000   6.17513000
232    2   3.12501000   -3.70032000   8.85744000
233    1   4.43722000   -1.49528000   7.81130000
234    1   6.97346000   -1.51004000   7.88010000
235    1   5.72457000   -0.76060000   7.36275000
236    1   3.19046000   -0.74483000   7.29003000
237    2   4.40546000   -1.51347000   8.92614000
238    2   6.94377000   -1.53151000   8.99497000
239    2   3.22447000   -0.72816000   6.17493000
240    2   5.75590000   -0.74103000   6.24769000
241    1   1.89494000   -1.47211000   7.73607000
242    1   1.89613000   -2.93481000   7.22611000
243    1   1.86952000   -5.88384000   7.68046000
244    1   0.66698000   -0.70085000   7.21420000
245    1   0.62699000   -3.68114000   7.67866000
246    1   0.63206000   -5.12447000   7.16599000
247    2   1.85327000   -1.48440000   8.84958000
248    2   1.91619000   -2.92239000   6.11199000
249    2   0.55117000   -3.68258000   8.78824000
250    2   0.61099000   -5.12260000   6.05404000
251    2   1.83475000   -5.89593000   8.79416000
252    1   0.67468000   0.74430000   7.72476000
253    1   1.95650000   1.46459000   7.29322000
254    1   3.19462000   0.71613000   7.80880000
255    1   4.47861000   1.44081000   7.36971000
256    1   5.72208000   0.69785000   7.88491000
257    1   7.00578000   1.42663000   7.44771000
258    2   0.59322000   0.75182000   8.83296000
259    2   3.16054000   0.71186000   8.92175000
260    2   5.68865000   0.69098000   8.99778000
261    2   1.98009000   1.53534000   6.18331000
262    2   4.51280000   1.50960000   6.25889000
263    2   7.03899000   1.49930000   6.33717000
264    1   6.95661000   5.89623000   7.27022000
265    1   5.67760000   5.16026000   7.72986000
266    1   4.42076000   5.90786000   7.22012000
267    2   6.97719000   5.91710000   6.15509000
268    1   5.68441000   3.70130000   7.20906000
269    2   5.65652000   5.14162000   8.84510000
270    1   4.41017000   2.97193000   7.66466000
271    1   3.15671000   3.70944000   7.16301000
272    1   3.14245000   5.17083000   7.68036000
273    2   5.70338000   3.70722000   6.09581000
274    2   4.44276000   5.92558000   6.10501000
275    2   3.12184000   5.15475000   8.79580000
276    2   3.17716000   3.71304000   6.04969000
277    2   4.39006000   2.90422000   8.77587000
278    1   6.93885000   2.95999000   7.70616000
279    2   6.92117000   2.88916000   8.81712000
280    1   1.87804000   5.91126000   7.17110000
281    1   1.88703000   2.97438000   7.61726000
282    1   0.61788000   5.15318000   7.63193000
283    1   0.63567000   3.70764000   7.12272000
284    2   1.89126000   5.92326000   6.05685000
285    2   0.54955000   5.15304000   8.74204000
286    2   0.60892000   3.70008000   6.01184000
287    2   1.85520000   2.90437000   8.72702000
288    4   -1.53903000   -2.01121000   1.27534000
289    1   -1.59464000   -1.83143000   2.75985000
290    2   -1.76918000   -2.81923000   3.24631000
291    2   -2.46160000   -1.18124000   3.02154000
292    1   -0.33168000   -1.21114000   3.40393000
293    2   0.55178000   -1.85592000   3.21865000
294    2   -0.14169000   -0.20059000   2.98792000
295    1   -0.51228000   -1.07546000   4.92148000
296    2   -0.69570000   -2.07516000   5.37102000
297    2   -1.38399000   -0.42187000   5.14081000
298    1   0.72507000   -0.47015000   5.57397000
299    2   1.61295000   -1.11651000   5.40678000
300    2   0.92225000   0.54726000   5.17398000
301    1   -2.81921000   -2.62303000   0.84198000
302    2   -2.97577000   -3.61282000   1.32740000
303    2   -3.68419000   -1.97294000   1.10459000
304    2   -2.83978000   -2.78188000   -0.26000000
305    1   -0.43439000   -2.91745000   0.87943000
306    2   -0.50700000   -3.89192000   1.41195000
307    2   -0.45884000   -3.12151000   -0.21480000
308    2   0.55958000   -2.47160000   1.09351000
309    1   -1.38664000   -0.71168000   0.57798000
310    2   -1.43945000   -0.84330000   -0.52634000
311    2   -2.18938000   -0.00130000   0.87714000
312    2   -0.40349000   -0.24285000   0.79228000
313    3   0.96992883   1.97464324   2.98333042
314    2   1.24619810   2.45129028   2.19410990
315    2   0.56240528   2.59792966   3.54865490
316    3   1.27205952   1.08910984   -2.83542902
317    2   0.31294872   1.49819465   -2.98430500
318    2   1.39850783   1.23892672   -1.87358636
319    3   -3.60812898   3.41027858   -4.15903052
320    2   -3.28649750   2.89355877   -3.38383357
321    2   -3.28550386   4.31436405   -4.03252617
322    3   -6.37934033   4.57628176   -4.05625055
323    2   -5.91249478   4.30591515   -4.88262174
324    2   -6.12077860   3.79569697   -3.54815520
325    3   4.47083664   0.72597451   -1.53429685
326    2   4.02992256   0.70706100   -2.38855571
327    2   4.57453396   1.66997443   -1.36474314
328    3   -4.75571532   -0.91844211   -0.11033622
329    2   -4.61406389   -0.63684434   0.79151884
330    2   -4.73832844   -0.11380378   -0.65705036
331    3   5.72432530   -5.53391598   1.07355414
332    2   5.83295693   -5.34511873   0.11696748
333    2   5.32823992   -4.76235641   1.46127439
334    3   5.40865221   -5.86155969   -1.98403964
335    2   5.28512224   -5.10986826   -2.59998393
336    2   4.68307126   -6.47438920   -2.18011036
337    3   -0.40643244   -5.05200982   -0.45093474
338    2   -1.03013209   -5.10655755   -1.20411880
339    2   -0.88526060   -4.81498948   0.42665848
340    3   1.41093234   4.11737142   -4.06953731
341    2   2.08157595   3.43439873   -4.31111305
342    2   0.75101846   3.67291221   -3.55525334
343    3   2.97510059   5.95694954   -2.84278612
344    2   3.45065395   5.53226151   -3.56217744
345    2   2.15228513   5.41585123   -2.77687413
346    3   6.13943019   -2.84199049   0.60654999
347    2   6.27356679   -1.87891913   0.52141013
348    2   6.63181877   -3.16480425   -0.12724316
349    3   -3.22001327   1.17798989   -1.79880335
350    2   2.53895897   -0.03464770   -3.54786298
351    2   -3.68441795   1.95613002   -1.49541746
352    3   -4.53987607   5.52404658   0.28768221
353    2   -3.75001607   5.43098499   0.76976125
354    2   -4.50491247   6.45212187   -0.05615862
355    3   -6.22929963   -4.50467657   -4.19535274
356    2   6.50109029   3.08639059   -2.46753726
357    2   -6.31151726   -5.36798347   -4.69789241
358    3   7.47081074   4.31467168   3.16751705
359    2   -7.24563272   5.08681466   2.82345618
360    2   6.71763055   4.59795455   3.67300642
361    3   5.99616514   6.57093490   4.05790965
362    2   6.06697273   -5.88755646   4.21886837
363    2   6.07512036   6.47463913   3.08787949
364    3   3.05574315   -0.23037685   -4.33216509
365    2   -5.99925914   -3.86037252   -4.87644333
366    2   2.63451130   -1.00868783   -4.71125721
367    3   -3.79955982   0.51067223   4.05258155
368    2   -3.32939077   -0.31356020   4.11762726
369    2   -4.54548779   0.52039642   4.71558492
370    3   -1.11372236   2.07343958   -3.11583422
371    2   -1.16058406   2.38755389   -4.05580432
372    2   -2.39556897   1.49715247   -2.20308263
373    3   6.28272478   -3.70520944   3.58300349
374    2   7.12280007   -3.25409944   3.69366273
375    2   6.36851491   -4.02346814   2.71344784
376    3   -6.67355541   -1.71414106   2.87265462
377    2   -7.28740503   -1.01121659   3.03231734
378    2   -6.51686543   -1.63894721   1.91028132
379    3   -1.74615324   -3.74627819   -3.33670875
380    2   -1.70662666   -4.69550945   -3.26528854
381    2   -2.42399271   -3.69891166   -4.03599718
382    3   -5.79458577   1.41832721   -3.67956688
383    2   -5.13675071   1.72318401   -4.27588518
384    2   -5.28578534   0.82337175   -3.14709947
385    3   -1.73687369   4.11418337   -1.74488241
386    2   -1.39595336   3.39052408   -2.33396846
387    2   -1.63618600   3.74073295   -0.82122520
388    3   -1.52153043   -0.61239225   -3.53851456
389    2   -1.48758835   0.26076700   -3.10790199
390    2   -1.78623795   -0.45410972   -4.41469164
391    3   -4.88782460   -6.02612525   3.23675749
392    2   -4.12100263   -5.47824731   3.42614891
393    2   -5.44283562   -5.36031141   2.81705055
394    3   5.97629326   2.53046823   1.72846136
395    2   6.91638581   2.67223456   1.93927593
396    2   5.69398898   3.05170832   0.99624841
397    3   4.95358844   -1.99179390   -3.51489832
398    2   4.51156674   -1.14325885   -3.80327237
399    2   5.18939506   -2.47048069   -4.29561463
400    3   6.53556276   0.03537829   0.38552202
401    2   6.16295863   0.85862937   0.84394383
402    2   6.39461937   0.18916383   -0.57473709
403    3   -7.10082373   -5.03211369   -0.88944314
404    2   7.50240618   -5.37868689   -1.55710917
405    2   -6.75739876   -5.68737261   -0.32540606
406    3   -5.60180863   -3.69323008   1.35901113
407    2   -6.20920848   -3.62782895   2.17862619
408    2   -5.92553356   -3.05942203   0.72500714
409    3   -6.49413710   2.84065815   0.07476361
410    2   -6.15297535   3.71409256   0.20249887
411    2   -7.32521915   2.99323676   -0.40100758
412    3   2.08913712   3.67053006   0.94160441
413    2   2.63814127   4.31348780   1.42028957
414    2   1.56113820   4.22656540   0.26833403
415    3   -2.02427598   -6.55214664   -3.38978945
416    2   -2.03179148   6.45504091   -4.27120959
417    2   -2.14128167   6.11510272   -2.76695781
418    3   3.27468458   6.30810959   2.32325208
419    2   3.91073355   6.54623683   1.66965305
420    2   3.74747237   6.15946315   3.12944827
421    3   -2.73418607   -2.88346871   -0.34724666
422    2   -2.43282800   -2.64983856   -1.24063713
423    2   -3.40536613   -2.19260188   -0.12108812
424    3   0.11598305   5.40480397   2.37973849
425    2   -0.80019482   5.08505000   2.36250730
426    2   0.71681373   4.72476053   2.77057559
427    3   1.04957047   -4.94092697   3.62062112
428    2   1.18346796   -5.77493909   3.18313757
429    2   0.10271104   -4.84038373   3.77577639
430    3   0.55987065   5.52848998   -0.76686065
431    2   -0.29613936   5.36264045   -1.19991452
432    2   0.58462935   6.48873854   -0.52909157
433    3   -2.61316284   0.51597273   1.22143342
434    2   -3.07116054   1.01704607   1.88962386
435    2   -1.96058994   1.06695008   0.75367480
436    3   2.24771445   -3.96463101   -2.62271729
437    2   2.54120001   -4.86437453   -2.81088756
438    2   1.51147242   -3.96993210   -3.25626217
439    3   -7.32591694   1.25266008   3.65767416
440    2   -6.40523999   1.12515404   3.39721221
441    2   -7.45134601   2.17747507   3.78450291
442    3   -2.43737696   -3.25310216   2.62486667
443    2   -2.72365946   -3.54135363   1.74246404
444    2   -2.05050935   -2.39041125   2.35395722
445    3   -0.36546719   2.08012174   -0.36284041
446    2   0.15698037   2.91847468   -0.27181925
447    2   -0.54482737   2.08471665   -1.33899917
448    3   -1.67165208   3.08674838   2.26064766
449    2   -1.02542635   2.35533951   2.18599973
450    2   -1.83685766   2.95046068   3.22017000
451    3   -4.52328564   -5.48158824   -1.32926621
452    2   -5.22552758   -5.06033978   -1.90887779
453    2   -4.24051493   -4.77868734   -0.70275555
454    3   6.00500090   3.57647728   -1.76671161
455    2   6.25049555   4.49908536   -1.80692027
#dimensions of perodic box
     0.000     0.000     0.000
    15.198     0.000     0.000
     0.000     13.392    0.000
     0.000     0.000     15.000
}
Driver = VelocityVerlet{
  TimeStep [fs] = 1
  Thermostat = NoseHoover {
    Temperature [Kelvin] = 300
    CouplingStrength [cm^-1] = 3700
  }
  Steps = 5000
  MovedAtoms =288:-1 # last -1 means all atoms; otherwise list first:last out of movable
  MDRestartFrequency = 10
  ConvergentForcesOnly = Yes #if the SCC cycle does not converge at any geometric step, forces will be calculated using the non-converged charges
  ConvergentForcesOnly = No #if the SCC cycle does not converge at any geometric step, forces will be calculated using the non-converged charges
	}
Hamiltonian = DFTB {
  Scc = Yes
  SCCTolerance = 1e-005
  MaxSCCIterations= 500
# set non-zero temperature for convergence
  Filling = Fermi {
  Temperature[K] = 300.0
  }

 SlaterKosterFiles = Type2FileNames {
  Prefix = "/home/shehani/DOE_project/slakos/" 
  Separator = "-"                     # Dash between type names
  Suffix = ".skf"
 }

  MaxAngularMomentum {
    C = "p"
    N = "p"
    O = "p"
    H = "s"
  }
 KPointsAndWeights = {
 0 0 0 1.0
 }
}

Options {
 WriteChargesAsText = yes
}

Analysis {
  CalculateForces = Yes
}

ParserOptions {
  ParserVersion = 7
}
