#
Geometry = GenFormat {
462 S
C  H  O N
1    1   -6.95533000   -5.77942000   7.09358000
2    1   -4.41682000   -5.79234000   7.03944000
3    1   -5.67222000   -5.04425000   7.54974000
4    2   -4.43983000   -5.81338000   5.92441000
5    2   -4.36446000   -2.83084000   8.59450000
6    1   -4.39162000   -2.85245000   7.47953000
7    1   -5.67678000   -3.58749000   7.02788000
8    2   -5.64747000   -5.02479000   8.66478000
9    1   -6.92912000   -2.83903000   7.54419000
10    1   -8.21625000   -3.57108000   7.09182000
11    1   -8.21134000   -5.03421000   7.60784000
12    2   -8.18399000   -5.01842000   8.72289000
13    2   -6.98040000   -5.79704000   5.97861000
14    2   -5.70427000   -3.60699000   5.91295000
15    2   -6.90052000   -2.82105000   8.65910000
16    2   -8.24340000   -3.58696000   5.97679000
17    1   -6.93119000   -1.38192000   7.02293000
18    1   -4.39495000   -1.39668000   6.95413000
19    1   -5.64384000   -0.64724000   7.47148000
20    1   -8.17795000   -0.63147000   7.54420000
21    2   -6.96295000   -1.40011000   5.90809000
22    2   -8.14394000   -0.61480000   8.65930000
23    2   -5.61251000   -0.62767000   8.58654000
24    1   -9.47347000   -1.35875000   7.09816000
25    1   -9.47228000   -2.82145000   7.60812000
26    1   -9.49889000   -5.77048000   7.15377000
27    1   -10.70143000   -0.58749000   7.62003000
28    1   -10.74142000   -3.56778000   7.15557000
29    1   -10.73635000   -5.01111000   7.66824000
30    2   -10.71493000   -0.58639000   8.73219000
31    2   -9.51514000   -1.37104000   5.98465000
32    2   -9.45222000   -2.80903000   8.72224000
33    2   -10.81724000   -3.56922000   6.04599000
34    2   -10.75742000   -5.00924000   8.78019000
35    2   -9.53366000   -5.78257000   6.04007000
36    1   -10.69373000   0.85766000   7.10947000
37    1   -9.41191000   1.57795000   7.54101000
38    1   -8.17379000   0.82949000   7.02543000
39    1   -6.88980000   1.55417000   7.46452000
40    1   -5.64633000   0.81121000   6.94932000
41    1   -4.36263000   1.53999000   7.38652000
42    2   -10.77519000   0.86518000   6.00127000
43    2   -8.20787000   0.82522000   5.91248000
44    2   -5.67976000   0.80434000   5.83645000
45    2   -9.38832000   1.64870000   8.65092000
46    2   -6.85561000   1.62296000   8.57534000
47    2   -4.32942000   1.61266000   8.49706000
48    1   -4.41180000   6.00959000   7.56401000
49    1   -5.69081000   5.27362000   7.10437000
50    1   -6.94765000   6.02122000   7.61411000
51    2   -4.39122000   6.03046000   8.67914000
52    1   -5.68400000   3.81466000   7.62517000
53    2   -5.71189000   5.25498000   5.98913000
54    1   -6.95824000   3.08529000   7.16957000
55    1   -8.21170000   3.82280000   7.67122000
56    1   -8.22596000   5.28419000   7.15387000
57    2   -5.66503000   3.82058000   8.73842000
58    2   -6.92565000   6.03894000   8.72922000
59    2   -8.24657000   5.26811000   6.03843000
60    2   -8.19125000   3.82640000   8.78454000
61    2   -6.97835000   3.01758000   6.05836000
62    1   -4.42956000   3.07335000   7.12807000
63    2   -4.44724000   3.00252000   6.01711000
64    1   -9.49037000   6.02462000   7.66313000
65    1   -9.48138000   3.08774000   7.21697000
66    1   -10.75053000   5.26654000   7.20230000
67    1   -10.73274000   3.82100000   7.71151000
68    2   -9.47715000   6.03662000   8.77738000
69    2   -10.81886000   5.26640000   6.09219000
70    2   -10.75949000   3.81344000   8.82239000
71    2   -9.51321000   3.01773000   6.10721000
72    1   0.64367000   -5.77942000   7.09358000
73    1   3.18218000   -5.79234000   7.03944000
74    1   1.92678000   -5.04425000   7.54974000
75    2   3.15917000   -5.81338000   5.92441000
76    2   3.23454000   -2.83084000   8.59450000
77    1   3.20738000   -2.85245000   7.47953000
78    1   1.92222000   -3.58749000   7.02788000
79    2   1.95153000   -5.02479000   8.66478000
80    1   0.66988000   -2.83903000   7.54419000
81    1   -0.61725000   -3.57108000   7.09182000
82    1   -0.61234000   -5.03421000   7.60784000
83    2   -0.58499000   -5.01842000   8.72289000
84    2   0.61860000   -5.79704000   5.97861000
85    2   1.89473000   -3.60699000   5.91295000
86    2   0.69848000   -2.82105000   8.65910000
87    2   -0.64440000   -3.58696000   5.97679000
88    1   0.66781000   -1.38192000   7.02293000
89    1   3.20405000   -1.39668000   6.95413000
90    1   1.95516000   -0.64724000   7.47148000
91    1   -0.57895000   -0.63147000   7.54420000
92    2   0.63605000   -1.40011000   5.90809000
93    2   3.17436000   -1.41815000   5.83926000
94    2   -0.54494000   -0.61480000   8.65930000
95    2   1.98649000   -0.62767000   8.58654000
96    1   -1.87447000   -1.35875000   7.09816000
97    1   -1.87328000   -2.82145000   7.60812000
98    1   -1.89989000   -5.77048000   7.15377000
99    1   -3.10243000   -0.58749000   7.62003000
100    1   -3.14242000   -3.56778000   7.15557000
101    1   -3.13735000   -5.01111000   7.66824000
102    2   -3.11593000   -0.58639000   8.73219000
103    2   -1.91614000   -1.37104000   5.98465000
104    2   -1.85322000   -2.80903000   8.72224000
105    2   -3.21824000   -3.56922000   6.04599000
106    2   -3.15842000   -5.00924000   8.78019000
107    2   -1.93466000   -5.78257000   6.04007000
108    1   -3.09473000   0.85766000   7.10947000
109    1   -1.81291000   1.57795000   7.54101000
110    1   -0.57479000   0.82949000   7.02543000
111    1   0.70920000   1.55417000   7.46452000
112    1   1.95267000   0.81121000   6.94932000
113    1   3.23637000   1.53999000   7.38652000
114    2   -3.17619000   0.86518000   6.00127000
115    2   -0.60887000   0.82522000   5.91248000
116    2   1.91924000   0.80434000   5.83645000
117    2   -1.78932000   1.64870000   8.65092000
118    2   0.74339000   1.62296000   8.57534000
119    2   3.26958000   1.61266000   8.49706000
120    1   3.18720000   6.00959000   7.56401000
121    1   1.90819000   5.27362000   7.10437000
122    1   0.65135000   6.02122000   7.61411000
123    2   3.20778000   6.03046000   8.67914000
124    1   1.91500000   3.81466000   7.62517000
125    2   1.88711000   5.25498000   5.98913000
126    1   0.64076000   3.08529000   7.16957000
127    1   -0.61270000   3.82280000   7.67122000
128    1   -0.62696000   5.28419000   7.15387000
129    2   1.93397000   3.82058000   8.73842000
130    2   0.67335000   6.03894000   8.72922000
131    2   -0.64757000   5.26811000   6.03843000
132    2   -0.59225000   3.82640000   8.78454000
133    2   0.62065000   3.01758000   6.05836000
134    1   3.16944000   3.07335000   7.12807000
135    2   3.15176000   3.00252000   6.01711000
136    1   -1.89137000   6.02462000   7.66313000
137    1   -1.88238000   3.08774000   7.21697000
138    1   -3.15153000   5.26654000   7.20230000
139    1   -3.13374000   3.82100000   7.71151000
140    2   -1.87815000   6.03662000   8.77738000
141    2   -3.21986000   5.26640000   6.09219000
142    2   -3.16049000   3.81344000   8.82239000
143    2   -1.91421000   3.01773000   6.10721000
144    1   8.24267000   -5.77942000   7.09358000
145    1   10.78118000   -5.79234000   7.03944000
146    1   9.52578000   -5.04425000   7.54974000
147    2   10.75817000   -5.81338000   5.92441000
148    2   10.83354000   -2.83084000   8.59450000
149    1   10.80638000   -2.85245000   7.47953000
150    1   9.52122000   -3.58749000   7.02788000
151    2   9.55053000   -5.02479000   8.66478000
152    1   8.26888000   -2.83903000   7.54419000
153    1   6.98175000   -3.57108000   7.09182000
154    1   6.98666000   -5.03421000   7.60784000
155    2   7.01401000   -5.01842000   8.72289000
156    2   8.21760000   -5.79704000   5.97861000
157    2   9.49373000   -3.60699000   5.91295000
158    2   8.29748000   -2.82105000   8.65910000
159    2   6.95460000   -3.58696000   5.97679000
160    1   8.26681000   -1.38192000   7.02293000
161    1   10.80305000   -1.39668000   6.95413000
162    1   9.55416000   -0.64724000   7.47148000
163    1   7.02005000   -0.63147000   7.54420000
164    2   8.23505000   -1.40011000   5.90809000
165    2   10.77336000   -1.41815000   5.83926000
166    2   7.05406000   -0.61480000   8.65930000
167    2   9.58549000   -0.62767000   8.58654000
168    1   5.72453000   -1.35875000   7.09816000
169    1   5.72572000   -2.82145000   7.60812000
170    1   5.69911000   -5.77048000   7.15377000
171    1   4.49657000   -0.58749000   7.62003000
172    1   4.45658000   -3.56778000   7.15557000
173    1   4.46165000   -5.01111000   7.66824000
174    2   4.48307000   -0.58639000   8.73219000
175    2   5.74578000   -2.80903000   8.72224000
176    2   4.38076000   -3.56922000   6.04599000
177    2   4.44058000   -5.00924000   8.78019000
178    2   5.66434000   -5.78257000   6.04007000
179    1   4.50427000   0.85766000   7.10947000
180    1   5.78609000   1.57795000   7.54101000
181    1   7.02421000   0.82949000   7.02543000
182    1   8.30820000   1.55417000   7.46452000
183    1   9.55167000   0.81121000   6.94932000
184    1   10.83537000   1.53999000   7.38652000
185    2   4.42281000   0.86518000   6.00127000
186    2   6.99013000   0.82522000   5.91248000
187    2   9.51824000   0.80434000   5.83645000
188    2   5.80968000   1.64870000   8.65092000
189    2   8.34239000   1.62296000   8.57534000
190    2   10.86858000   1.61266000   8.49706000
191    1   10.78620000   6.00959000   7.56401000
192    1   9.50719000   5.27362000   7.10437000
193    1   8.25035000   6.02122000   7.61411000
194    2   10.80678000   6.03046000   8.67914000
195    1   9.51400000   3.81466000   7.62517000
196    2   9.48611000   5.25498000   5.98913000
197    1   8.23976000   3.08529000   7.16957000
198    1   6.98630000   3.82280000   7.67122000
199    1   6.97204000   5.28419000   7.15387000
200    2   9.53297000   3.82058000   8.73842000
201    2   8.27235000   6.03894000   8.72922000
202    2   6.95143000   5.26811000   6.03843000
203    2   7.00675000   3.82640000   8.78454000
204    2   8.21965000   3.01758000   6.05836000
205    1   10.76844000   3.07335000   7.12807000
206    2   10.75076000   3.00252000   6.01711000
207    1   5.70763000   6.02462000   7.66313000
208    1   5.71662000   3.08774000   7.21697000
209    1   4.44747000   5.26654000   7.20230000
210    1   4.46526000   3.82100000   7.71151000
211    2   5.72085000   6.03662000   8.77738000
212    2   4.37914000   5.26640000   6.09219000
213    2   4.43851000   3.81344000   8.82239000
214    2   5.68479000   3.01773000   6.10721000
215    1   -6.95533000   -5.77942000   -7.90642000
216    1   -4.41682000   -5.79234000   -7.96056000
217    1   -5.67222000   -5.04425000   -7.45026000
218    2   -4.43983000   -5.81338000   -9.07559000
219    2   -4.36446000   -2.83084000   -6.40550000
220    1   -4.39162000   -2.85245000   -7.52047000
221    1   -5.67678000   -3.58749000   -7.97212000
222    2   -5.64747000   -5.02479000   -6.33522000
223    1   -6.92912000   -2.83903000   -7.45581000
224    1   -8.21625000   -3.57108000   -7.90818000
225    1   -8.21134000   -5.03421000   -7.39216000
226    2   -8.18399000   -5.01842000   -6.27711000
227    2   -6.98040000   -5.79704000   -9.02139000
228    2   -5.70427000   -3.60699000   -9.08705000
229    2   -6.90052000   -2.82105000   -6.34090000
230    2   -8.24340000   -3.58696000   -9.02321000
231    1   -6.93119000   -1.38192000   -7.97707000
232    1   -4.39495000   -1.39668000   -8.04587000
233    1   -5.64384000   -0.64724000   -7.52852000
234    1   -8.17795000   -0.63147000   -7.45580000
235    2   -6.96295000   -1.40011000   -9.09191000
236    2   -4.42464000   -1.41815000   -9.16074000
237    2   -8.14394000   -0.61480000   -6.34070000
238    2   -5.61251000   -0.62767000   -6.41346000
239    1   -9.47347000   -1.35875000   -7.90184000
240    1   -9.47228000   -2.82145000   -7.39188000
241    1   -9.49889000   -5.77048000   -7.84623000
242    1   -10.70143000   -0.58749000   -7.37997000
243    1   -10.74142000   -3.56778000   -7.84443000
244    1   -10.73635000   -5.01111000   -7.33176000
245    2   -10.71493000   -0.58639000   -6.26781000
246    2   -9.51514000   -1.37104000   -9.01535000
247    2   -9.45222000   -2.80903000   -6.27776000
248    2   -10.81724000   -3.56922000   -8.95401000
249    2   -10.75742000   -5.00924000   -6.21981000
250    2   -9.53366000   -5.78257000   -8.95993000
251    1   -10.69373000   0.85766000   -7.89053000
252    1   -9.41191000   1.57795000   -7.45899000
253    1   -8.17379000   0.82949000   -7.97457000
254    1   -6.88980000   1.55417000   -7.53548000
255    1   -5.64633000   0.81121000   -8.05068000
256    1   -4.36263000   1.53999000   -7.61348000
257    2   -10.77519000   0.86518000   -8.99873000
258    2   -8.20787000   0.82522000   -9.08752000
259    2   -5.67976000   0.80434000   -9.16355000
260    2   -9.38832000   1.64870000   -6.34908000
261    2   -6.85561000   1.62296000   -6.42466000
262    2   -4.32942000   1.61266000   -6.50294000
263    1   -4.41180000   6.00959000   -7.43599000
264    1   -5.69081000   5.27362000   -7.89563000
265    1   -6.94765000   6.02122000   -7.38589000
266    2   -4.39122000   6.03046000   -6.32086000
267    1   -5.68400000   3.81466000   -7.37483000
268    2   -5.71189000   5.25498000   -9.01087000
269    1   -6.95824000   3.08529000   -7.83043000
270    1   -8.21170000   3.82280000   -7.32878000
271    1   -8.22596000   5.28419000   -7.84613000
272    2   -5.66503000   3.82058000   -6.26158000
273    2   -6.92565000   6.03894000   -6.27078000
274    2   -8.24657000   5.26811000   -8.96157000
275    2   -8.19125000   3.82640000   -6.21546000
276    2   -6.97835000   3.01758000   -8.94164000
277    1   -4.42956000   3.07335000   -7.87193000
278    2   -4.44724000   3.00252000   -8.98289000
279    1   -9.49037000   6.02462000   -7.33687000
280    1   -9.48138000   3.08774000   -7.78303000
281    1   -10.75053000   5.26654000   -7.79770000
282    1   -10.73274000   3.82100000   -7.28849000
283    2   -9.47715000   6.03662000   -6.22262000
284    2   -10.81886000   5.26640000   -8.90781000
285    2   -10.75949000   3.81344000   -6.17761000
286    2   -9.51321000   3.01773000   -8.89279000
287    1   0.64367000   -5.77942000   -7.90642000
288    1   3.18218000   -5.79234000   -7.96056000
289    1   1.92678000   -5.04425000   -7.45026000
290    2   3.15917000   -5.81338000   -9.07559000
291    2   3.23454000   -2.83084000   -6.40550000
292    1   3.20738000   -2.85245000   -7.52047000
293    1   1.92222000   -3.58749000   -7.97212000
294    2   1.95153000   -5.02479000   -6.33522000
295    1   0.66988000   -2.83903000   -7.45581000
296    1   -0.61725000   -3.57108000   -7.90818000
297    1   -0.61234000   -5.03421000   -7.39216000
298    2   -0.58499000   -5.01842000   -6.27711000
299    2   0.61860000   -5.79704000   -9.02139000
300    2   1.89473000   -3.60699000   -9.08705000
301    2   0.69848000   -2.82105000   -6.34090000
302    2   -0.64440000   -3.58696000   -9.02321000
303    1   0.66781000   -1.38192000   -7.97707000
304    1   3.20405000   -1.39668000   -8.04587000
305    1   1.95516000   -0.64724000   -7.52852000
306    1   -0.57895000   -0.63147000   -7.45580000
307    2   0.63605000   -1.40011000   -9.09191000
308    2   3.17436000   -1.41815000   -9.16074000
309    2   -0.54494000   -0.61480000   -6.34070000
310    2   1.98649000   -0.62767000   -6.41346000
311    1   -1.87447000   -1.35875000   -7.90184000
312    1   -1.87328000   -2.82145000   -7.39188000
313    1   -1.89989000   -5.77048000   -7.84623000
314    1   -3.10243000   -0.58749000   -7.37997000
315    1   -3.14242000   -3.56778000   -7.84443000
316    1   -3.13735000   -5.01111000   -7.33176000
317    2   -3.11593000   -0.58639000   -6.26781000
318    2   -1.91614000   -1.37104000   -9.01535000
319    2   -1.85322000   -2.80903000   -6.27776000
320    2   -3.21824000   -3.56922000   -8.95401000
321    2   -3.15842000   -5.00924000   -6.21981000
322    2   -1.93466000   -5.78257000   -8.95993000
323    1   -3.09473000   0.85766000   -7.89053000
324    1   -1.81291000   1.57795000   -7.45899000
325    1   -0.57479000   0.82949000   -7.97457000
326    1   0.70920000   1.55417000   -7.53548000
327    1   1.95267000   0.81121000   -8.05068000
328    1   3.23637000   1.53999000   -7.61348000
329    2   -3.17619000   0.86518000   -8.99873000
330    2   -0.60887000   0.82522000   -9.08752000
331    2   1.91924000   0.80434000   -9.16355000
332    2   -1.78932000   1.64870000   -6.34908000
333    2   0.74339000   1.62296000   -6.42466000
334    2   3.26958000   1.61266000   -6.50294000
335    1   3.18720000   6.00959000   -7.43599000
336    1   1.90819000   5.27362000   -7.89563000
337    1   0.65135000   6.02122000   -7.38589000
338    2   3.20778000   6.03046000   -6.32086000
339    1   1.91500000   3.81466000   -7.37483000
340    2   1.88711000   5.25498000   -9.01087000
341    1   0.64076000   3.08529000   -7.83043000
342    1   -0.61270000   3.82280000   -7.32878000
343    1   -0.62696000   5.28419000   -7.84613000
344    2   1.93397000   3.82058000   -6.26158000
345    2   0.67335000   6.03894000   -6.27078000
346    2   -0.64757000   5.26811000   -8.96157000
347    2   -0.59225000   3.82640000   -6.21546000
348    2   0.62065000   3.01758000   -8.94164000
349    1   3.16944000   3.07335000   -7.87193000
350    2   3.15176000   3.00252000   -8.98289000
351    1   -1.89137000   6.02462000   -7.33687000
352    1   -1.88238000   3.08774000   -7.78303000
353    1   -3.15153000   5.26654000   -7.79770000
354    1   -3.13374000   3.82100000   -7.28849000
355    2   -1.87815000   6.03662000   -6.22262000
356    2   -3.21986000   5.26640000   -8.90781000
357    2   -3.16049000   3.81344000   -6.17761000
358    2   -1.91421000   3.01773000   -8.89279000
359    1   8.24267000   -5.77942000   -7.90642000
360    1   10.78118000   -5.79234000   -7.96056000
361    1   9.52578000   -5.04425000   -7.45026000
362    2   10.75817000   -5.81338000   -9.07559000
363    2   10.83354000   -2.83084000   -6.40550000
364    1   10.80638000   -2.85245000   -7.52047000
365    1   9.52122000   -3.58749000   -7.97212000
366    2   9.55053000   -5.02479000   -6.33522000
367    1   8.26888000   -2.83903000   -7.45581000
368    1   6.98175000   -3.57108000   -7.90818000
369    1   6.98666000   -5.03421000   -7.39216000
370    2   7.01401000   -5.01842000   -6.27711000
371    2   8.21760000   -5.79704000   -9.02139000
372    2   9.49373000   -3.60699000   -9.08705000
373    2   8.29748000   -2.82105000   -6.34090000
374    2   6.95460000   -3.58696000   -9.02321000
375    1   8.26681000   -1.38192000   -7.97707000
376    1   10.80305000   -1.39668000   -8.04587000
377    1   9.55416000   -0.64724000   -7.52852000
378    1   7.02005000   -0.63147000   -7.45580000
379    2   8.23505000   -1.40011000   -9.09191000
380    2   10.77336000   -1.41815000   -9.16074000
381    2   7.05406000   -0.61480000   -6.34070000
382    2   9.58549000   -0.62767000   -6.41346000
383    1   5.72453000   -1.35875000   -7.90184000
384    1   5.72572000   -2.82145000   -7.39188000
385    1   5.69911000   -5.77048000   -7.84623000
386    1   4.49657000   -0.58749000   -7.37997000
387    1   4.45658000   -3.56778000   -7.84443000
388    1   4.46165000   -5.01111000   -7.33176000
389    2   4.48307000   -0.58639000   -6.26781000
390    2   5.68286000   -1.37104000   -9.01535000
391    2   5.74578000   -2.80903000   -6.27776000
392    2   4.38076000   -3.56922000   -8.95401000
393    2   4.44058000   -5.00924000   -6.21981000
394    2   5.66434000   -5.78257000   -8.95993000
395    1   4.50427000   0.85766000   -7.89053000
396    1   5.78609000   1.57795000   -7.45899000
397    1   7.02421000   0.82949000   -7.97457000
398    1   8.30820000   1.55417000   -7.53548000
399    1   9.55167000   0.81121000   -8.05068000
400    1   10.83537000   1.53999000   -7.61348000
401    2   4.42281000   0.86518000   -8.99873000
402    2   6.99013000   0.82522000   -9.08752000
403    2   9.51824000   0.80434000   -9.16355000
404    2   5.80968000   1.64870000   -6.34908000
405    2   8.34239000   1.62296000   -6.42466000
406    2   10.86858000   1.61266000   -6.50294000
407    1   10.78620000   6.00959000   -7.43599000
408    1   9.50719000   5.27362000   -7.89563000
409    1   8.25035000   6.02122000   -7.38589000
410    2   10.80678000   6.03046000   -6.32086000
411    1   9.51400000   3.81466000   -7.37483000
412    2   9.48611000   5.25498000   -9.01087000
413    1   8.23976000   3.08529000   -7.83043000
414    1   6.98630000   3.82280000   -7.32878000
415    1   6.97204000   5.28419000   -7.84613000
416    2   9.53297000   3.82058000   -6.26158000
417    2   8.27235000   6.03894000   -6.27078000
418    2   6.95143000   5.26811000   -8.96157000
419    2   7.00675000   3.82640000   -6.21546000
420    2   8.21965000   3.01758000   -8.94164000
421    1   10.76844000   3.07335000   -7.87193000
422    2   10.75076000   3.00252000   -8.98289000
423    1   5.70763000   6.02462000   -7.33687000
424    1   5.71662000   3.08774000   -7.78303000
425    1   4.44747000   5.26654000   -7.79770000
426    1   4.46526000   3.82100000   -7.28849000
427    2   5.72085000   6.03662000   -6.22262000
428    2   4.37914000   5.26640000   -8.90781000
429    2   4.43851000   3.81344000   -6.17761000
430    2   5.68479000   3.01773000   -8.89279000
431    4   -6.45491000   -2.73871000   1.00332000
432    2   -5.62540000   -3.23101000   0.65967000
433    2   -7.27294000   -3.28283000   0.71414000
434    2   -6.50032000   -1.83539000   0.52422000
435    1   -6.42641000   -2.55647000   2.48715000
436    2   -6.58065000   -3.54086000   2.92841000
437    2   -7.29326000   -1.94048000   2.72887000
438    1   -5.13192000   -1.93158000   2.99813000
439    2   -4.32051000   -2.66667000   2.93955000
440    2   -4.84525000   -1.06805000   2.38943000
441    1   -5.45161000   -1.54106000   4.44547000
442    2   -6.12553000   -2.32093000   4.79081000
443    2   -6.03645000   -0.61885000   4.41662000
444    1   -4.25092000   -1.41336000   5.39002000
445    2   -3.59751000   -2.24267000   5.12100000
446    2   -3.69996000   -0.52803000   5.07239000
447    4   3.66567000   -2.73871000   1.00332000
448    2   4.49518000   -3.23101000   0.65967000
449    2   2.84764000   -3.28283000   0.71414000
450    2   3.62026000   -1.83539000   0.52422000
451    1   3.69417000   -2.55647000   2.48715000
452    2   3.53993000   -3.54086000   2.92841000
453    2   2.82732000   -1.94048000   2.72887000
454    1   4.98866000   -1.93158000   2.99813000
455    2   5.80007000   -2.66667000   2.93955000
456    2   5.27533000   -1.06805000   2.38943000
457    1   4.66897000   -1.54106000   4.44547000
458    2   3.99505000   -2.32093000   4.79081000
459    2   4.08413000   -0.61885000   4.41662000
460    1   5.86966000   -1.41336000   5.39002000
461    2   6.52307000   -2.24267000   5.12100000
462    2   6.42062000   -0.52803000   5.07239000
#dimensions of perodic box
     0.000     0.000     0.000
    22.797     0.000     0.000
     0.000     13.392    0.000
     0.000     0.000     60.000
}
Driver = VelocityVerlet{
  TimeStep [fs] = 1
  Thermostat = NoseHoover {
    Temperature [Kelvin] = 300
    CouplingStrength [cm^-1] = 3700
  }
  Steps = 5000
  MovedAtoms =433:-1 # last -1 means all atoms; otherwise list first:last out of movable
  MDRestartFrequency = 10
  ConvergentForcesOnly = Yes #if the SCC cycle does not converge at any geometric step, forces will be calculated using the non-converged charges
  ConvergentForcesOnly = No #if the SCC cycle does not converge at any geometric step, forces will be calculated using the non-converged charges
	}
Hamiltonian = DFTB {
  Scc = Yes
  SCCTolerance = 1e-005
  MaxSCCIterations= 500
# set non-zero temperature for convergence
  Filling = Fermi {
  Temperature[K] = 300.0
  }

 SlaterKosterFiles = Type2FileNames {
  Prefix = "/home/shehani/DOE_project/slakos/" 
  Separator = "-"                     # Dash between type names
  Suffix = ".skf"
 }

  MaxAngularMomentum {
    C = "p"
    N = "p"
    O = "p"
    H = "s"
  }
 KPointsAndWeights = {
 0 0 0 1.0
 }
}

Options {
 WriteChargesAsText = yes
}

Analysis {
  CalculateForces = Yes
}

ParserOptions {
  ParserVersion = 7
}
