844

C        -10.71856       -5.90074       -8.40206
C         -8.18005       -5.91366       -8.34792
C         -9.43545       -5.16557       -8.85822
H         -8.20306       -5.93470       -7.23289
H         -8.12769       -2.95216       -9.90298
C         -8.15485       -2.97377       -8.78801
C         -9.44001       -3.70881       -8.33636
H         -9.41070       -5.14611       -9.97326
C        -10.69235       -2.96035       -8.85267
C        -11.97948       -3.69240       -8.40030
C        -11.97457       -5.15553       -8.91632
H        -11.94722       -5.13974      -10.03137
H        -10.74363       -5.91836       -7.28709
H         -9.46750       -3.72831       -7.22143
H        -10.66375       -2.94237       -9.96758
H        -12.00663       -3.70828       -7.28527
C        -10.69442       -1.50324       -8.33141
C         -8.15818       -1.51800       -8.26261
C         -9.40707       -0.76856       -8.77996
C        -11.94118       -0.75279       -8.85268
H        -10.72618       -1.52143       -7.21657
H         -8.18787       -1.53947       -7.14774
H        -11.90717       -0.73612       -9.96778
H         -9.37574       -0.74899       -9.89502
C        -13.23670       -1.48007       -8.40664
C        -13.23551       -2.94277       -8.91660
C        -13.26212       -5.89180       -8.46225
C        -14.46466       -0.70881       -8.92851
C        -14.50465       -3.68910       -8.46405
C        -14.49958       -5.13243       -8.97672
H        -14.47816       -0.70771      -10.04067
H        -13.27837       -1.49236       -7.29313
H        -13.21545       -2.93035      -10.03072
H        -14.58047       -3.69054       -7.35447
H        -14.52065       -5.13056      -10.08867
H        -13.29689       -5.90389       -7.34855
C        -14.45696        0.73634       -8.41795
C        -13.17514        1.45663       -8.84949
C        -11.93702        0.70817       -8.33391
C        -10.65303        1.43285       -8.77300
C         -9.40956        0.68989       -8.25780
C         -8.12586        1.41867       -8.69500
H        -14.53842        0.74386       -7.30975
H        -11.97110        0.70390       -7.22096
H         -9.44299        0.68302       -7.14493
H        -13.15155        1.52738       -9.95940
H        -10.61884        1.50164       -9.88382
H         -8.09265        1.49134       -9.80554
C         -8.17503        5.88827       -8.87249
C         -9.45404        5.15230       -8.41285
C        -10.71088        5.89990       -8.92259
H         -8.15445        5.90914       -9.98762
C         -9.44723        3.69334       -8.93365
H         -9.47512        5.13366       -7.29761
C        -10.72147        2.96397       -8.47805
C        -11.97493        3.70148       -8.97970
C        -11.98919        5.16287       -8.46235
H         -9.42826        3.69926      -10.04690
H        -10.68888        5.91762      -10.03770
H        -12.00980        5.14679       -7.34691
H        -11.95448        3.70508      -10.09302
H        -10.74158        2.89626       -7.36684
C         -8.19279        2.95203       -8.43655
H         -8.21047        2.88120       -7.32559
C        -13.25360        5.90330       -8.97161
C        -13.24461        2.96642       -8.52545
C        -14.51376        5.14522       -8.51078
C        -14.49597        3.69968       -9.01999
H        -13.24038        5.91530      -10.08586
H        -14.58209        5.14508       -7.40067
H        -14.52272        3.69212      -10.13087
H        -13.27644        2.89641       -7.41569
C         -3.11956       -5.90074       -8.40206
C         -0.58105       -5.91366       -8.34792
C         -1.83645       -5.16557       -8.85822
H         -0.60406       -5.93470       -7.23289
H         -0.52869       -2.95216       -9.90298
C         -0.55585       -2.97377       -8.78801
C         -1.84101       -3.70881       -8.33636
H         -1.81170       -5.14611       -9.97326
C         -3.09335       -2.96035       -8.85267
C         -4.38048       -3.69240       -8.40030
C         -4.37557       -5.15553       -8.91632
H         -4.34822       -5.13974      -10.03137
H         -3.14463       -5.91836       -7.28709
H         -1.86850       -3.72831       -7.22143
H         -3.06475       -2.94237       -9.96758
H         -4.40763       -3.70828       -7.28527
C         -3.09542       -1.50324       -8.33141
C         -0.55918       -1.51800       -8.26261
C         -1.80807       -0.76856       -8.77996
C         -4.34218       -0.75279       -8.85268
H         -3.12718       -1.52143       -7.21657
H         -0.58887       -1.53947       -7.14774
H         -4.30817       -0.73612       -9.96778
H         -1.77674       -0.74899       -9.89502
C         -5.63770       -1.48007       -8.40664
C         -5.63651       -2.94277       -8.91660
C         -5.66312       -5.89180       -8.46225
C         -6.86566       -0.70881       -8.92851
C         -6.90565       -3.68910       -8.46405
C         -6.90058       -5.13243       -8.97672
H         -6.87916       -0.70771      -10.04067
H         -5.67937       -1.49236       -7.29313
H         -5.61645       -2.93035      -10.03072
H         -6.98147       -3.69054       -7.35447
H         -6.92165       -5.13056      -10.08867
H         -5.69789       -5.90389       -7.34855
C         -6.85796        0.73634       -8.41795
C         -5.57614        1.45663       -8.84949
C         -4.33802        0.70817       -8.33391
C         -3.05403        1.43285       -8.77300
C         -1.81056        0.68989       -8.25780
C         -0.52686        1.41867       -8.69500
H         -6.93942        0.74386       -7.30975
H         -4.37210        0.70390       -7.22096
H         -1.84399        0.68302       -7.14493
H         -5.55255        1.52738       -9.95940
H         -3.01984        1.50164       -9.88382
H         -0.49365        1.49134       -9.80554
C         -0.57603        5.88827       -8.87249
C         -1.85504        5.15230       -8.41285
C         -3.11188        5.89990       -8.92259
H         -0.55545        5.90914       -9.98762
C         -1.84823        3.69334       -8.93365
H         -1.87612        5.13366       -7.29761
C         -3.12247        2.96397       -8.47805
C         -4.37593        3.70148       -8.97970
C         -4.39019        5.16287       -8.46235
H         -1.82926        3.69926      -10.04690
H         -3.08988        5.91762      -10.03770
H         -4.41080        5.14679       -7.34691
H         -4.35548        3.70508      -10.09302
H         -3.14258        2.89626       -7.36684
C         -0.59379        2.95203       -8.43655
H         -0.61147        2.88120       -7.32559
C         -5.65460        5.90330       -8.97161
C         -5.64561        2.96642       -8.52545
C         -6.91476        5.14522       -8.51078
C         -6.89697        3.69968       -9.01999
H         -5.64138        5.91530      -10.08586
H         -6.98309        5.14508       -7.40067
H         -6.92372        3.69212      -10.13087
H         -5.67744        2.89641       -7.41569
C          4.47944       -5.90074       -8.40206
C          7.01795       -5.91366       -8.34792
C          5.76255       -5.16557       -8.85822
H          6.99494       -5.93470       -7.23289
H          7.07031       -2.95216       -9.90298
C          7.04315       -2.97377       -8.78801
C          5.75799       -3.70881       -8.33636
H          5.78730       -5.14611       -9.97326
C          4.50565       -2.96035       -8.85267
C          3.21852       -3.69240       -8.40030
C          3.22343       -5.15553       -8.91632
H          3.25078       -5.13974      -10.03137
H          4.45437       -5.91836       -7.28709
H          5.73050       -3.72831       -7.22143
H          4.53425       -2.94237       -9.96758
H          3.19137       -3.70828       -7.28527
C          4.50358       -1.50324       -8.33141
C          7.03982       -1.51800       -8.26261
C          5.79093       -0.76856       -8.77996
C          3.25682       -0.75279       -8.85268
H          4.47182       -1.52143       -7.21657
H          7.01013       -1.53947       -7.14774
H          3.29083       -0.73612       -9.96778
H          5.82226       -0.74899       -9.89502
C          1.96130       -1.48007       -8.40664
C          1.96249       -2.94277       -8.91660
C          1.93588       -5.89180       -8.46225
C          0.73334       -0.70881       -8.92851
C          0.69335       -3.68910       -8.46405
C          0.69842       -5.13243       -8.97672
H          0.71984       -0.70771      -10.04067
H          1.91963       -1.49236       -7.29313
H          1.98255       -2.93035      -10.03072
H          0.61753       -3.69054       -7.35447
H          0.67735       -5.13056      -10.08867
H          1.90111       -5.90389       -7.34855
C          0.74104        0.73634       -8.41795
C          2.02286        1.45663       -8.84949
C          3.26098        0.70817       -8.33391
C          4.54497        1.43285       -8.77300
C          5.78844        0.68989       -8.25780
C          7.07214        1.41867       -8.69500
H          0.65958        0.74386       -7.30975
H          3.22690        0.70390       -7.22096
H          5.75501        0.68302       -7.14493
H          2.04645        1.52738       -9.95940
H          4.57916        1.50164       -9.88382
H          7.10535        1.49134       -9.80554
C          7.02297        5.88827       -8.87249
C          5.74396        5.15230       -8.41285
C          4.48712        5.89990       -8.92259
H          7.04355        5.90914       -9.98762
C          5.75077        3.69334       -8.93365
H          5.72288        5.13366       -7.29761
C          4.47653        2.96397       -8.47805
C          3.22307        3.70148       -8.97970
C          3.20881        5.16287       -8.46235
H          5.76974        3.69926      -10.04690
H          4.50912        5.91762      -10.03770
H          3.18820        5.14679       -7.34691
H          3.24352        3.70508      -10.09302
H          4.45642        2.89626       -7.36684
C          7.00521        2.95203       -8.43655
H          6.98753        2.88120       -7.32559
C          1.94440        5.90330       -8.97161
C          1.95339        2.96642       -8.52545
C          0.68424        5.14522       -8.51078
C          0.70203        3.69968       -9.01999
H          1.95762        5.91530      -10.08586
H          0.61591        5.14508       -7.40067
H          0.67528        3.69212      -10.13087
H          1.92156        2.89641       -7.41569
C         12.07844       -5.90074       -8.40206
C         14.61695       -5.91366       -8.34792
C         13.36155       -5.16557       -8.85822
H         14.59394       -5.93470       -7.23289
H         14.66931       -2.95216       -9.90298
C         14.64215       -2.97377       -8.78801
C         13.35699       -3.70881       -8.33636
H         13.38630       -5.14611       -9.97326
C         12.10465       -2.96035       -8.85267
C         10.81752       -3.69240       -8.40030
C         10.82243       -5.15553       -8.91632
H         10.84978       -5.13974      -10.03137
H         12.05337       -5.91836       -7.28709
H         13.32950       -3.72831       -7.22143
H         12.13325       -2.94237       -9.96758
H         10.79037       -3.70828       -7.28527
C         12.10258       -1.50324       -8.33141
C         14.63882       -1.51800       -8.26261
C         13.38993       -0.76856       -8.77996
C         10.85582       -0.75279       -8.85268
H         12.07082       -1.52143       -7.21657
H         14.60913       -1.53947       -7.14774
H         10.88983       -0.73612       -9.96778
H         13.42126       -0.74899       -9.89502
C          9.56030       -1.48007       -8.40664
C          9.56149       -2.94277       -8.91660
C          9.53488       -5.89180       -8.46225
C          8.33234       -0.70881       -8.92851
C          8.29235       -3.68910       -8.46405
C          8.29742       -5.13243       -8.97672
H          8.31884       -0.70771      -10.04067
H          9.51863       -1.49236       -7.29313
H          9.58155       -2.93035      -10.03072
H          8.21653       -3.69054       -7.35447
H          8.27635       -5.13056      -10.08867
H          9.50011       -5.90389       -7.34855
C          8.34004        0.73634       -8.41795
C          9.62186        1.45663       -8.84949
C         10.85998        0.70817       -8.33391
C         12.14397        1.43285       -8.77300
C         13.38744        0.68989       -8.25780
C         14.67114        1.41867       -8.69500
H          8.25858        0.74386       -7.30975
H         10.82590        0.70390       -7.22096
H         13.35401        0.68302       -7.14493
H          9.64545        1.52738       -9.95940
H         12.17816        1.50164       -9.88382
H         14.70435        1.49134       -9.80554
C         14.62197        5.88827       -8.87249
C         13.34296        5.15230       -8.41285
C         12.08612        5.89990       -8.92259
H         14.64255        5.90914       -9.98762
C         13.34977        3.69334       -8.93365
H         13.32188        5.13366       -7.29761
C         12.07553        2.96397       -8.47805
C         10.82207        3.70148       -8.97970
C         10.80781        5.16287       -8.46235
H         13.36874        3.69926      -10.04690
H         12.10812        5.91762      -10.03770
H         10.78720        5.14679       -7.34691
H         10.84252        3.70508      -10.09302
H         12.05542        2.89626       -7.36684
C         14.60421        2.95203       -8.43655
H         14.58653        2.88120       -7.32559
C          9.54340        5.90330       -8.97161
C          9.55239        2.96642       -8.52545
C          8.28324        5.14522       -8.51078
C          8.30103        3.69968       -9.01999
H          9.55662        5.91530      -10.08586
H          8.21491        5.14508       -7.40067
H          8.27428        3.69212      -10.13087
H          9.52056        2.89641       -7.41569
C        -10.71856       -5.90074        8.59794
C         -8.18005       -5.91366        8.65208
C         -9.43545       -5.16557        8.14178
H         -8.20306       -5.93470        9.76711
H         -8.12769       -2.95216        7.09702
C         -8.15485       -2.97377        8.21199
C         -9.44001       -3.70881        8.66364
H         -9.41070       -5.14611        7.02674
C        -10.69235       -2.96035        8.14733
C        -11.97948       -3.69240        8.59970
C        -11.97457       -5.15553        8.08368
H        -11.94722       -5.13974        6.96863
H        -10.74363       -5.91836        9.71291
H         -9.46750       -3.72831        9.77857
H        -10.66375       -2.94237        7.03242
H        -12.00663       -3.70828        9.71473
C        -10.69442       -1.50324        8.66859
C         -8.15818       -1.51800        8.73739
C         -9.40707       -0.76856        8.22004
C        -11.94118       -0.75279        8.14732
H        -10.72618       -1.52143        9.78343
H         -8.18787       -1.53947        9.85226
H        -11.90717       -0.73612        7.03222
H         -9.37574       -0.74899        7.10498
C        -13.23670       -1.48007        8.59336
C        -13.23551       -2.94277        8.08340
C        -13.26212       -5.89180        8.53775
C        -14.46466       -0.70881        8.07149
C        -14.50465       -3.68910        8.53595
C        -14.49958       -5.13243        8.02328
H        -14.47816       -0.70771        6.95933
H        -13.27837       -1.49236        9.70687
H        -13.21545       -2.93035        6.96928
H        -14.58047       -3.69054        9.64553
H        -14.52065       -5.13056        6.91133
H        -13.29689       -5.90389        9.65145
C        -14.45696        0.73634        8.58205
C        -13.17514        1.45663        8.15051
C        -11.93702        0.70817        8.66609
C        -10.65303        1.43285        8.22700
C         -9.40956        0.68989        8.74220
C         -8.12586        1.41867        8.30500
H        -14.53842        0.74386        9.69025
H        -11.97110        0.70390        9.77904
H         -9.44299        0.68302        9.85507
H        -13.15155        1.52738        7.04060
H        -10.61884        1.50164        7.11618
H         -8.09265        1.49134        7.19446
C         -8.17503        5.88827        8.12751
C         -9.45404        5.15230        8.58715
C        -10.71088        5.89990        8.07741
H         -8.15445        5.90914        7.01238
C         -9.44723        3.69334        8.06635
H         -9.47512        5.13366        9.70239
C        -10.72147        2.96397        8.52195
C        -11.97493        3.70148        8.02030
C        -11.98919        5.16287        8.53765
H         -9.42826        3.69926        6.95310
H        -10.68888        5.91762        6.96230
H        -12.00980        5.14679        9.65309
H        -11.95448        3.70508        6.90698
H        -10.74158        2.89626        9.63316
C         -8.19279        2.95203        8.56345
H         -8.21047        2.88120        9.67441
C        -13.25360        5.90330        8.02839
C        -13.24461        2.96642        8.47455
C        -14.51376        5.14522        8.48922
C        -14.49597        3.69968        7.98001
H        -13.24038        5.91530        6.91414
H        -14.58209        5.14508        9.59933
H        -14.52272        3.69212        6.86913
H        -13.27644        2.89641        9.58431
C         -3.11956       -5.90074        8.59794
C         -0.58105       -5.91366        8.65208
C         -1.83645       -5.16557        8.14178
H         -0.60406       -5.93470        9.76711
H         -0.52869       -2.95216        7.09702
C         -0.55585       -2.97377        8.21199
C         -1.84101       -3.70881        8.66364
H         -1.81170       -5.14611        7.02674
C         -3.09335       -2.96035        8.14733
C         -4.38048       -3.69240        8.59970
C         -4.37557       -5.15553        8.08368
H         -4.34822       -5.13974        6.96863
H         -3.14463       -5.91836        9.71291
H         -1.86850       -3.72831        9.77857
H         -3.06475       -2.94237        7.03242
H         -4.40763       -3.70828        9.71473
C         -3.09542       -1.50324        8.66859
C         -0.55918       -1.51800        8.73739
C         -1.80807       -0.76856        8.22004
C         -4.34218       -0.75279        8.14732
H         -3.12718       -1.52143        9.78343
H         -0.58887       -1.53947        9.85226
H         -1.77674       -0.74899        7.10498
C         -5.63770       -1.48007        8.59336
C         -5.63651       -2.94277        8.08340
C         -5.66312       -5.89180        8.53775
C         -6.86566       -0.70881        8.07149
C         -6.90565       -3.68910        8.53595
C         -6.90058       -5.13243        8.02328
H         -6.87916       -0.70771        6.95933
H         -5.67937       -1.49236        9.70687
H         -5.61645       -2.93035        6.96928
H         -6.98147       -3.69054        9.64553
H         -6.92165       -5.13056        6.91133
H         -5.69789       -5.90389        9.65145
C         -6.85796        0.73634        8.58205
C         -5.57614        1.45663        8.15051
C         -4.33802        0.70817        8.66609
C         -3.05403        1.43285        8.22700
C         -1.81056        0.68989        8.74220
C         -0.52686        1.41867        8.30500
H         -6.93942        0.74386        9.69025
H         -4.37210        0.70390        9.77904
H         -1.84399        0.68302        9.85507
H         -5.55255        1.52738        7.04060
H         -3.01984        1.50164        7.11618
H         -0.49365        1.49134        7.19446
C         -0.57603        5.88827        8.12751
C         -1.85504        5.15230        8.58715
C         -3.11188        5.89990        8.07741
H         -0.55545        5.90914        7.01238
C         -1.84823        3.69334        8.06635
H         -1.87612        5.13366        9.70239
C         -3.12247        2.96397        8.52195
C         -4.37593        3.70148        8.02030
C         -4.39019        5.16287        8.53765
H         -1.82926        3.69926        6.95310
H         -3.08988        5.91762        6.96230
H         -4.41080        5.14679        9.65309
H         -4.35548        3.70508        6.90698
H         -3.14258        2.89626        9.63316
C         -0.59379        2.95203        8.56345
H         -0.61147        2.88120        9.67441
C         -5.65460        5.90330        8.02839
C         -5.64561        2.96642        8.47455
C         -6.91476        5.14522        8.48922
C         -6.89697        3.69968        7.98001
H         -5.64138        5.91530        6.91414
H         -6.98309        5.14508        9.59933
H         -6.92372        3.69212        6.86913
H         -5.67744        2.89641        9.58431
C          4.47944       -5.90074        8.59794
C          7.01795       -5.91366        8.65208
C          5.76255       -5.16557        8.14178
H          6.99494       -5.93470        9.76711
H          7.07031       -2.95216        7.09702
C          7.04315       -2.97377        8.21199
C          5.75799       -3.70881        8.66364
H          5.78730       -5.14611        7.02674
C          4.50565       -2.96035        8.14733
C          3.21852       -3.69240        8.59970
C          3.22343       -5.15553        8.08368
H          3.25078       -5.13974        6.96863
H          4.45437       -5.91836        9.71291
H          5.73050       -3.72831        9.77857
H          4.53425       -2.94237        7.03242
H          3.19137       -3.70828        9.71473
C          4.50358       -1.50324        8.66859
C          7.03982       -1.51800        8.73739
C          5.79093       -0.76856        8.22004
C          3.25682       -0.75279        8.14732
H          4.47182       -1.52143        9.78343
H          7.01013       -1.53947        9.85226
H          3.29083       -0.73612        7.03222
C          1.96130       -1.48007        8.59336
C          1.96249       -2.94277        8.08340
C          1.93588       -5.89180        8.53775
C          0.73334       -0.70881        8.07149
C          0.69335       -3.68910        8.53595
C          0.69842       -5.13243        8.02328
H          0.71984       -0.70771        6.95933
H          1.91963       -1.49236        9.70687
H          1.98255       -2.93035        6.96928
H          0.61753       -3.69054        9.64553
H          0.67735       -5.13056        6.91133
H          1.90111       -5.90389        9.65145
C          0.74104        0.73634        8.58205
C          2.02286        1.45663        8.15051
C          3.26098        0.70817        8.66609
C          4.54497        1.43285        8.22700
C          5.78844        0.68989        8.74220
C          7.07214        1.41867        8.30500
H          0.65958        0.74386        9.69025
H          3.22690        0.70390        9.77904
H          5.75501        0.68302        9.85507
H          2.04645        1.52738        7.04060
H          4.57916        1.50164        7.11618
H          7.10535        1.49134        7.19446
C          7.02297        5.88827        8.12751
C          5.74396        5.15230        8.58715
C          4.48712        5.89990        8.07741
H          7.04355        5.90914        7.01238
C          5.75077        3.69334        8.06635
H          5.72288        5.13366        9.70239
C          4.47653        2.96397        8.52195
C          3.22307        3.70148        8.02030
C          3.20881        5.16287        8.53765
H          5.76974        3.69926        6.95310
H          4.50912        5.91762        6.96230
H          3.18820        5.14679        9.65309
H          3.24352        3.70508        6.90698
H          4.45642        2.89626        9.63316
C          7.00521        2.95203        8.56345
H          6.98753        2.88120        9.67441
C          1.94440        5.90330        8.02839
C          1.95339        2.96642        8.47455
C          0.68424        5.14522        8.48922
C          0.70203        3.69968        7.98001
H          1.95762        5.91530        6.91414
H          0.61591        5.14508        9.59933
H          0.67528        3.69212        6.86913
H          1.92156        2.89641        9.58431
C         12.07844       -5.90074        8.59794
C         14.61695       -5.91366        8.65208
C         13.36155       -5.16557        8.14178
H         14.59394       -5.93470        9.76711
H         14.66931       -2.95216        7.09702
C         14.64215       -2.97377        8.21199
C         13.35699       -3.70881        8.66364
H         13.38630       -5.14611        7.02674
C         12.10465       -2.96035        8.14733
C         10.81752       -3.69240        8.59970
C         10.82243       -5.15553        8.08368
H         10.84978       -5.13974        6.96863
H         12.05337       -5.91836        9.71291
H         13.32950       -3.72831        9.77857
H         12.13325       -2.94237        7.03242
H         10.79037       -3.70828        9.71473
C         12.10258       -1.50324        8.66859
C         14.63882       -1.51800        8.73739
C         13.38993       -0.76856        8.22004
C         10.85582       -0.75279        8.14732
H         12.07082       -1.52143        9.78343
H         14.60913       -1.53947        9.85226
H         10.88983       -0.73612        7.03222
H         13.42126       -0.74899        7.10498
C          9.56030       -1.48007        8.59336
C          9.56149       -2.94277        8.08340
C          9.53488       -5.89180        8.53775
C          8.33234       -0.70881        8.07149
C          8.29235       -3.68910        8.53595
C          8.29742       -5.13243        8.02328
H          8.31884       -0.70771        6.95933
H          9.51863       -1.49236        9.70687
H          9.58155       -2.93035        6.96928
H          8.21653       -3.69054        9.64553
H          8.27635       -5.13056        6.91133
H          9.50011       -5.90389        9.65145
C          8.34004        0.73634        8.58205
C          9.62186        1.45663        8.15051
C         10.85998        0.70817        8.66609
C         12.14397        1.43285        8.22700
C         13.38744        0.68989        8.74220
C         14.67114        1.41867        8.30500
H          8.25858        0.74386        9.69025
H         10.82590        0.70390        9.77904
H         13.35401        0.68302        9.85507
H          9.64545        1.52738        7.04060
H         12.17816        1.50164        7.11618
H         14.70435        1.49134        7.19446
C         14.62197        5.88827        8.12751
C         13.34296        5.15230        8.58715
C         12.08612        5.89990        8.07741
H         14.64255        5.90914        7.01238
C         13.34977        3.69334        8.06635
H         13.32188        5.13366        9.70239
C         12.07553        2.96397        8.52195
C         10.82207        3.70148        8.02030
C         10.80781        5.16287        8.53765
H         13.36874        3.69926        6.95310
H         12.10812        5.91762        6.96230
H         10.78720        5.14679        9.65309
H         10.84252        3.70508        6.90698
H         12.05542        2.89626        9.63316
C         14.60421        2.95203        8.56345
H         14.58653        2.88120        9.67441
C          9.54340        5.90330        8.02839
C          9.55239        2.96642        8.47455
C          8.28324        5.14522        8.48922
C          8.30103        3.69968        7.98001
H          9.55662        5.91530        6.91414
H          8.21491        5.14508        9.59933
H          8.27428        3.69212        6.86913
H          9.52056        2.89641        9.58431
N         -5.54953       -1.55286        4.39873
C         -5.60514       -1.37308        5.88324
H         -6.45590       -0.72136        6.11274
H         -5.76656       -2.39976        6.23123
C         -4.34218       -0.75279        6.52732
H         -3.45872       -1.39757        6.34204
H         -4.15219        0.25776        6.11131
C         -6.82971       -2.16468        3.96537
H         -6.98627       -3.15447        4.45079
H         -7.69469       -1.51459        4.22798
H         -6.85028       -2.32353        2.86339
C         -4.44489       -2.45910        4.00282
H         -4.51750       -3.43357        4.53534
H         -4.46934       -2.66316        2.90859
H         -3.45092       -2.01325        4.21690
C         -5.39714       -0.25333        3.70137
H         -5.44995       -0.38495        2.59705
H         -6.19988        0.45705        4.00053
H         -4.41399        0.21550        3.91567
N          2.25691       -3.07604        0.31461
H          4.38381       -2.41335        6.25067
H          3.69160       -0.72739        6.14822
C          2.20224       -2.89927        1.77393
H          1.38395       -2.21615        2.02880
H          2.03068       -3.86982        2.25334
C          3.52812       -2.31378        2.26708
H          4.34643       -2.99688        2.01222
H          3.69969       -1.34321        1.78773
C          5.79093       -0.76856        6.60004
H          6.67881       -1.41492        6.43285
H          5.98811        0.24885        6.20005
C          4.55358       -1.37387        5.94755
C          4.73418       -1.50955        4.43000
H          5.61764       -2.15433        4.24472
H          4.92417       -0.49900        4.01399
C          3.47122       -2.12984        3.78592
H          3.29668       -3.11764        4.27238
H          2.60426       -1.47965        4.04761
C          2.48724       -1.77341       -0.32877
H          3.43640       -1.35430        0.02433
H          1.66893       -1.09031       -0.07392
H          2.52801       -1.90511       -1.41607
C          0.98298       -3.63856       -0.15921
H          1.02373       -3.77028       -1.24651
H          0.16472       -2.95539        0.09563
H          0.81139       -4.60908        0.32022
C          3.35520       -3.99291       -0.02741
H          4.30434       -3.57376        0.32567
H          3.39594       -4.12461       -1.11470
H          3.18356       -4.96343        0.45200
O         -5.87537        0.16414       -0.89483
H         -5.88535        1.08943       -0.64683
H         -5.86392        0.16430       -1.85276
O         -6.28611        1.49632       -4.06552
H         -5.52155        1.87555       -3.63032
H         -6.11714        1.60434       -5.00230
O        -13.55528        0.20621       -3.40368
H        -13.56526        1.13150       -3.15568
H        -13.54383        0.20637       -4.36161
O        -13.48896       -2.27730        0.15721
H        -12.73686       -1.68953        0.07587
H        -13.21165       -3.09398       -0.25980
O        -12.86260        0.60845        1.96601
H        -12.87258        1.53374        2.21401
H        -12.85115        0.60861        1.00808
O        -11.36758       -0.49669       -3.14529
H        -11.37756        0.42860       -2.89729
H        -11.35613       -0.49653       -4.10322
O        -10.93485        0.70889       -0.72182
H         -9.98326        0.68581       -0.83002
H        -11.22250       -0.19381       -0.86374
O        -10.63577        1.18382        1.92806
H        -11.03960        1.41671        1.09114
H        -10.53220        0.23194        1.89702
O        -13.05383        1.42590        4.16836
H        -12.09797        1.36198        4.17183
H        -13.36162        0.53121        4.01817
O        -10.10523        1.03252        4.17970
H        -10.37167        1.82562        3.71304
H        -10.90006        0.50104        4.23926
O         -8.91149        1.95561       -4.66238
H         -8.41069        1.47691       -5.32406
H         -9.64679        1.38146       -4.44455
O         -8.35701        1.95035       -2.18845
H         -7.50729        2.04980       -1.75734
H         -8.27752        1.15197       -2.71193
O         -8.91907        1.93898        3.57086
H         -8.92906        2.86427        3.81886
H         -8.90762        1.93914        2.61293
O         -3.84869        0.85956       -1.02967
H         -3.16421        1.45498       -1.33743
H         -4.00858        0.26504       -1.76366
O         -2.74933        0.96638        1.13685
H         -2.17998        1.69436        0.88454
H         -2.96821        0.52628        0.31456
O         -1.45782        1.05928        3.65035
H         -1.20899        1.98425        3.63380
H         -1.77537        0.87208        2.76611
O          0.84250        0.93378        3.30109
H          0.83252        1.85907        3.54909
H          0.85395        0.93394        2.34316
O         -0.26121        0.75641        1.38495
H         -0.27119        1.68170        1.63295
H         -0.24976        0.75657        0.42702
O         -1.27808        0.55396       -0.76681
H         -1.28806        1.47925       -0.51881
H         -1.26663        0.55412       -1.72474
O         -1.62551        0.60981       -3.32075
H         -1.34955        1.34748       -3.86614
H         -1.41176       -0.17095       -3.83308
O          0.17612        0.70012       -4.70063
H          1.00556        0.61773       -5.17286
H         -0.37685       -0.00160       -5.04644
O          2.56011        0.68572       -4.34095
H          3.47287        0.88753       -4.55052
H          2.43990       -0.22609       -4.60910
O          5.68502        0.54017       -4.18546
H          6.45239        0.72075       -4.72979
H          5.14554       -0.05528       -4.70716
O          5.72343        0.34505       -1.81835
H          5.71345        1.27034       -1.57035
H          5.73488        0.34521       -2.77628
O          6.03386        0.87442        0.45385
H          6.82403        1.20103        0.02173
H          5.49648        0.51313       -0.25216
O          7.31496        1.05833        2.50012
H          8.21892        1.36835        2.56727
H          7.22561        0.74805        1.59817
O         10.23386        1.05355        3.57050
H          9.39610        1.50871        3.66403
H         10.29297        0.83161        2.64044
O          9.04591        0.84891        0.06731
H          9.88856        1.10615        0.44352
H          9.26324        0.44026       -0.77146
O          8.39985        0.47366       -1.98840
H          7.62188        1.03261       -1.97877
H          8.54993        0.27352       -2.91317
O          8.88426        0.36253       -4.21817
H          9.73917        0.79253       -4.26278
H          8.78999       -0.08953       -5.05753
O         11.45303        0.02150       -4.18934
H         11.44305        0.94679       -3.94134
H         11.46448        0.02166       -5.14727
O         10.89605        0.66367       -1.71656
H         11.77748        0.86866       -1.40218
H         11.02820        0.23465       -2.56287
O         11.85220        1.05192        0.98366
H         12.76121        0.75715        1.05129
H         11.54453        0.71564        0.14103
O         12.17139        1.06682        4.00212
H         11.76294        1.34979        3.18306
H         13.10397        0.98493        3.79877
O         13.50503        0.05032       -3.78175
H         13.02492        0.69900       -3.26555
H         13.37645        0.31457       -4.69356
O         13.56569        0.27841       -0.84005
H         14.18175        0.94183       -0.52683
H         13.02794        0.72803       -1.49306
O          1.15744        4.07992       -3.48921
H          1.14746        5.00521       -3.24121
H          1.16889        4.08008       -4.44714
O          1.38091        5.29620       -1.40376
H          1.07073        5.27310       -0.49766
H          1.11756        4.45436       -1.77753
O          1.18943        3.89926        1.19062
H          0.60863        4.64221        1.35929
H          1.38137        3.94245        0.25304
O          0.69953        5.18381        3.33416
H          1.23979        4.40632        3.48040
H          0.83567        5.41074        2.41343
O          1.41567       -4.83800       -4.11270
H          1.40569       -3.91271       -3.86470
H          1.42712       -4.83784       -5.07063
O          0.91796       -5.52406        4.01501
H          0.90798       -4.59877        4.26301
H          0.92941       -5.52391        3.05708
O          8.78806        3.39811       -2.43029
H          8.77808        4.32340       -2.18229
H          8.79951        3.39827       -3.38822
O        -10.64075       -4.62259       -3.39497
H        -10.65073       -3.69730       -3.14697
H        -10.62930       -4.62243       -4.35290
O          4.65362        4.49055        0.09918
H          3.96573        3.82445        0.12890
H          4.62993        4.83170       -0.79570
O          3.33444        2.72170        3.27625
H          2.64632        2.07205        3.42527
H          3.49048        2.70527        2.33119
O         -3.11391       -4.73272       -3.97341
H         -3.12389       -3.80743       -3.72541
H         -3.10246       -4.73256       -4.93134
O         -1.94995       -2.82140       -2.78797
H         -1.94492       -2.09295       -3.41014
H         -1.55718       -3.55527       -3.26224
O         -5.88361       -4.77544        2.97529
H         -5.89359       -3.85015        3.22329
H         -5.87216       -4.77528        2.01736
O         -8.09770        4.41094        3.45210
H         -8.58934        3.60955        3.26817
H         -7.69200        4.26222        4.30712
O        -10.65838        4.29474        0.92995
H        -10.51824        3.96815        0.04031
H        -10.42380        3.56330        1.50242
O         -3.05772        2.77495       -3.65373
H         -3.06770        3.70024       -3.40573
H         -3.04627        2.77511       -4.61166
O         -5.31516        4.41540        1.73792
H         -5.32514        5.34069        1.98592
H         -5.30371        4.41556        0.77999
O         -2.57304        4.67340        0.76027
H         -2.58302        5.59869        1.00827
H         -2.56159        4.67356       -0.19766
O          6.86074        3.42970        2.41601
H          6.85076        4.35499        2.66401
H          6.87219        3.42986        1.45808
O          1.78382       -0.15037        0.90821
H          1.77384        0.77492        1.15621
H          1.79527       -0.15021       -0.04972
O          1.07982        0.19894       -1.61011
H          1.06983        1.12423       -1.36211
H          1.09127        0.19909       -2.56804
O         12.04375        3.84140       -2.28993
H         12.03134        4.76700       -2.04319
H         12.06471        3.84038       -3.24770
O          8.84458        4.28777        3.60833
H          8.92383        5.21096        3.85167
H          8.75571        4.28953        2.65446
O          5.63713       -4.42274        3.47038
H          5.62715       -3.49745        3.71838
H          5.64858       -4.42258        2.51245
O          7.37598       -3.20641        1.60078
H          7.36600       -2.28112        1.84878
H          7.38743       -3.20625        0.64285
O          9.47121       -1.57853        3.34016
H          9.99894       -2.37257        3.43370
H          9.52283       -1.14463        4.19270
O         12.56928       -2.24233        0.42323
H         12.48054       -3.13462        0.08600
H         12.99073       -2.34104        1.27787
O         13.06845       -4.60597       -1.47224
H         13.05847       -3.68068       -1.22424
H         13.07990       -4.60582       -2.43017
O         -8.96164       -4.49151        4.24383
H         -9.25544       -3.58100        4.29294
H         -8.92049       -4.68860        3.30722
O         -7.73188       -5.00028        1.08636
H         -7.64564       -4.09243        1.37986
H         -7.69295       -4.95649        0.13016
O        -12.88263       -5.80405        1.73447
H        -12.89261       -4.87876        1.98247
H        -12.87118       -5.80389        0.77654
O          9.37942       -5.08668       -1.71158
H          9.36943       -4.16139       -1.46358
H          9.39087       -5.08653       -2.66951
O        -12.96331       -4.46388       -2.30496
H        -12.97329       -3.53859       -2.05696
H        -12.95186       -4.46373       -3.26289
O        -13.09881        3.93460        2.52981
H        -13.10879        4.85989        2.77781
H        -13.08736        3.93475        1.57188
O         -8.05194        2.67214        0.13702
H         -8.04049        2.67230       -0.82092
H         -8.06192        3.59743        0.38502
O         -5.24830        4.54478       -2.18399
H         -5.25828        5.47007       -1.93600
H         -5.23685        4.54494       -3.14193
O         -9.47306       -0.28643       -2.09130
H         -9.48305        0.63886       -1.84330
O         11.07100       -4.72972        2.43040
H         11.06102       -3.80443        2.67840
