898

C -10.78492 -5.89278 -8.25935
C -8.24641 -5.9057 -8.20521
C -9.50181 -5.15761 -8.71551
H -8.26942 -5.92674 -7.09018
H -8.19405 -2.9442 -9.76027
C -8.22121 -2.96581 -8.6453
C -9.50637 -3.70085 -8.19365
H -9.47706 -5.13815 -9.83055
C -10.75871 -2.95239 -8.70996
C -12.04584 -3.68444 -8.25759
C -12.04093 -5.14757 -8.77361
H -12.01358 -5.13178 -9.88866
H -10.80999 -5.9104 -7.14438
H -9.53386 -3.72035 -7.07872
H -10.73011 -2.93441 -9.82487
H -12.07299 -3.70032 -7.14256
C -10.76078 -1.49528 -8.1887
C -8.22454 -1.51004 -8.1199
C -9.47343 -0.7606 -8.63725
C -12.00754 -0.74483 -8.70997
H -10.79254 -1.51347 -7.07386
H -8.25423 -1.53151 -7.00503
H -11.97353 -0.72816 -9.82507
H -9.4421 -0.74103 -9.75231
C -13.30306 -1.47211 -8.26393
C -13.30187 -2.93481 -8.77389
C -13.32848 -5.88384 -8.31954
C -14.53102 -0.70085 -8.7858
C -14.57101 -3.68114 -8.32134
C -14.56594 -5.12447 -8.83401
H -14.54452 -0.69975 -9.89796
H -13.34473 -1.4844 -7.15042
H -13.28181 -2.92239 -9.88801
H -14.64683 -3.68258 -7.21176
H -14.58701 -5.1226 -9.94596
H -13.36325 -5.89593 -7.20584
C -14.52332 0.7443 -8.27524
C -13.2415 1.46459 -8.70678
C -12.00338 0.71613 -8.1912
C -10.71939 1.44081 -8.63029
C -9.47592 0.69785 -8.11509
C -8.19222 1.42663 -8.55229
H -14.60478 0.75182 -7.16704
H -12.03746 0.71186 -7.07825
H -9.50935 0.69098 -7.00222
H -13.21791 1.53534 -9.81669
H -10.6852 1.5096 -9.74111
H -8.15901 1.4993 -9.66283
C -8.24139 5.89623 -8.72978
C -9.5204 5.16026 -8.27014
C -10.77724 5.90786 -8.77988
H -8.22081 5.9171 -9.84491
C -9.51359 3.7013 -8.79094
H -9.54148 5.14162 -7.1549
C -10.78783 2.97193 -8.33534
C -12.04129 3.70944 -8.83699
C -12.05555 5.17083 -8.31964
H -9.49462 3.70722 -9.90419
H -10.75524 5.92558 -9.89499
H -12.07616 5.15475 -7.2042
H -12.02084 3.71304 -9.95031
H -10.80794 2.90422 -7.22413
C -8.25915 2.95999 -8.29384
H -8.27683 2.88916 -7.18288
C -13.31996 5.91126 -8.8289
C -13.31097 2.97438 -8.38274
C -14.58012 5.15318 -8.36807
C -14.56233 3.70764 -8.87728
H -13.30674 5.92326 -9.94315
H -14.64845 5.15304 -7.25796
H -14.58908 3.70008 -9.98816
H -13.3428 2.90437 -7.27298
C -3.18592 -5.89278 -8.25935
C -0.64741 -5.9057 -8.20521
C -1.90281 -5.15761 -8.71551
H -0.67042 -5.92674 -7.09018
H -0.59505 -2.9442 -9.76027
C -0.62221 -2.96581 -8.6453
C -1.90737 -3.70085 -8.19365
H -1.87806 -5.13815 -9.83055
C -3.15971 -2.95239 -8.70996
C -4.44684 -3.68444 -8.25759
C -4.44193 -5.14757 -8.77361
H -4.41458 -5.13178 -9.88866
H -3.21099 -5.9104 -7.14438
H -1.93486 -3.72035 -7.07872
H -3.13111 -2.93441 -9.82487
H -4.47399 -3.70032 -7.14256
C -3.16178 -1.49528 -8.1887
C -0.62554 -1.51004 -8.1199
C -1.87443 -0.7606 -8.63725
C -4.40854 -0.74483 -8.70997
H -3.19354 -1.51347 -7.07386
H -0.65523 -1.53151 -7.00503
H -4.37453 -0.72816 -9.82507
H -1.8431 -0.74103 -9.75231
C -5.70406 -1.47211 -8.26393
C -5.70287 -2.93481 -8.77389
C -5.72948 -5.88384 -8.31954
C -6.93202 -0.70085 -8.7858
C -6.97201 -3.68114 -8.32134
C -6.96694 -5.12447 -8.83401
H -6.94552 -0.69975 -9.89796
H -5.74573 -1.4844 -7.15042
H -5.68281 -2.92239 -9.88801
H -7.04783 -3.68258 -7.21176
H -6.98801 -5.1226 -9.94596
H -5.76425 -5.89593 -7.20584
C -6.92432 0.7443 -8.27524
C -5.6425 1.46459 -8.70678
C -4.40438 0.71613 -8.1912
C -3.12039 1.44081 -8.63029
C -1.87692 0.69785 -8.11509
C -0.59322 1.42663 -8.55229
H -7.00578 0.75182 -7.16704
H -4.43846 0.71186 -7.07825
H -1.91035 0.69098 -7.00222
H -5.61891 1.53534 -9.81669
H -3.0862 1.5096 -9.74111
H -0.56001 1.4993 -9.66283
C -0.64239 5.89623 -8.72978
C -1.9214 5.16026 -8.27014
C -3.17824 5.90786 -8.77988
H -0.62181 5.9171 -9.84491
C -1.91459 3.7013 -8.79094
H -1.94248 5.14162 -7.1549
C -3.18883 2.97193 -8.33534
C -4.44229 3.70944 -8.83699
C -4.45655 5.17083 -8.31964
H -1.89562 3.70722 -9.90419
H -3.15624 5.92558 -9.89499
H -4.47716 5.15475 -7.2042
H -4.42184 3.71304 -9.95031
H -3.20894 2.90422 -7.22413
C -0.66015 2.95999 -8.29384
H -0.67783 2.88916 -7.18288
C -5.72096 5.91126 -8.8289
C -5.71197 2.97438 -8.38274
C -6.98112 5.15318 -8.36807
C -6.96333 3.70764 -8.87728
H -5.70774 5.92326 -9.94315
H -7.04945 5.15304 -7.25796
H -6.99008 3.70008 -9.98816
H -5.7438 2.90437 -7.27298
C 4.41308 -5.89278 -8.25935
C 6.95159 -5.9057 -8.20521
C 5.69619 -5.15761 -8.71551
H 6.92858 -5.92674 -7.09018
H 7.00395 -2.9442 -9.76027
C 6.97679 -2.96581 -8.6453
C 5.69163 -3.70085 -8.19365
H 5.72094 -5.13815 -9.83055
C 4.43929 -2.95239 -8.70996
C 3.15216 -3.68444 -8.25759
C 3.15707 -5.14757 -8.77361
H 3.18442 -5.13178 -9.88866
H 4.38801 -5.9104 -7.14438
H 5.66414 -3.72035 -7.07872
H 4.46789 -2.93441 -9.82487
H 3.12501 -3.70032 -7.14256
C 4.43722 -1.49528 -8.1887
C 6.97346 -1.51004 -8.1199
C 5.72457 -0.7606 -8.63725
C 3.19046 -0.74483 -8.70997
H 4.40546 -1.51347 -7.07386
H 6.94377 -1.53151 -7.00503
H 3.22447 -0.72816 -9.82507
H 5.7559 -0.74103 -9.75231
C 1.89494 -1.47211 -8.26393
C 1.89613 -2.93481 -8.77389
C 1.86952 -5.88384 -8.31954
C 0.66698 -0.70085 -8.7858
C 0.62699 -3.68114 -8.32134
C 0.63206 -5.12447 -8.83401
H 0.65348 -0.69975 -9.89796
H 1.85327 -1.4844 -7.15042
H 1.91619 -2.92239 -9.88801
H 0.55117 -3.68258 -7.21176
H 0.61099 -5.1226 -9.94596
H 1.83475 -5.89593 -7.20584
C 0.67468 0.7443 -8.27524
C 1.9565 1.46459 -8.70678
C 3.19462 0.71613 -8.1912
C 4.47861 1.44081 -8.63029
C 5.72208 0.69785 -8.11509
C 7.00578 1.42663 -8.55229
H 0.59322 0.75182 -7.16704
H 3.16054 0.71186 -7.07825
H 5.68865 0.69098 -7.00222
H 1.98009 1.53534 -9.81669
H 4.5128 1.5096 -9.74111
H 7.03899 1.4993 -9.66283
C 6.95661 5.89623 -8.72978
C 5.6776 5.16026 -8.27014
C 4.42076 5.90786 -8.77988
H 6.97719 5.9171 -9.84491
C 5.68441 3.7013 -8.79094
H 5.65652 5.14162 -7.1549
C 4.41017 2.97193 -8.33534
C 3.15671 3.70944 -8.83699
C 3.14245 5.17083 -8.31964
H 5.70338 3.70722 -9.90419
H 4.44276 5.92558 -9.89499
H 3.12184 5.15475 -7.2042
H 3.17716 3.71304 -9.95031
H 4.39006 2.90422 -7.22413
C 6.93885 2.95999 -8.29384
H 6.92117 2.88916 -7.18288
C 1.87804 5.91126 -8.8289
C 1.88703 2.97438 -8.38274
C 0.61788 5.15318 -8.36807
C 0.63567 3.70764 -8.87728
H 1.89126 5.92326 -9.94315
H 0.54955 5.15304 -7.25796
H 0.60892 3.70008 -9.98816
H 1.8552 2.90437 -7.27298
C 12.01208 -5.89278 -8.25935
C 14.55059 -5.9057 -8.20521
C 13.29519 -5.15761 -8.71551
H 14.52758 -5.92674 -7.09018
H 14.60295 -2.9442 -9.76027
C 14.57579 -2.96581 -8.6453
C 13.29063 -3.70085 -8.19365
H 13.31994 -5.13815 -9.83055
C 12.03829 -2.95239 -8.70996
C 10.75116 -3.68444 -8.25759
C 10.75607 -5.14757 -8.77361
H 10.78342 -5.13178 -9.88866
H 11.98701 -5.9104 -7.14438
H 13.26314 -3.72035 -7.07872
H 12.06689 -2.93441 -9.82487
H 10.72401 -3.70032 -7.14256
C 12.03622 -1.49528 -8.1887
C 14.57246 -1.51004 -8.1199
C 13.32357 -0.7606 -8.63725
C 10.78946 -0.74483 -8.70997
H 12.00446 -1.51347 -7.07386
H 14.54277 -1.53151 -7.00503
H 10.82347 -0.72816 -9.82507
H 13.3549 -0.74103 -9.75231
C 9.49394 -1.47211 -8.26393
C 9.49513 -2.93481 -8.77389
C 9.46852 -5.88384 -8.31954
C 8.26598 -0.70085 -8.7858
C 8.22599 -3.68114 -8.32134
C 8.23106 -5.12447 -8.83401
H 8.25248 -0.69975 -9.89796
H 9.45227 -1.4844 -7.15042
H 9.51519 -2.92239 -9.88801
H 8.15017 -3.68258 -7.21176
H 8.20999 -5.1226 -9.94596
H 9.43375 -5.89593 -7.20584
C 8.27368 0.7443 -8.27524
C 9.5555 1.46459 -8.70678
C 10.79362 0.71613 -8.1912
C 12.07761 1.44081 -8.63029
C 13.32108 0.69785 -8.11509
C 14.60478 1.42663 -8.55229
H 8.19222 0.75182 -7.16704
H 10.75954 0.71186 -7.07825
H 13.28765 0.69098 -7.00222
H 9.57909 1.53534 -9.81669
H 12.1118 1.5096 -9.74111
H 14.63799 1.4993 -9.66283
C 14.55561 5.89623 -8.72978
C 13.2766 5.16026 -8.27014
C 12.01976 5.90786 -8.77988
H 14.57619 5.9171 -9.84491
C 13.28341 3.7013 -8.79094
H 13.25552 5.14162 -7.1549
C 12.00917 2.97193 -8.33534
C 10.75571 3.70944 -8.83699
C 10.74145 5.17083 -8.31964
H 13.30238 3.70722 -9.90419
H 12.04176 5.92558 -9.89499
H 10.72084 5.15475 -7.2042
H 10.77616 3.71304 -9.95031
H 11.98906 2.90422 -7.22413
C 14.53785 2.95999 -8.29384
H 14.52017 2.88916 -7.18288
C 9.47704 5.91126 -8.8289
C 9.48603 2.97438 -8.38274
C 8.21688 5.15318 -8.36807
C 8.23467 3.70764 -8.87728
H 9.49026 5.92326 -9.94315
H 8.14855 5.15304 -7.25796
H 8.20792 3.70008 -9.98816
H 9.4542 2.90437 -7.27298
C -10.78492 -5.89278 8.74065
C -8.24641 -5.9057 8.79479
C -9.50181 -5.15761 8.28449
H -8.26942 -5.92674 9.90982
H -8.19405 -2.9442 7.23973
C -8.22121 -2.96581 8.3547
C -9.50637 -3.70085 8.80635
H -9.47706 -5.13815 7.16945
C -10.75871 -2.95239 8.29004
C -12.04584 -3.68444 8.74241
C -12.04093 -5.14757 8.22639
H -12.01358 -5.13178 7.11134
H -10.80999 -5.9104 9.85562
H -9.53386 -3.72035 9.92128
H -10.73011 -2.93441 7.17513
H -12.07299 -3.70032 9.85744
C -10.76078 -1.49528 8.8113
C -8.22454 -1.51004 8.8801
C -9.47343 -0.7606 8.36275
C -12.00754 -0.74483 8.29003
H -10.79254 -1.51347 9.92614
H -8.25423 -1.53151 9.99497
H -11.97353 -0.72816 7.17493
H -9.4421 -0.74103 7.24769
C -13.30306 -1.47211 8.73607
C -13.30187 -2.93481 8.22611
C -13.32848 -5.88384 8.68046
C -14.53102 -0.70085 8.2142
C -14.57101 -3.68114 8.67866
C -14.56594 -5.12447 8.16599
H -14.54452 -0.69975 7.10204
H -13.34473 -1.4844 9.84958
H -13.28181 -2.92239 7.11199
H -14.64683 -3.68258 9.78824
H -14.58701 -5.1226 7.05404
H -13.36325 -5.89593 9.79416
C -14.52332 0.7443 8.72476
C -13.2415 1.46459 8.29322
C -12.00338 0.71613 8.8088
C -10.71939 1.44081 8.36971
C -9.47592 0.69785 8.88491
C -8.19222 1.42663 8.44771
H -14.60478 0.75182 9.83296
H -12.03746 0.71186 9.92175
H -9.50935 0.69098 9.99778
H -13.21791 1.53534 7.18331
H -10.6852 1.5096 7.25889
H -8.15901 1.4993 7.33717
C -8.24139 5.89623 8.27022
C -9.5204 5.16026 8.72986
C -10.77724 5.90786 8.22012
H -8.22081 5.9171 7.15509
C -9.51359 3.7013 8.20906
H -9.54148 5.14162 9.8451
C -10.78783 2.97193 8.66466
C -12.04129 3.70944 8.16301
C -12.05555 5.17083 8.68036
H -9.49462 3.70722 7.09581
H -10.75524 5.92558 7.10501
H -12.07616 5.15475 9.7958
H -12.02084 3.71304 7.04969
H -10.80794 2.90422 9.77587
C -8.25915 2.95999 8.70616
H -8.27683 2.88916 9.81712
C -13.31996 5.91126 8.1711
C -13.31097 2.97438 8.61726
C -14.58012 5.15318 8.63193
C -14.56233 3.70764 8.12272
H -13.30674 5.92326 7.05685
H -14.64845 5.15304 9.74204
H -14.58908 3.70008 7.01184
H -13.3428 2.90437 9.72702
C -3.18592 -5.89278 8.74065
C -0.64741 -5.9057 8.79479
C -1.90281 -5.15761 8.28449
H -0.67042 -5.92674 9.90982
H -0.59505 -2.9442 7.23973
C -0.62221 -2.96581 8.3547
C -1.90737 -3.70085 8.80635
H -1.87806 -5.13815 7.16945
C -3.15971 -2.95239 8.29004
C -4.44684 -3.68444 8.74241
C -4.44193 -5.14757 8.22639
H -4.41458 -5.13178 7.11134
H -3.21099 -5.9104 9.85562
H -1.93486 -3.72035 9.92128
H -3.13111 -2.93441 7.17513
H -4.47399 -3.70032 9.85744
C -3.16178 -1.49528 8.8113
C -0.62554 -1.51004 8.8801
C -1.87443 -0.7606 8.36275
C -4.40854 -0.74483 8.29003
H -3.19354 -1.51347 9.92614
H -0.65523 -1.53151 9.99497
H -4.37453 -0.72816 7.17493
H -1.8431 -0.74103 7.24769
C -5.70406 -1.47211 8.73607
C -5.70287 -2.93481 8.22611
C -5.72948 -5.88384 8.68046
C -6.93202 -0.70085 8.2142
C -6.97201 -3.68114 8.67866
C -6.96694 -5.12447 8.16599
H -5.74573 -1.4844 9.84958
H -5.68281 -2.92239 7.11199
H -7.04783 -3.68258 9.78824
H -6.98801 -5.1226 7.05404
H -5.76425 -5.89593 9.79416
C -6.92432 0.7443 8.72476
C -5.6425 1.46459 8.29322
C -4.40438 0.71613 8.8088
C -3.12039 1.44081 8.36971
C -1.87692 0.69785 8.88491
C -0.59322 1.42663 8.44771
H -7.00578 0.75182 9.83296
H -4.43846 0.71186 9.92175
H -1.91035 0.69098 9.99778
H -5.61891 1.53534 7.18331
H -3.0862 1.5096 7.25889
H -0.56001 1.4993 7.33717
C -0.64239 5.89623 8.27022
C -1.9214 5.16026 8.72986
C -3.17824 5.90786 8.22012
H -0.62181 5.9171 7.15509
C -1.91459 3.7013 8.20906
H -1.94248 5.14162 9.8451
C -3.18883 2.97193 8.66466
C -4.44229 3.70944 8.16301
C -4.45655 5.17083 8.68036
H -1.89562 3.70722 7.09581
H -3.15624 5.92558 7.10501
H -4.47716 5.15475 9.7958
H -4.42184 3.71304 7.04969
H -3.20894 2.90422 9.77587
C -0.66015 2.95999 8.70616
H -0.67783 2.88916 9.81712
C -5.72096 5.91126 8.1711
C -5.71197 2.97438 8.61726
C -6.98112 5.15318 8.63193
C -6.96333 3.70764 8.12272
H -5.70774 5.92326 7.05685
H -7.04945 5.15304 9.74204
H -6.99008 3.70008 7.01184
H -5.7438 2.90437 9.72702
C 4.41308 -5.89278 8.74065
C 6.95159 -5.9057 8.79479
C 5.69619 -5.15761 8.28449
H 6.92858 -5.92674 9.90982
H 7.00395 -2.9442 7.23973
C 6.97679 -2.96581 8.3547
C 5.69163 -3.70085 8.80635
H 5.72094 -5.13815 7.16945
C 4.43929 -2.95239 8.29004
C 3.15216 -3.68444 8.74241
C 3.15707 -5.14757 8.22639
H 3.18442 -5.13178 7.11134
H 4.38801 -5.9104 9.85562
H 5.66414 -3.72035 9.92128
H 4.46789 -2.93441 7.17513
H 3.12501 -3.70032 9.85744
C 4.43722 -1.49528 8.8113
C 6.97346 -1.51004 8.8801
C 5.72457 -0.7606 8.36275
C 3.19046 -0.74483 8.29003
H 4.40546 -1.51347 9.92614
H 6.94377 -1.53151 9.99497
H 3.22447 -0.72816 7.17493
H 5.7559 -0.74103 7.24769
C 1.89494 -1.47211 8.73607
C 1.89613 -2.93481 8.22611
C 1.86952 -5.88384 8.68046
C 0.66698 -0.70085 8.2142
C 0.62699 -3.68114 8.67866
C 0.63206 -5.12447 8.16599
H 0.65348 -0.69975 7.10204
H 1.85327 -1.4844 9.84958
H 1.91619 -2.92239 7.11199
H 0.55117 -3.68258 9.78824
H 0.61099 -5.1226 7.05404
H 1.83475 -5.89593 9.79416
C 0.67468 0.7443 8.72476
C 1.9565 1.46459 8.29322
C 3.19462 0.71613 8.8088
C 4.47861 1.44081 8.36971
C 5.72208 0.69785 8.88491
C 7.00578 1.42663 8.44771
H 0.59322 0.75182 9.83296
H 3.16054 0.71186 9.92175
H 5.68865 0.69098 9.99778
H 1.98009 1.53534 7.18331
H 4.5128 1.5096 7.25889
H 7.03899 1.4993 7.33717
C 6.95661 5.89623 8.27022
C 5.6776 5.16026 8.72986
C 4.42076 5.90786 8.22012
H 6.97719 5.9171 7.15509
C 5.68441 3.7013 8.20906
H 5.65652 5.14162 9.8451
C 4.41017 2.97193 8.66466
C 3.15671 3.70944 8.16301
C 3.14245 5.17083 8.68036
H 5.70338 3.70722 7.09581
H 4.44276 5.92558 7.10501
H 3.12184 5.15475 9.7958
H 3.17716 3.71304 7.04969
H 4.39006 2.90422 9.77587
C 6.93885 2.95999 8.70616
H 6.92117 2.88916 9.81712
C 1.87804 5.91126 8.1711
C 1.88703 2.97438 8.61726
C 0.61788 5.15318 8.63193
C 0.63567 3.70764 8.12272
H 1.89126 5.92326 7.05685
H 0.54955 5.15304 9.74204
H 0.60892 3.70008 7.01184
H 1.8552 2.90437 9.72702
C 12.01208 -5.89278 8.74065
C 14.55059 -5.9057 8.79479
C 13.29519 -5.15761 8.28449
H 14.52758 -5.92674 9.90982
H 14.60295 -2.9442 7.23973
C 14.57579 -2.96581 8.3547
C 13.29063 -3.70085 8.80635
H 13.31994 -5.13815 7.16945
C 12.03829 -2.95239 8.29004
C 10.75116 -3.68444 8.74241
C 10.75607 -5.14757 8.22639
H 10.78342 -5.13178 7.11134
H 11.98701 -5.9104 9.85562
H 13.26314 -3.72035 9.92128
H 12.06689 -2.93441 7.17513
H 10.72401 -3.70032 9.85744
C 12.03622 -1.49528 8.8113
C 14.57246 -1.51004 8.8801
C 13.32357 -0.7606 8.36275
C 10.78946 -0.74483 8.29003
H 12.00446 -1.51347 9.92614
H 14.54277 -1.53151 9.99497
H 10.82347 -0.72816 7.17493
H 13.3549 -0.74103 7.24769
C 9.49394 -1.47211 8.73607
C 9.49513 -2.93481 8.22611
C 9.46852 -5.88384 8.68046
C 8.26598 -0.70085 8.2142
C 8.22599 -3.68114 8.67866
C 8.23106 -5.12447 8.16599
H 9.45227 -1.4844 9.84958
H 9.51519 -2.92239 7.11199
H 8.15017 -3.68258 9.78824
H 8.20999 -5.1226 7.05404
H 9.43375 -5.89593 9.79416
C 8.27368 0.7443 8.72476
C 9.5555 1.46459 8.29322
C 10.79362 0.71613 8.8088
C 12.07761 1.44081 8.36971
C 13.32108 0.69785 8.88491
C 14.60478 1.42663 8.44771
H 8.19222 0.75182 9.83296
H 10.75954 0.71186 9.92175
H 13.28765 0.69098 9.99778
H 9.57909 1.53534 7.18331
H 12.1118 1.5096 7.25889
H 14.63799 1.4993 7.33717
C 14.55561 5.89623 8.27022
C 13.2766 5.16026 8.72986
C 12.01976 5.90786 8.22012
H 14.57619 5.9171 7.15509
C 13.28341 3.7013 8.20906
H 13.25552 5.14162 9.8451
C 12.00917 2.97193 8.66466
C 10.75571 3.70944 8.16301
C 10.74145 5.17083 8.68036
H 13.30238 3.70722 7.09581
H 12.04176 5.92558 7.10501
H 10.72084 5.15475 9.7958
H 10.77616 3.71304 7.04969
H 11.98906 2.90422 9.77587
C 14.53785 2.95999 8.70616
H 14.52017 2.88916 9.81712
C 9.47704 5.91126 8.1711
C 9.48603 2.97438 8.61726
C 8.21688 5.15318 8.63193
C 8.23467 3.70764 8.12272
H 9.49026 5.92326 7.05685
H 8.14855 5.15304 9.74204
H 8.20792 3.70008 7.01184
H 9.4542 2.90437 9.72702
N -8.13937 -1.50092 4.46561
C -8.19498 -1.32114 5.95012
H -8.36952 -2.30894 6.43658
H -9.06194 -0.67095 6.21181
C -6.93202 -0.70085 6.59420
H -6.04856 -1.34563 6.40892
H -6.74203 0.30970 6.17819
C -9.41955 -2.11274 4.03225
H -9.57611 -3.10253 4.51767
H -10.28453 -1.46265 4.29486
H -9.44012 -2.27159 2.93027
C -7.03473 -2.40716 4.06970
H -7.10734 -3.38163 4.60222
H -7.05918 -2.61122 2.97547
H -6.04076 -1.96131 4.28378
C -7.98698 -0.20139 3.76825
H -8.03979 -0.33301 2.66393
H -8.78972 0.50899 4.06741
H -7.00383 0.26744 3.98255
C 6.05997 -2.01121 2.22634
C 6.00436 -1.83143 3.71085
H 5.82982 -2.81923 4.19731
H 5.13740 -1.18124 3.97254
C 7.26732 -1.21114 4.35493
H 8.15078 -1.85592 4.16965
H 7.45731 -0.20059 3.93892
C 7.08672 -1.07546 5.87248
H 6.91500 -2.12956 6.17990
H 6.19920 -0.41004 5.94098
C 8.32407 -0.47015 6.52497
H 9.21195 -1.11651 6.35778
H 8.52125 0.54726 6.12498
H 6.81396 -2.62977 1.95611
H 6.16398 -1.12421 1.75035
C 4.73886 -2.64259 1.77913
H 3.90778 -1.98159 2.05040
H 4.61124 -3.61203 2.27421
N 4.75635 -2.83521 0.32090
C 3.48701 -3.44181 -0.10879
H 3.50005 -3.58535 -1.19528
H 2.65594 -2.78078 0.16245
H 3.35934 -4.41124 0.38631
C 5.87181 -3.72238 -0.04314
H 6.81754 -3.27041 0.27708
H 5.88486 -3.86587 -1.12962
H 5.74409 -4.69182 0.45192
C 4.92772 -1.53405 -0.34352
H 5.87347 -1.08211 -0.02332
H 4.09662 -0.87307 -0.07224
H 4.94075 -1.67756 -1.43000
O         -5.81945        0.22798       -0.96536
H         -5.82943        1.15327       -0.71736
H         -5.80800        0.22814       -1.92329
O         -6.23019        1.56016       -4.13605
H         -5.46563        1.93939       -3.70085
H         -6.06122        1.66818       -5.07283
O        -13.49936        0.27005       -3.47421
H        -13.50934        1.19534       -3.22621
H        -13.48791        0.27021       -4.43214
O        -13.43304       -2.21346        0.08668
H        -12.68094       -1.62569        0.00534
H        -13.15573       -3.03014       -0.33033
O        -12.80668        0.67229        1.89548
H        -12.81666        1.59758        2.14348
H        -12.79523        0.67245        0.93755
O        -11.31166       -0.43285       -3.21582
H        -11.32164        0.49244       -2.96782
H        -11.30021       -0.43269       -4.17375
O        -10.87893        0.77273       -0.79235
H         -9.92734        0.74965       -0.90055
H        -11.16658       -0.12997       -0.93427
O        -10.57985        1.24766        1.85753
H        -10.98368        1.48055        1.02061
H        -10.47628        0.29578        1.82649
O        -12.99791        1.48974        4.09783
H        -12.04205        1.42582        4.10130
H        -13.30570        0.59505        3.94764
O        -10.04931        1.09636        4.10917
H        -10.31575        1.88946        3.64251
H        -10.84414        0.56488        4.16873
O         -8.85557        2.01945       -4.73291
H         -8.35477        1.54075       -5.39459
H         -9.59087        1.44530       -4.51508
O         -8.30109        2.01419       -2.25898
H         -7.45137        2.11364       -1.82787
H         -8.22160        1.21581       -2.78246
O         -8.86315        2.00282        3.50033
H         -8.87314        2.92811        3.74833
H         -8.85170        2.00298        2.54240
O         -3.79277        0.92340       -1.10020
H         -3.10829        1.51882       -1.40796
H         -3.95266        0.32888       -1.83419
O         -2.69341        1.03022        1.06632
H         -2.12406        1.75820        0.81401
H         -2.91229        0.59012        0.24403
O         -1.40190        1.12312        3.57982
H         -1.15307        2.04809        3.56327
H         -1.71945        0.93592        2.69558
O          0.89842        0.99762        3.23056
H          0.88844        1.92291        3.47856
H          0.90987        0.99778        2.27263
O         -0.20529        0.82025        1.31442
H         -0.21527        1.74554        1.56242
H         -0.19384        0.82041        0.35649
O         -1.22216        0.61780       -0.83734
H         -1.23214        1.54309       -0.58934
H         -1.21071        0.61796       -1.79527
O         -1.56959        0.67365       -3.39128
H         -1.29363        1.41132       -3.93667
H         -1.35584       -0.10711       -3.90361
O          0.23204        0.76396       -4.77116
H          1.06148        0.68157       -5.24339
H         -0.32093        0.06224       -5.11697
O          2.61603        0.74956       -4.41148
H          3.52879        0.95137       -4.62105
H          2.49582       -0.16225       -4.67963
O          5.74094        0.60401       -4.25599
H          6.50831        0.78459       -4.80032
H          5.20146        0.00856       -4.77769
O          5.77935        0.40889       -1.88888
H          5.76937        1.33418       -1.64088
H          5.79080        0.40905       -2.84681
O          6.08978        0.93826        0.38332
H          6.87995        1.26487       -0.04880
H          5.55240        0.57697       -0.32269
O          7.37088        1.12217        2.42959
H          8.27484        1.43219        2.49674
H          7.28153        0.81189        1.52764
O         10.28978        1.11739        3.49997
H          9.45202        1.57255        3.59350
H         10.34889        0.89545        2.56991
O          9.10183        0.91275       -0.00322
H          9.94448        1.16999        0.37299
H          9.31916        0.50410       -0.84199
O          8.45577        0.53750       -2.05893
H          7.67780        1.09645       -2.04930
H          8.60585        0.33736       -2.98370
O          8.94018        0.42637       -4.28870
H          9.79509        0.85637       -4.33331
H          8.84591       -0.02569       -5.12806
O         11.50895        0.08534       -4.25987
H         11.49897        1.01063       -4.01187
H         11.52040        0.08550       -5.21780
O         10.95197        0.72751       -1.78709
H         11.83340        0.93250       -1.47271
H         11.08412        0.29849       -2.63340
O         11.90812        1.11576        0.91313
H         12.81713        0.82099        0.98076
H         11.60045        0.77948        0.07050
O         12.22731        1.13066        3.93159
H         11.81886        1.41363        3.11253
H         13.15989        1.04877        3.72824
O         13.56095        0.11416       -3.85228
H         13.08084        0.76284       -3.33608
H         13.43237        0.37841       -4.76409
O         13.62161        0.34225       -0.91058
H         14.23767        1.00567       -0.59736
H         13.08386        0.79187       -1.56359
O          1.21336        4.14376       -3.55974
H          1.20338        5.06905       -3.31174
H          1.22481        4.14392       -4.51767
O          1.43683        5.36004       -1.47429
H          1.12665        5.33694       -0.56819
H          1.17348        4.51820       -1.84806
O          1.24535        3.96310        1.12009
H          0.66455        4.70605        1.28876
H          1.43729        4.00629        0.18251
O          0.75545        5.24765        3.26363
H          1.29571        4.47016        3.40987
H          0.89159        5.47458        2.34290
O          1.47159       -4.77416       -4.18323
H          1.46161       -3.84887       -3.93523
H          1.48304       -4.77400       -5.14116
O          0.97388       -5.46022        3.94448
H          0.96390       -4.53493        4.19248
H          0.98533       -5.46007        2.98655
O          8.84398        3.46195       -2.50082
H          8.83400        4.38724       -2.25282
H          8.85543        3.46211       -3.45875
O        -10.58483       -4.55875       -3.46550
H        -10.59481       -3.63346       -3.21750
H        -10.57338       -4.55859       -4.42343
O          4.70954        4.55439        0.02865
H          4.02165        3.88829        0.05837
H          4.68585        4.89554       -0.86623
O          3.39036        2.78554        3.20572
H          2.70224        2.13589        3.35474
H          3.54640        2.76911        2.26066
O         -3.05799       -4.66888       -4.04394
H         -3.06797       -3.74359       -3.79594
H         -3.04654       -4.66872       -5.00187
O         -1.89403       -2.75756       -2.85850
H         -1.88900       -2.02911       -3.48067
H         -1.50126       -3.49143       -3.33277
O         -5.82769       -4.71160        2.90476
H         -5.83767       -3.78631        3.15276
H         -5.81624       -4.71144        1.94683
O         -8.04178        4.47478        3.38157
H         -8.53342        3.67339        3.19764
H         -7.63608        4.32606        4.23659
O        -10.60246        4.35858        0.85942
H        -10.46232        4.03199       -0.03022
H        -10.36788        3.62714        1.43189
O         -3.00180        2.83879       -3.72426
H         -3.01178        3.76408       -3.47626
H         -2.99035        2.83895       -4.68219
O         -5.25924        4.47924        1.66739
H         -5.26922        5.40453        1.91539
H         -5.24779        4.47940        0.70946
O         -2.51712        4.73724        0.68974
H         -2.52710        5.66253        0.93774
H         -2.50567        4.73740       -0.26819
O          6.91666        3.49354        2.34548
H          6.90668        4.41883        2.59348
H          6.92811        3.49370        1.38755
O          1.83974       -0.08653        0.83768
H          1.82976        0.83876        1.08568
H          1.85119       -0.08637       -0.12025
O          1.13574        0.26278       -1.68064
H          1.12575        1.18807       -1.43264
H          1.14719        0.26293       -2.63857
O         12.09967        3.90524       -2.36046
H         12.08726        4.83084       -2.11372
H         12.12063        3.90422       -3.31823
O          8.90050        4.35161        3.53780
H          8.97975        5.27480        3.78114
H          8.81163        4.35337        2.58393
O          5.69305       -4.35890        3.39985
H          5.68307       -3.43361        3.64785
H          5.70450       -4.35874        2.44192
O          7.43190       -3.14257        1.53025
H          7.42192       -2.21728        1.77825
H          7.44335       -3.14241        0.57232
O          9.52713       -1.51469        3.26963
H         10.05486       -2.30873        3.36317
H          9.57875       -1.08079        4.12217
O         12.62520       -2.17849        0.35270
H         12.53646       -3.07078        0.01547
H         13.04665       -2.27720        1.20734
O         13.12437       -4.54213       -1.54277
H         13.11439       -3.61684       -1.29477
H         13.13582       -4.54198       -2.50070
O         -8.90572       -4.42767        4.17330
H         -9.19952       -3.51716        4.22241
H         -8.86457       -4.62476        3.23669
O         -7.67596       -4.93644        1.01583
H         -7.58972       -4.02859        1.30933
H         -7.63703       -4.89265        0.05963
O        -12.82671       -5.74021        1.66394
H        -12.83669       -4.81492        1.91194
H        -12.81526       -5.74005        0.70601
O          9.43534       -5.02284       -1.78211
H          9.42535       -4.09755       -1.53411
H          9.44679       -5.02269       -2.74004
O        -12.90739       -4.40004       -2.37549
H        -12.91737       -3.47475       -2.12749
H        -12.89594       -4.39989       -3.33342
O        -13.04289        3.99844        2.45928
H        -13.05287        4.92373        2.70728
H        -13.03144        3.99859        1.50135
O         -7.99602        2.73598        0.06649
H         -7.98457        2.73614       -0.89145
H         -8.00600        3.66127        0.31449
O         -5.19238        4.60862       -2.25452
H         -5.20236        5.53391       -2.00653
H         -5.18093        4.60878       -3.21246
O         -4.41028       -1.46363        0.62084
H         -5.35594       -1.31111        0.60598
H         -4.11910       -1.30316       -0.27762
O         -2.13919       -0.76467        2.61543
H         -2.77131       -0.16520        3.01396
H         -2.01644       -0.43828        1.72315
O         -0.36285       -0.65689        4.80823
H         -1.14743       -0.11868        4.92017
H         -0.03073       -0.43308        3.93796
O          2.24211        0.03981        4.66181
H          1.52138       -0.28665        5.20194
H          1.99573        0.93759        4.43590
O          3.25467        0.59530       -1.42904
H          3.24469        1.52059       -1.18104
H          3.26612        0.59546       -2.38697
O          6.45431        0.53735        4.31978
H          7.18174       -0.00571        4.62587
H          6.86407        1.23289        3.80395
O        -12.00011       -2.24543       -5.19654
H        -12.92010       -2.04779       -5.37630
H        -11.61873       -1.41376       -4.91260
O         -5.58955       -3.57586       -3.26591
H         -4.86788       -3.06087       -3.62885
H         -5.30831       -4.48809       -3.34659
O         -1.59119        3.01623       -1.73579
H         -2.51517        3.17778       -1.54103
H         -1.17068        3.87467       -1.67248
O         -2.34791       -3.89217        0.40901
H         -1.65203       -3.94097       -0.24761
H         -3.07878       -4.38412        0.03275
O         -7.53214       -2.22349        1.35014
H         -8.22905       -1.57792        1.22638
H         -6.79702       -1.89768        0.82937
O         -8.82098       -3.37003        0.16373
H         -9.18694       -2.75610        0.80163
H         -9.04682       -3.00269       -0.69174
O         -9.94042       -5.19435       -0.41401
H         -9.95040       -4.26906       -0.16601
H         -9.92897       -5.19419       -1.37194
O         -6.59919       -4.67916        4.85881
H         -7.40607       -4.37052        4.44474
H         -6.06505       -3.89284        4.97772
O         -1.38777        3.68358       -3.31733
H         -0.48292        3.99121       -3.38334
H         -1.34471        2.74483       -3.50349
O         12.95193       -0.89297        2.40634
H         12.73339       -1.74612        2.78335
H         12.12232       -0.54974        2.07211
O         12.40922       -0.80336        5.12039
H         11.70604       -0.15305        5.10035
H         12.04016       -1.58065        4.69923
O          9.57177        2.63779        5.03602
H         10.39292        2.66251        4.54321
H          9.37446        3.55385        5.23520
O         -9.41714       -0.22259       -2.16183
H         -9.42713        0.70270       -1.91383
O         11.12692       -4.66588        2.35987
H         11.11694       -3.74059        2.60787
