943

C        -10.84565       -5.89787      -10.88961
C         -8.30714       -5.91079      -10.83547
C         -9.56254       -5.16270      -11.34577
H         -8.33015       -5.93183       -9.72044
H         -8.25478       -2.94929      -12.39053
C         -8.28194       -2.97090      -11.27556
C         -9.56710       -3.70594      -10.82391
H         -9.53779       -5.14324      -12.46081
C        -10.81944       -2.95748      -11.34022
C        -12.10657       -3.68953      -10.88785
C        -12.10166       -5.15266      -11.40387
H        -12.07431       -5.13687      -12.51892
H        -10.87072       -5.91549       -9.77464
H         -9.59459       -3.72544       -9.70898
H        -10.79084       -2.93950      -12.45513
H        -12.13372       -3.70541       -9.77282
C        -10.82151       -1.50037      -10.81896
C         -8.28527       -1.51513      -10.75016
C         -9.53416       -0.76569      -11.26751
C        -12.06827       -0.74992      -11.34023
H        -10.85327       -1.51856       -9.70412
H         -8.31496       -1.53660       -9.63529
H        -12.03426       -0.73325      -12.45533
H         -9.50283       -0.74612      -12.38257
C        -13.36379       -1.47720      -10.89419
C        -13.36260       -2.93990      -11.40415
C        -13.38921       -5.88893      -10.94980
C        -14.59175       -0.70594      -11.41606
C        -14.63174       -3.68623      -10.95160
C        -14.62667       -5.12956      -11.46427
H        -14.60525       -0.70484      -12.52822
H        -13.40546       -1.48949       -9.78068
H        -13.34254       -2.92748      -12.51827
H        -14.70756       -3.68767       -9.84202
H        -14.64774       -5.12769      -12.57622
H        -13.42398       -5.90102       -9.83610
C        -14.58405        0.73921      -10.90550
C        -13.30223        1.45950      -11.33704
C        -12.06411        0.71104      -10.82146
C        -10.78012        1.43572      -11.26055
C         -9.53665        0.69276      -10.74535
C         -8.25295        1.42154      -11.18255
H        -14.66551        0.74673       -9.79730
H        -12.09819        0.70677       -9.70851
H         -9.57008        0.68589       -9.63248
H        -13.27864        1.53025      -12.44695
H        -10.74593        1.50451      -12.37137
H         -8.21974        1.49421      -12.29309
C         -8.30212        5.89114      -11.36004
C         -9.58113        5.15517      -10.90040
C        -10.83797        5.90277      -11.41014
H         -8.28154        5.91201      -12.47517
C         -9.57432        3.69621      -11.42120
H         -9.60221        5.13653       -9.78516
C        -10.84856        2.96684      -10.96560
C        -12.10202        3.70435      -11.46725
C        -12.11628        5.16574      -10.94990
H         -9.55535        3.70213      -12.53445
H        -10.81597        5.92049      -12.52525
H        -12.13689        5.14966       -9.83446
H        -12.08157        3.70795      -12.58057
H        -10.86867        2.89913       -9.85439
C         -8.31988        2.95490      -10.92410
H         -8.33756        2.88407       -9.81314
C        -13.38069        5.90617      -11.45916
C        -13.37170        2.96929      -11.01300
C        -14.64085        5.14809      -10.99833
C        -14.62306        3.70255      -11.50754
H        -13.36747        5.91817      -12.57341
H        -14.70918        5.14795       -9.88822
H        -14.64981        3.69499      -12.61842
H        -13.40353        2.89928       -9.90324
C         -3.24665       -5.89787      -10.88961
C         -0.70814       -5.91079      -10.83547
C         -1.96354       -5.16270      -11.34577
H         -0.73115       -5.93183       -9.72044
H         -0.65578       -2.94929      -12.39053
C         -0.68294       -2.97090      -11.27556
C         -1.96810       -3.70594      -10.82391
H         -1.93879       -5.14324      -12.46081
C         -3.22044       -2.95748      -11.34022
C         -4.50757       -3.68953      -10.88785
C         -4.50266       -5.15266      -11.40387
H         -4.47531       -5.13687      -12.51892
H         -3.27172       -5.91549       -9.77464
H         -1.99559       -3.72544       -9.70898
H         -3.19184       -2.93950      -12.45513
H         -4.53472       -3.70541       -9.77282
C         -3.22251       -1.50037      -10.81896
C         -0.68627       -1.51513      -10.75016
C         -1.93516       -0.76569      -11.26751
C         -4.46927       -0.74992      -11.34023
H         -3.25427       -1.51856       -9.70412
H         -0.71596       -1.53660       -9.63529
H         -4.43526       -0.73325      -12.45533
H         -1.90383       -0.74612      -12.38257
C         -5.76479       -1.47720      -10.89419
C         -5.76360       -2.93990      -11.40415
C         -5.79021       -5.88893      -10.94980
C         -6.99275       -0.70594      -11.41606
C         -7.03274       -3.68623      -10.95160
C         -7.02767       -5.12956      -11.46427
H         -7.00625       -0.70484      -12.52822
H         -5.80646       -1.48949       -9.78068
H         -5.74354       -2.92748      -12.51827
H         -7.10856       -3.68767       -9.84202
H         -7.04874       -5.12769      -12.57622
H         -5.82498       -5.90102       -9.83610
C         -6.98505        0.73921      -10.90550
C         -5.70323        1.45950      -11.33704
C         -4.46511        0.71104      -10.82146
C         -3.18112        1.43572      -11.26055
C         -1.93765        0.69276      -10.74535
C         -0.65395        1.42154      -11.18255
H         -7.06651        0.74673       -9.79730
H         -4.49919        0.70677       -9.70851
H         -1.97108        0.68589       -9.63248
H         -5.67964        1.53025      -12.44695
H         -3.14693        1.50451      -12.37137
H         -0.62074        1.49421      -12.29309
C         -0.70312        5.89114      -11.36004
C         -1.98213        5.15517      -10.90040
C         -3.23897        5.90277      -11.41014
H         -0.68254        5.91201      -12.47517
C         -1.97532        3.69621      -11.42120
H         -2.00321        5.13653       -9.78516
C         -3.24956        2.96684      -10.96560
C         -4.50302        3.70435      -11.46725
C         -4.51728        5.16574      -10.94990
H         -1.95635        3.70213      -12.53445
H         -3.21697        5.92049      -12.52525
H         -4.53789        5.14966       -9.83446
H         -4.48257        3.70795      -12.58057
H         -3.26967        2.89913       -9.85439
C         -0.72088        2.95490      -10.92410
H         -0.73856        2.88407       -9.81314
C         -5.78169        5.90617      -11.45916
C         -5.77270        2.96929      -11.01300
C         -7.04185        5.14809      -10.99833
C         -7.02406        3.70255      -11.50754
H         -5.76847        5.91817      -12.57341
H         -7.11018        5.14795       -9.88822
H         -7.05081        3.69499      -12.61842
H         -5.80453        2.89928       -9.90324
C          4.35235       -5.89787      -10.88961
C          6.89086       -5.91079      -10.83547
C          5.63546       -5.16270      -11.34577
H          6.86785       -5.93183       -9.72044
H          6.94322       -2.94929      -12.39053
C          6.91606       -2.97090      -11.27556
C          5.63090       -3.70594      -10.82391
H          5.66021       -5.14324      -12.46081
C          4.37856       -2.95748      -11.34022
C          3.09143       -3.68953      -10.88785
C          3.09634       -5.15266      -11.40387
H          3.12369       -5.13687      -12.51892
H          4.32728       -5.91549       -9.77464
H          5.60341       -3.72544       -9.70898
H          4.40716       -2.93950      -12.45513
H          3.06428       -3.70541       -9.77282
C          4.37649       -1.50037      -10.81896
C          6.91273       -1.51513      -10.75016
C          5.66384       -0.76569      -11.26751
C          3.12973       -0.74992      -11.34023
H          4.34473       -1.51856       -9.70412
H          6.88304       -1.53660       -9.63529
H          3.16374       -0.73325      -12.45533
H          5.69517       -0.74612      -12.38257
C          1.83421       -1.47720      -10.89419
C          1.83540       -2.93990      -11.40415
C          1.80879       -5.88893      -10.94980
C          0.60625       -0.70594      -11.41606
C          0.56626       -3.68623      -10.95160
C          0.57133       -5.12956      -11.46427
H          0.59275       -0.70484      -12.52822
H          1.79254       -1.48949       -9.78068
H          1.85546       -2.92748      -12.51827
H          0.49044       -3.68767       -9.84202
H          0.55026       -5.12769      -12.57622
H          1.77402       -5.90102       -9.83610
C          0.61395        0.73921      -10.90550
C          1.89577        1.45950      -11.33704
C          3.13389        0.71104      -10.82146
C          4.41788        1.43572      -11.26055
C          5.66135        0.69276      -10.74535
C          6.94505        1.42154      -11.18255
H          0.53249        0.74673       -9.79730
H          3.09981        0.70677       -9.70851
H          5.62792        0.68589       -9.63248
H          1.91936        1.53025      -12.44695
H          4.45207        1.50451      -12.37137
H          6.97826        1.49421      -12.29309
C          6.89588        5.89114      -11.36004
C          5.61687        5.15517      -10.90040
C          4.36003        5.90277      -11.41014
H          6.91646        5.91201      -12.47517
C          5.62368        3.69621      -11.42120
H          5.59579        5.13653       -9.78516
C          4.34944        2.96684      -10.96560
C          3.09598        3.70435      -11.46725
C          3.08172        5.16574      -10.94990
H          5.64265        3.70213      -12.53445
H          4.38203        5.92049      -12.52525
H          3.06111        5.14966       -9.83446
H          3.11643        3.70795      -12.58057
H          4.32933        2.89913       -9.85439
C          6.87812        2.95490      -10.92410
H          6.86044        2.88407       -9.81314
C          1.81731        5.90617      -11.45916
C          1.82630        2.96929      -11.01300
C          0.55715        5.14809      -10.99833
C          0.57494        3.70255      -11.50754
H          1.83053        5.91817      -12.57341
H          0.48882        5.14795       -9.88822
H          0.54819        3.69499      -12.61842
H          1.79447        2.89928       -9.90324
C         11.95135       -5.89787      -10.88961
C         14.48986       -5.91079      -10.83547
C         13.23446       -5.16270      -11.34577
H         14.46685       -5.93183       -9.72044
H         14.54222       -2.94929      -12.39053
C         14.51506       -2.97090      -11.27556
C         13.22990       -3.70594      -10.82391
H         13.25921       -5.14324      -12.46081
C         11.97756       -2.95748      -11.34022
C         10.69043       -3.68953      -10.88785
C         10.69534       -5.15266      -11.40387
H         10.72269       -5.13687      -12.51892
H         11.92628       -5.91549       -9.77464
H         13.20241       -3.72544       -9.70898
H         12.00616       -2.93950      -12.45513
H         10.66328       -3.70541       -9.77282
C         11.97549       -1.50037      -10.81896
C         14.51173       -1.51513      -10.75016
C         13.26284       -0.76569      -11.26751
C         10.72873       -0.74992      -11.34023
H         11.94373       -1.51856       -9.70412
H         14.48204       -1.53660       -9.63529
H         10.76274       -0.73325      -12.45533
H         13.29417       -0.74612      -12.38257
C          9.43321       -1.47720      -10.89419
C          9.43440       -2.93990      -11.40415
C          9.40779       -5.88893      -10.94980
C          8.20525       -0.70594      -11.41606
C          8.16526       -3.68623      -10.95160
C          8.17033       -5.12956      -11.46427
H          8.19175       -0.70484      -12.52822
H          9.39154       -1.48949       -9.78068
H          9.45446       -2.92748      -12.51827
H          8.08944       -3.68767       -9.84202
H          8.14926       -5.12769      -12.57622
H          9.37302       -5.90102       -9.83610
C          8.21295        0.73921      -10.90550
C          9.49477        1.45950      -11.33704
C         10.73289        0.71104      -10.82146
C         12.01688        1.43572      -11.26055
C         13.26035        0.69276      -10.74535
C         14.54405        1.42154      -11.18255
H          8.13149        0.74673       -9.79730
H         10.69881        0.70677       -9.70851
H         13.22692        0.68589       -9.63248
H          9.51836        1.53025      -12.44695
H         12.05107        1.50451      -12.37137
H         14.57726        1.49421      -12.29309
C         14.49488        5.89114      -11.36004
C         13.21587        5.15517      -10.90040
C         11.95903        5.90277      -11.41014
H         14.51546        5.91201      -12.47517
C         13.22268        3.69621      -11.42120
H         13.19479        5.13653       -9.78516
C         11.94844        2.96684      -10.96560
C         10.69498        3.70435      -11.46725
C         10.68072        5.16574      -10.94990
H         13.24165        3.70213      -12.53445
H         11.98103        5.92049      -12.52525
H         10.66011        5.14966       -9.83446
H         10.71543        3.70795      -12.58057
H         11.92833        2.89913       -9.85439
C         14.47712        2.95490      -10.92410
H         14.45944        2.88407       -9.81314
C          9.41631        5.90617      -11.45916
C          9.42530        2.96929      -11.01300
C          8.15615        5.14809      -10.99833
C          8.17394        3.70255      -11.50754
H          9.42953        5.91817      -12.57341
H          8.08782        5.14795       -9.88822
H          8.14719        3.69499      -12.61842
H          9.39347        2.89928       -9.90324
C        -10.84565       -5.89787       11.11039
C         -8.30714       -5.91079       11.16453
C         -9.56254       -5.16270       10.65423
H         -8.33015       -5.93183       12.27956
H         -8.25478       -2.94929        9.60947
C         -8.28194       -2.97090       10.72444
C         -9.56710       -3.70594       11.17609
H         -9.53779       -5.14324        9.53919
C        -10.81944       -2.95748       10.65978
C        -12.10657       -3.68953       11.11215
C        -12.10166       -5.15266       10.59613
H        -12.07431       -5.13687        9.48108
H        -10.87072       -5.91549       12.22536
H         -9.59459       -3.72544       12.29102
H        -10.79084       -2.93950        9.54487
H        -12.13372       -3.70541       12.22718
C        -10.82151       -1.50037       11.18104
C         -8.28527       -1.51513       11.24984
C         -9.53416       -0.76569       10.73249
C        -12.06827       -0.74992       10.65977
H        -10.85327       -1.51856       12.29588
H         -8.31496       -1.53660       12.36471
H        -12.03426       -0.73325        9.54467
H         -9.50283       -0.74612        9.61743
C        -13.36379       -1.47720       11.10581
C        -13.36260       -2.93990       10.59585
C        -13.38921       -5.88893       11.05020
C        -14.59175       -0.70594       10.58394
C        -14.63174       -3.68623       11.04840
C        -14.62667       -5.12956       10.53573
H        -14.60525       -0.70484        9.47178
H        -13.40546       -1.48949       12.21932
H        -13.34254       -2.92748        9.48173
H        -14.70756       -3.68767       12.15798
H        -14.64774       -5.12769        9.42378
H        -13.42398       -5.90102       12.16390
C        -14.58405        0.73921       11.09450
C        -13.30223        1.45950       10.66296
C        -12.06411        0.71104       11.17854
C        -10.78012        1.43572       10.73945
C         -9.53665        0.69276       11.25465
C         -8.25295        1.42154       10.81745
H        -14.66551        0.74673       12.20270
H        -12.09819        0.70677       12.29149
H         -9.57008        0.68589       12.36752
H        -13.27864        1.53025        9.55305
H        -10.74593        1.50451        9.62863
H         -8.21974        1.49421        9.70691
C         -8.30212        5.89114       10.63996
C         -9.58113        5.15517       11.09960
C        -10.83797        5.90277       10.58986
H         -8.28154        5.91201        9.52483
C         -9.57432        3.69621       10.57880
H         -9.60221        5.13653       12.21484
C        -10.84856        2.96684       11.03440
C        -12.10202        3.70435       10.53275
C        -12.11628        5.16574       11.05010
H         -9.55535        3.70213        9.46555
H        -10.81597        5.92049        9.47475
H        -12.13689        5.14966       12.16554
H        -12.08157        3.70795        9.41943
H        -10.86867        2.89913       12.14561
C         -8.31988        2.95490       11.07590
H         -8.33756        2.88407       12.18686
C        -13.38069        5.90617       10.54084
C        -13.37170        2.96929       10.98700
C        -14.64085        5.14809       11.00167
C        -14.62306        3.70255       10.49246
H        -13.36747        5.91817        9.42659
H        -14.70918        5.14795       12.11178
H        -14.64981        3.69499        9.38158
H        -13.40353        2.89928       12.09676
C         -3.24665       -5.89787       11.11039
C         -0.70814       -5.91079       11.16453
C         -1.96354       -5.16270       10.65423
H         -0.73115       -5.93183       12.27956
H         -0.65578       -2.94929        9.60947
C         -0.68294       -2.97090       10.72444
C         -1.96810       -3.70594       11.17609
H         -1.93879       -5.14324        9.53919
C         -3.22044       -2.95748       10.65978
C         -4.50757       -3.68953       11.11215
C         -4.50266       -5.15266       10.59613
H         -4.47531       -5.13687        9.48108
H         -3.27172       -5.91549       12.22536
H         -1.99559       -3.72544       12.29102
H         -3.19184       -2.93950        9.54487
H         -4.53472       -3.70541       12.22718
C         -3.22251       -1.50037       11.18104
C         -0.68627       -1.51513       11.24984
C         -1.93516       -0.76569       10.73249
C         -4.46927       -0.74992       10.65977
H         -3.25427       -1.51856       12.29588
H         -0.71596       -1.53660       12.36471
H         -1.90383       -0.74612        9.61743
C         -5.76479       -1.47720       11.10581
C         -5.76360       -2.93990       10.59585
C         -5.79021       -5.88893       11.05020
C         -6.99275       -0.70594       10.58394
C         -7.03274       -3.68623       11.04840
C         -7.02767       -5.12956       10.53573
H         -7.00625       -0.70484        9.47178
H         -5.80646       -1.48949       12.21932
H         -5.74354       -2.92748        9.48173
H         -7.10856       -3.68767       12.15798
H         -7.04874       -5.12769        9.42378
H         -5.82498       -5.90102       12.16390
C         -6.98505        0.73921       11.09450
C         -5.70323        1.45950       10.66296
C         -4.46511        0.71104       11.17854
C         -3.18112        1.43572       10.73945
C         -1.93765        0.69276       11.25465
C         -0.65395        1.42154       10.81745
H         -7.06651        0.74673       12.20270
H         -4.49919        0.70677       12.29149
H         -1.97108        0.68589       12.36752
H         -5.67964        1.53025        9.55305
H         -3.14693        1.50451        9.62863
H         -0.62074        1.49421        9.70691
C         -0.70312        5.89114       10.63996
C         -1.98213        5.15517       11.09960
C         -3.23897        5.90277       10.58986
H         -0.68254        5.91201        9.52483
C         -1.97532        3.69621       10.57880
H         -2.00321        5.13653       12.21484
C         -3.24956        2.96684       11.03440
C         -4.50302        3.70435       10.53275
C         -4.51728        5.16574       11.05010
H         -1.95635        3.70213        9.46555
H         -3.21697        5.92049        9.47475
H         -4.53789        5.14966       12.16554
H         -4.48257        3.70795        9.41943
H         -3.26967        2.89913       12.14561
C         -0.72088        2.95490       11.07590
H         -0.73856        2.88407       12.18686
C         -5.78169        5.90617       10.54084
C         -5.77270        2.96929       10.98700
C         -7.04185        5.14809       11.00167
C         -7.02406        3.70255       10.49246
H         -5.76847        5.91817        9.42659
H         -7.11018        5.14795       12.11178
H         -7.05081        3.69499        9.38158
H         -5.80453        2.89928       12.09676
C          4.35235       -5.89787       11.11039
C          6.89086       -5.91079       11.16453
C          5.63546       -5.16270       10.65423
H          6.86785       -5.93183       12.27956
H          6.94322       -2.94929        9.60947
C          6.91606       -2.97090       10.72444
C          5.63090       -3.70594       11.17609
H          5.66021       -5.14324        9.53919
C          4.37856       -2.95748       10.65978
C          3.09143       -3.68953       11.11215
C          3.09634       -5.15266       10.59613
H          3.12369       -5.13687        9.48108
H          4.32728       -5.91549       12.22536
H          5.60341       -3.72544       12.29102
H          4.40716       -2.93950        9.54487
H          3.06428       -3.70541       12.22718
C          4.37649       -1.50037       11.18104
C          6.91273       -1.51513       11.24984
C          5.66384       -0.76569       10.73249
C          3.12973       -0.74992       10.65977
H          4.34473       -1.51856       12.29588
H          6.88304       -1.53660       12.36471
H          3.16374       -0.73325        9.54467
C          1.83421       -1.47720       11.10581
C          1.83540       -2.93990       10.59585
C          1.80879       -5.88893       11.05020
C          0.60625       -0.70594       10.58394
C          0.56626       -3.68623       11.04840
C          0.57133       -5.12956       10.53573
H          0.59275       -0.70484        9.47178
H          1.79254       -1.48949       12.21932
H          1.85546       -2.92748        9.48173
H          0.49044       -3.68767       12.15798
H          0.55026       -5.12769        9.42378
H          1.77402       -5.90102       12.16390
C          0.61395        0.73921       11.09450
C          1.89577        1.45950       10.66296
C          3.13389        0.71104       11.17854
C          4.41788        1.43572       10.73945
C          5.66135        0.69276       11.25465
C          6.94505        1.42154       10.81745
H          0.53249        0.74673       12.20270
H          3.09981        0.70677       12.29149
H          5.62792        0.68589       12.36752
H          1.91936        1.53025        9.55305
H          4.45207        1.50451        9.62863
H          6.97826        1.49421        9.70691
C          6.89588        5.89114       10.63996
C          5.61687        5.15517       11.09960
C          4.36003        5.90277       10.58986
H          6.91646        5.91201        9.52483
C          5.62368        3.69621       10.57880
H          5.59579        5.13653       12.21484
C          4.34944        2.96684       11.03440
C          3.09598        3.70435       10.53275
C          3.08172        5.16574       11.05010
H          5.64265        3.70213        9.46555
H          4.38203        5.92049        9.47475
H          3.06111        5.14966       12.16554
H          3.11643        3.70795        9.41943
H          4.32933        2.89913       12.14561
C          6.87812        2.95490       11.07590
H          6.86044        2.88407       12.18686
C          1.81731        5.90617       10.54084
C          1.82630        2.96929       10.98700
C          0.55715        5.14809       11.00167
C          0.57494        3.70255       10.49246
H          1.83053        5.91817        9.42659
H          0.48882        5.14795       12.11178
H          0.54819        3.69499        9.38158
H          1.79447        2.89928       12.09676
C         11.95135       -5.89787       11.11039
C         14.48986       -5.91079       11.16453
C         13.23446       -5.16270       10.65423
H         14.46685       -5.93183       12.27956
H         14.54222       -2.94929        9.60947
C         14.51506       -2.97090       10.72444
C         13.22990       -3.70594       11.17609
H         13.25921       -5.14324        9.53919
C         11.97756       -2.95748       10.65978
C         10.69043       -3.68953       11.11215
C         10.69534       -5.15266       10.59613
H         10.72269       -5.13687        9.48108
H         11.92628       -5.91549       12.22536
H         13.20241       -3.72544       12.29102
H         12.00616       -2.93950        9.54487
H         10.66328       -3.70541       12.22718
C         11.97549       -1.50037       11.18104
C         14.51173       -1.51513       11.24984
C         13.26284       -0.76569       10.73249
C         10.72873       -0.74992       10.65977
H         11.94373       -1.51856       12.29588
H         14.48204       -1.53660       12.36471
H         10.76274       -0.73325        9.54467
H         13.29417       -0.74612        9.61743
C          9.43321       -1.47720       11.10581
C          9.43440       -2.93990       10.59585
C          9.40779       -5.88893       11.05020
C          8.20525       -0.70594       10.58394
C          8.16526       -3.68623       11.04840
C          8.17033       -5.12956       10.53573
H          8.19175       -0.70484        9.47178
H          9.39154       -1.48949       12.21932
H          9.45446       -2.92748        9.48173
H          8.08944       -3.68767       12.15798
H          8.14926       -5.12769        9.42378
H          9.37302       -5.90102       12.16390
C          8.21295        0.73921       11.09450
C          9.49477        1.45950       10.66296
C         10.73289        0.71104       11.17854
C         12.01688        1.43572       10.73945
C         13.26035        0.69276       11.25465
C         14.54405        1.42154       10.81745
H          8.13149        0.74673       12.20270
H         10.69881        0.70677       12.29149
H         13.22692        0.68589       12.36752
H          9.51836        1.53025        9.55305
H         12.05107        1.50451        9.62863
H         14.57726        1.49421        9.70691
C         14.49488        5.89114       10.63996
C         13.21587        5.15517       11.09960
C         11.95903        5.90277       10.58986
H         14.51546        5.91201        9.52483
C         13.22268        3.69621       10.57880
H         13.19479        5.13653       12.21484
C         11.94844        2.96684       11.03440
C         10.69498        3.70435       10.53275
C         10.68072        5.16574       11.05010
H         13.24165        3.70213        9.46555
H         11.98103        5.92049        9.47475
H         10.66011        5.14966       12.16554
H         10.71543        3.70795        9.41943
H         11.92833        2.89913       12.14561
C         14.47712        2.95490       11.07590
H         14.45944        2.88407       12.18686
C          9.41631        5.90617       10.54084
C          9.42530        2.96929       10.98700
C          8.15615        5.14809       11.00167
C          8.17394        3.70255       10.49246
H          9.42953        5.91817        9.42659
H          8.08782        5.14795       12.11178
H          8.14719        3.69499        9.38158
H          9.39347        2.89928       12.09676
N         -5.67662       -1.54999        6.91118
C         -5.73223       -1.37021        8.39569
C         -4.46927       -0.74992        9.03977
H         -3.58581       -1.39470        8.85449
H         -4.27928        0.26063        8.62376
C         -6.95680       -2.16181        6.47782
H         -7.11336       -3.15160        6.96324
H         -7.82178       -1.51172        6.74043
H         -6.97737       -2.32066        5.37584
C         -4.57198       -2.45623        6.51527
H         -4.64459       -3.43070        7.04779
H         -4.59643       -2.66029        5.42104
H         -3.57801       -2.01038        6.72935
C         -5.52423       -0.25046        6.21382
H         -5.57704       -0.38208        5.10950
H         -6.32697        0.45992        6.51298
H         -4.54108        0.21837        6.42812
N          2.12982       -3.07317        2.82706
C          2.07515       -2.89640        4.28638
H          1.25686       -2.21328        4.54125
H          1.90359       -3.86695        4.76579
C          3.40103       -2.31091        4.77953
H          4.21934       -2.99401        4.52467
H          3.57260       -1.34034        4.30018
C          5.66384       -0.76569        9.11249
H          6.55172       -1.41205        8.94530
H          5.86102        0.25172        8.71250
C          4.42649       -1.37100        8.46000
C          4.60709       -1.50668        6.94245
H          5.49055       -2.15146        6.75717
H          4.79708       -0.49613        6.52644
C          3.34413       -2.12697        6.29837
H          3.16959       -3.11477        6.78483
H          2.47717       -1.47678        6.56006
C          2.36015       -1.77054        2.18368
H          3.30931       -1.35143        2.53678
H          1.54184       -1.08744        2.43853
H          2.40092       -1.90224        1.09638
C          0.85589       -3.63569        2.35324
H          0.89664       -3.76741        1.26594
H          0.03763       -2.95252        2.60808
H          0.68430       -4.60621        2.83267
C          3.22811       -3.99004        2.48504
H          4.17725       -3.57089        2.83812
H          3.26885       -4.12174        1.39775
H          3.05647       -4.96056        2.96445
H         -6.58299       -0.71848        8.62519
H         -5.89365       -2.39688        8.74367
H          4.25672       -2.41047        8.76311
H          3.56451       -0.72452        8.66067
O         -6.00246        0.16701       -0.88238
H         -6.01244        1.09230       -0.63438
H         -5.99101        0.16717       -1.84031
O         -6.41320        1.49919       -4.05307
H         -5.64864        1.87842       -3.61787
H         -6.24423        1.60721       -4.98985
O        -13.68237        0.20908       -3.39123
H        -13.69235        1.13437       -3.14323
H        -13.67092        0.20924       -4.34916
O        -13.61605       -2.27443        0.16966
H        -12.86395       -1.68666        0.08832
H        -13.33874       -3.09111       -0.24735
O        -12.98969        0.61132        1.97846
H        -12.99967        1.53661        2.22646
H        -12.97824        0.61148        1.02053
O        -11.49467       -0.49382       -3.13284
H        -11.50465        0.43147       -2.88484
H        -11.48322       -0.49366       -4.09077
O        -11.06194        0.71176       -0.70937
H        -10.11035        0.68868       -0.81757
H        -11.34959       -0.19094       -0.85129
O        -10.76286        1.18669        1.94051
H        -11.16669        1.41958        1.10359
H        -10.65929        0.23481        1.90947
O        -13.18092        1.42877        4.18081
H        -12.22506        1.36485        4.18428
H        -13.48871        0.53408        4.03062
O        -10.23232        1.03539        4.19215
H        -10.49876        1.82849        3.72549
H        -11.02715        0.50391        4.25171
O         -9.03858        1.95848       -4.64993
H         -8.53778        1.47978       -5.31161
H         -9.77388        1.38433       -4.43210
O         -8.48410        1.95322       -2.17600
H         -7.63438        2.05267       -1.74489
H         -8.40461        1.15484       -2.69948
O         -9.04616        1.94185        3.58331
H         -9.05615        2.86714        3.83131
H         -9.03471        1.94201        2.62538
O         -3.97578        0.86243       -1.01722
H         -3.29130        1.45785       -1.32498
H         -4.13567        0.26791       -1.75121
O         -2.87642        0.96925        1.14930
H         -2.30707        1.69723        0.89699
H         -3.09530        0.52915        0.32701
O         -1.58491        1.06215        3.66280
H         -1.33608        1.98712        3.64625
H         -1.90246        0.87495        2.77856
O          0.71541        0.93665        3.31354
H          0.70543        1.86194        3.56154
H          0.72686        0.93681        2.35561
O         -0.38830        0.75928        1.39740
H         -0.39828        1.68457        1.64540
H         -0.37685        0.75944        0.43947
O         -1.40517        0.55683       -0.75436
H         -1.41515        1.48212       -0.50636
H         -1.39372        0.55699       -1.71229
O         -1.75260        0.61268       -3.30830
H         -1.47664        1.35035       -3.85369
H         -1.53885       -0.16808       -3.82063
O          0.04903        0.70299       -4.68818
H          0.87847        0.62060       -5.16041
H         -0.50394        0.00127       -5.03399
O          2.43302        0.68859       -4.32850
H          3.34578        0.89040       -4.53807
H          2.31281       -0.22322       -4.59665
O          5.55793        0.54304       -4.17301
H          6.32530        0.72362       -4.71734
H          5.01845       -0.05241       -4.69471
O          5.59634        0.34792       -1.80590
H          5.58636        1.27321       -1.55790
H          5.60779        0.34808       -2.76383
O          5.90677        0.87729        0.46630
H          6.69694        1.20390        0.03418
H          5.36939        0.51600       -0.23971
O          7.18787        1.06120        2.51257
H          8.09183        1.37122        2.57972
H          7.09852        0.75092        1.61062
O         10.10677        1.05642        3.58295
H          9.26901        1.51158        3.67648
H         10.16588        0.83448        2.65289
O          8.91882        0.85178        0.07976
H          9.76147        1.10902        0.45597
H          9.13615        0.44313       -0.75901
O          8.27276        0.47653       -1.97595
H          7.49479        1.03548       -1.96632
H          8.42284        0.27639       -2.90072
O          8.75717        0.36540       -4.20572
H          9.61208        0.79540       -4.25033
H          8.66290       -0.08666       -5.04508
O         11.32594        0.02437       -4.17689
H         11.31596        0.94966       -3.92889
H         11.33739        0.02453       -5.13482
O         10.76896        0.66654       -1.70411
H         11.65039        0.87153       -1.38973
H         10.90111        0.23752       -2.55042
O         11.72511        1.05479        0.99611
H         12.63412        0.76002        1.06374
H         11.41744        0.71851        0.15348
O         12.04430        1.06969        4.01457
H         11.63585        1.35266        3.19551
H         12.97688        0.98780        3.81122
O         14.12123        0.82917        2.18354
H         14.00084        0.78200        1.23430
H         13.31049        1.21516        2.51742
O         13.37794        0.05319       -3.76930
H         12.89783        0.70187       -3.25310
H         13.24936        0.31744       -4.68111
O         13.43860        0.28128       -0.82760
H         14.05466        0.94470       -0.51438
H         12.90085        0.73090       -1.48061
O          1.03035        4.08279       -3.47676
H          1.02037        5.00808       -3.22876
H          1.04180        4.08295       -4.43469
O          1.25382        5.29907       -1.39131
H          0.94364        5.27597       -0.48521
H          0.99047        4.45723       -1.76508
O          1.06234        3.90213        1.20307
H          0.48154        4.64508        1.37174
H          1.25428        3.94532        0.26549
O          0.57244        5.18668        3.34661
H          1.11270        4.40919        3.49285
H          0.70858        5.41361        2.42588
O          1.28858       -4.83513       -4.10025
H          1.27860       -3.90984       -3.85225
H          1.30003       -4.83497       -5.05818
O          0.75695       -2.14921       -1.11855
H          0.74697       -1.22392       -0.87055
H          0.76840       -2.14906       -2.07648
O          1.02697       -5.04603        1.12629
H          0.89078       -5.92129        0.76141
H          1.01646       -4.45781        0.37021
O          8.66097        3.40098       -2.41784
H          8.65099        4.32627       -2.16984
H          8.67242        3.40114       -3.37577
O        -10.76784       -4.61972       -3.38252
H        -10.77782       -3.69443       -3.13452
H        -10.75639       -4.61956       -4.34045
O          4.52653        4.49342        0.11163
H          3.83864        3.82732        0.14135
H          4.50284        4.83457       -0.78325
O          3.20735        2.72457        3.28870
H          2.51923        2.07492        3.43772
H          3.36339        2.70814        2.34364
O         -3.24100       -4.72985       -3.96096
H         -3.25098       -3.80456       -3.71296
H         -3.22955       -4.72969       -4.91889
O         -2.07704       -2.81853       -2.77552
H         -2.07201       -2.09008       -3.39769
H         -1.68427       -3.55240       -3.24979
O         -6.01070       -4.77257        2.98774
H         -6.02068       -3.84728        3.23574
H         -5.99925       -4.77241        2.02981
O         -8.22479        4.41381        3.46455
H         -8.71643        3.61242        3.28062
H         -7.81909        4.26509        4.31957
O        -10.78547        4.29761        0.94240
H        -10.64533        3.97102        0.05276
H        -10.55089        3.56617        1.51487
O         -3.18481        2.77782       -3.64128
H         -3.19479        3.70311       -3.39328
H         -3.17336        2.77798       -4.59921
O         -5.44225        4.41827        1.75037
H         -5.45223        5.34356        1.99837
H         -5.43080        4.41843        0.79244
O         -2.70013        4.67627        0.77272
H         -2.71011        5.60156        1.02072
H         -2.68868        4.67643       -0.18521
O          6.73365        3.43257        2.42846
H          6.72367        4.35786        2.67646
H          6.74510        3.43273        1.47053
O          1.65673       -0.14750        0.92066
H          1.64675        0.77779        1.16866
H          1.66818       -0.14734       -0.03727
O          0.95273        0.20181       -1.59766
H          0.94274        1.12710       -1.34966
H          0.96418        0.20196       -2.55559
O         11.91666        3.84427       -2.27748
H         11.90425        4.76987       -2.03074
H         11.93762        3.84325       -3.23525
O          8.71749        4.29064        3.62078
H          8.79674        5.21383        3.86412
H          8.62862        4.29240        2.66691
O          5.51004       -4.41987        3.48283
H          5.50006       -3.49458        3.73083
H          5.52149       -4.41971        2.52490
O          7.24889       -3.20354        1.61323
H          7.23891       -2.27825        1.86123
H          7.26034       -3.20338        0.65530
O          9.34412       -1.57566        3.35261
H          9.87185       -2.36970        3.44615
H          9.39574       -1.14176        4.20515
O         12.44219       -2.23946        0.43568
H         12.35345       -3.13175        0.09845
H         12.86364       -2.33817        1.29032
O         12.94136       -4.60310       -1.45979
H         12.93138       -3.67781       -1.21179
H         12.95281       -4.60295       -2.41772
O         -9.08873       -4.48864        4.25628
H         -9.38253       -3.57813        4.30539
H         -9.04758       -4.68573        3.31967
O         -7.85897       -4.99741        1.09881
H         -7.77273       -4.08956        1.39231
H         -7.82004       -4.95362        0.14261
O        -13.09425       -3.58462       -5.84888
H        -13.10423       -2.65933       -5.60088
H        -13.08280       -3.58446       -6.80681
O          9.25233       -5.08381       -1.69913
H          9.24234       -4.15852       -1.45113
H          9.26378       -5.08366       -2.65706
O        -13.09040       -4.46101       -2.29251
H        -13.10038       -3.53572       -2.04451
H        -13.07895       -4.46086       -3.25044
O        -12.43439        3.80360        2.71065
H        -12.44437        4.72889        2.95865
H        -12.42294        3.80375        1.75272
O         -8.17903        2.67501        0.14947
H         -8.16758        2.67517       -0.80847
H         -8.18901        3.60030        0.39747
O         -5.37539        4.54765       -2.17154
H         -5.38537        5.47294       -1.92355
H         -5.36394        4.54781       -3.12948
O         12.47412        1.93544        6.81043
H         13.05691        1.74294        6.07486
H         12.77565        1.36781        7.52080
O          9.25551        1.58536        7.20946
H          8.84706        1.86833        6.39040
H         10.18809        1.50347        7.00611
O          6.00947        1.39172        5.52774
H          5.60102        1.67469        4.70868
H          6.94205        1.30983        5.32439
O          0.36249        1.50634        7.38747
H         -0.04596        1.78931        6.56841
H          1.29507        1.42445        7.18412
O         -2.38704        1.28832        5.39061
H         -2.79549        1.57129        4.57155
H         -1.45446        1.20643        5.18726
O         -2.22460        1.21286        7.47932
H         -2.50353        2.00510        7.94009
H         -1.61509        1.51891        6.80657
O        -10.50709        1.41958        7.70905
H        -10.91554        1.70255        6.88999
H         -9.57451        1.33769        7.50570
O        -13.01446        1.76267        7.22911
H        -13.14555        1.63495        6.28876
H        -12.89956        0.88087        7.58546
O         -4.00929        1.06899        3.25123
H         -4.41774        1.35196        2.43217
H         -3.07671        0.98710        3.04788
O         11.98940        0.31872       -6.52772
H         11.58095        0.60169       -7.34678
H         12.92198        0.23683       -6.73107
O          8.33901        0.22769       -7.07577
H          7.93056        0.51066       -7.89483
H          9.27159        0.14580       -7.27912
O          3.79088        0.84358       -2.32241
H          3.10299        0.36710       -2.78882
H          3.43868        0.99039       -1.44368
O          5.11032        0.02137       -6.92267
H          4.41620        0.54810       -6.52453
H          5.92769        0.41268       -6.61196
O          1.64642        0.12822       -7.36582
H          1.23797        0.41119       -8.18488
H          2.57900        0.04633       -7.56917
O         -1.15000        0.19446       -6.34443
H         -1.55845        0.47743       -7.16349
H         -0.21742        0.11257       -6.54778
O         -4.44146        0.18413       -7.81539
H         -4.57304       -0.28927       -6.99298
H         -3.55801        0.54929       -7.75266
O         -7.42816        0.12644       -6.34847
H         -7.83661        0.40941       -7.16753
H         -6.49558        0.04455       -6.55182
O        -10.82009       -0.00371       -7.34063
H        -11.22854        0.27926       -8.15969
H         -9.88751       -0.08560       -7.54398
O        -13.56237        0.08038       -6.13619
H        -13.97082        0.36335       -6.95525
H        -12.62979       -0.00151       -6.33954
O          1.60231        4.23011       -5.96036
H          1.19386        4.51308       -6.77942
H          2.53489        4.14822       -6.16371
O         -1.57516       -3.36408       -7.19398
H         -1.98361       -3.08111       -8.01304
H         -0.64258       -3.44597       -7.39733
O         -1.12709       -5.13766       -2.09142
H         -1.53554       -4.85469       -2.91048
H         -0.19451       -5.21955       -2.29477
O          7.15880        3.93418        7.14767
H          6.75035        4.21715        6.32861
H          8.09138        3.85229        6.94432
O          7.97123       -2.26142       -6.77135
H          7.56278       -1.97845       -7.59041
H          8.90381       -2.34331       -6.97470
O         -2.94250        5.43899        4.38113
H         -3.35095        5.72196        3.56207
H         -2.00992        5.35710        4.17778
O          1.74796        0.67070        6.04941
H          1.33951        0.95367        5.23035
H          2.68054        0.58881        5.84606
O          7.71326       -4.12128        6.19962
H          7.59587       -4.80806        6.85712
H          7.95893       -4.58482        5.39804
O          4.93541       -2.34405       -4.37354
H          5.42745       -2.36840       -3.55191
H          5.36611       -1.66989       -4.90058
O          5.12992       -5.46537       -4.16991
H          5.26068       -4.63884       -4.63628
H          5.68972       -5.40403       -3.39492
O          6.01138       -4.24128       -6.57616
H          5.37201       -4.32631       -5.86783
H          5.61797       -4.69702       -7.32133
O         -6.39422       -5.09050       -5.10106
H         -6.80267       -4.80753       -5.92012
H         -5.46164       -5.17239       -5.30441
O         -9.60015       -0.28356       -2.07885
H         -9.61014        0.64173       -1.83085
O         10.94391       -4.72685        2.44285
H         10.93393       -3.80156        2.69085
