952

C        -10.76156       -6.00273      -10.93907
C         -8.22305       -6.01565      -10.88493
C         -9.47845       -5.26756      -11.39523
H         -8.24606       -6.03669       -9.76990
H         -8.17069       -3.05415      -12.43999
C         -8.19785       -3.07576      -11.32502
C         -9.48301       -3.81080      -10.87337
H         -9.45370       -5.24810      -12.51027
C        -10.73535       -3.06234      -11.38968
C        -12.02248       -3.79439      -10.93731
C        -12.01757       -5.25752      -11.45333
H        -11.99022       -5.24173      -12.56838
H        -10.78663       -6.02035       -9.82410
H         -9.51050       -3.83030       -9.75844
H        -10.70675       -3.04436      -12.50459
H        -12.04963       -3.81027       -9.82228
C        -10.73742       -1.60523      -10.86842
C         -8.20118       -1.61999      -10.79962
C         -9.45007       -0.87055      -11.31697
C        -11.98418       -0.85478      -11.38969
H        -10.76918       -1.62342       -9.75358
H         -8.23087       -1.64146       -9.68475
H        -11.95017       -0.83811      -12.50479
H         -9.41874       -0.85098      -12.43203
C        -13.27970       -1.58206      -10.94365
C        -13.27851       -3.04476      -11.45361
C        -13.30512       -5.99379      -10.99926
C        -14.50766       -0.81080      -11.46552
C        -14.54765       -3.79109      -11.00106
C        -14.54258       -5.23442      -11.51373
H        -14.52116       -0.80970      -12.57768
H        -13.32137       -1.59435       -9.83014
H        -13.25845       -3.03234      -12.56773
H        -14.62347       -3.79253       -9.89148
H        -14.56365       -5.23255      -12.62568
H        -13.33989       -6.00588       -9.88556
C        -14.49996        0.63435      -10.95496
C        -13.21814        1.35464      -11.38650
C        -11.98002        0.60618      -10.87092
C        -10.69603        1.33086      -11.31001
C         -9.45256        0.58790      -10.79481
C         -8.16886        1.31668      -11.23201
H        -14.58142        0.64187       -9.84676
H        -12.01410        0.60191       -9.75797
H         -9.48599        0.58103       -9.68194
H        -13.19455        1.42539      -12.49641
H        -10.66184        1.39965      -12.42083
H         -8.13565        1.38935      -12.34255
C         -8.21803        5.78628      -11.40950
C         -9.49704        5.05031      -10.94986
C        -10.75388        5.79791      -11.45960
H         -8.19745        5.80715      -12.52463
C         -9.49023        3.59135      -11.47066
H         -9.51812        5.03167       -9.83462
C        -10.76447        2.86198      -11.01506
C        -12.01793        3.59949      -11.51671
C        -12.03219        5.06088      -10.99936
H         -9.47126        3.59727      -12.58391
H        -10.73188        5.81563      -12.57471
H        -12.05280        5.04480       -9.88392
H        -11.99748        3.60309      -12.63003
H        -10.78458        2.79427       -9.90385
C         -8.23579        2.85004      -10.97356
H         -8.25347        2.77921       -9.86260
C        -13.29660        5.80131      -11.50862
C        -13.28761        2.86443      -11.06246
C        -14.55676        5.04323      -11.04779
C        -14.53897        3.59769      -11.55700
H        -13.28338        5.81331      -12.62287
H        -14.62509        5.04309       -9.93768
H        -14.56572        3.59013      -12.66788
H        -13.31944        2.79442       -9.95270
C         -3.16256       -6.00273      -10.93907
C         -0.62405       -6.01565      -10.88493
C         -1.87945       -5.26756      -11.39523
H         -0.64706       -6.03669       -9.76990
H         -0.57169       -3.05415      -12.43999
C         -0.59885       -3.07576      -11.32502
C         -1.88401       -3.81080      -10.87337
H         -1.85470       -5.24810      -12.51027
C         -3.13635       -3.06234      -11.38968
C         -4.42348       -3.79439      -10.93731
C         -4.41857       -5.25752      -11.45333
H         -4.39122       -5.24173      -12.56838
H         -3.18763       -6.02035       -9.82410
H         -1.91150       -3.83030       -9.75844
H         -3.10775       -3.04436      -12.50459
H         -4.45063       -3.81027       -9.82228
C         -3.13842       -1.60523      -10.86842
C         -0.60218       -1.61999      -10.79962
C         -1.85107       -0.87055      -11.31697
C         -4.38518       -0.85478      -11.38969
H         -3.17018       -1.62342       -9.75358
H         -0.63187       -1.64146       -9.68475
H         -4.35117       -0.83811      -12.50479
H         -1.81974       -0.85098      -12.43203
C         -5.68070       -1.58206      -10.94365
C         -5.67951       -3.04476      -11.45361
C         -5.70612       -5.99379      -10.99926
C         -6.90866       -0.81080      -11.46552
C         -6.94865       -3.79109      -11.00106
C         -6.94358       -5.23442      -11.51373
H         -6.92216       -0.80970      -12.57768
H         -5.72237       -1.59435       -9.83014
H         -5.65945       -3.03234      -12.56773
H         -7.02447       -3.79253       -9.89148
H         -6.96465       -5.23255      -12.62568
H         -5.74089       -6.00588       -9.88556
C         -6.90096        0.63435      -10.95496
C         -5.61914        1.35464      -11.38650
C         -4.38102        0.60618      -10.87092
C         -3.09703        1.33086      -11.31001
C         -1.85356        0.58790      -10.79481
C         -0.56986        1.31668      -11.23201
H         -6.98242        0.64187       -9.84676
H         -4.41510        0.60191       -9.75797
H         -1.88699        0.58103       -9.68194
H         -5.59555        1.42539      -12.49641
H         -3.06284        1.39965      -12.42083
H         -0.53665        1.38935      -12.34255
C         -0.61903        5.78628      -11.40950
C         -1.89804        5.05031      -10.94986
C         -3.15488        5.79791      -11.45960
H         -0.59845        5.80715      -12.52463
C         -1.89123        3.59135      -11.47066
H         -1.91912        5.03167       -9.83462
C         -3.16547        2.86198      -11.01506
C         -4.41893        3.59949      -11.51671
C         -4.43319        5.06088      -10.99936
H         -1.87226        3.59727      -12.58391
H         -3.13288        5.81563      -12.57471
H         -4.45380        5.04480       -9.88392
H         -4.39848        3.60309      -12.63003
H         -3.18558        2.79427       -9.90385
C         -0.63679        2.85004      -10.97356
H         -0.65447        2.77921       -9.86260
C         -5.69760        5.80131      -11.50862
C         -5.68861        2.86443      -11.06246
C         -6.95776        5.04323      -11.04779
C         -6.93997        3.59769      -11.55700
H         -5.68438        5.81331      -12.62287
H         -7.02609        5.04309       -9.93768
H         -6.96672        3.59013      -12.66788
H         -5.72044        2.79442       -9.95270
C          4.43644       -6.00273      -10.93907
C          6.97495       -6.01565      -10.88493
C          5.71955       -5.26756      -11.39523
H          6.95194       -6.03669       -9.76990
H          7.02731       -3.05415      -12.43999
C          7.00015       -3.07576      -11.32502
C          5.71499       -3.81080      -10.87337
H          5.74430       -5.24810      -12.51027
C          4.46265       -3.06234      -11.38968
C          3.17552       -3.79439      -10.93731
C          3.18043       -5.25752      -11.45333
H          3.20778       -5.24173      -12.56838
H          4.41137       -6.02035       -9.82410
H          5.68750       -3.83030       -9.75844
H          4.49125       -3.04436      -12.50459
H          3.14837       -3.81027       -9.82228
C          4.46058       -1.60523      -10.86842
C          6.99682       -1.61999      -10.79962
C          5.74793       -0.87055      -11.31697
C          3.21382       -0.85478      -11.38969
H          4.42882       -1.62342       -9.75358
H          6.96713       -1.64146       -9.68475
H          3.24783       -0.83811      -12.50479
H          5.77926       -0.85098      -12.43203
C          1.91830       -1.58206      -10.94365
C          1.91949       -3.04476      -11.45361
C          1.89288       -5.99379      -10.99926
C          0.69034       -0.81080      -11.46552
C          0.65035       -3.79109      -11.00106
C          0.65542       -5.23442      -11.51373
H          0.67684       -0.80970      -12.57768
H          1.87663       -1.59435       -9.83014
H          1.93955       -3.03234      -12.56773
H          0.57453       -3.79253       -9.89148
H          0.63435       -5.23255      -12.62568
H          1.85811       -6.00588       -9.88556
C          0.69804        0.63435      -10.95496
C          1.97986        1.35464      -11.38650
C          3.21798        0.60618      -10.87092
C          4.50197        1.33086      -11.31001
C          5.74544        0.58790      -10.79481
C          7.02914        1.31668      -11.23201
H          0.61658        0.64187       -9.84676
H          3.18390        0.60191       -9.75797
H          5.71201        0.58103       -9.68194
H          2.00345        1.42539      -12.49641
H          4.53616        1.39965      -12.42083
H          7.06235        1.38935      -12.34255
C          6.97997        5.78628      -11.40950
C          5.70096        5.05031      -10.94986
C          4.44412        5.79791      -11.45960
H          7.00055        5.80715      -12.52463
C          5.70777        3.59135      -11.47066
H          5.67988        5.03167       -9.83462
C          4.43353        2.86198      -11.01506
C          3.18007        3.59949      -11.51671
C          3.16581        5.06088      -10.99936
H          5.72674        3.59727      -12.58391
H          4.46612        5.81563      -12.57471
H          3.14520        5.04480       -9.88392
H          3.20052        3.60309      -12.63003
H          4.41342        2.79427       -9.90385
C          6.96221        2.85004      -10.97356
H          6.94453        2.77921       -9.86260
C          1.90140        5.80131      -11.50862
C          1.91039        2.86443      -11.06246
C          0.64124        5.04323      -11.04779
C          0.65903        3.59769      -11.55700
H          1.91462        5.81331      -12.62287
H          0.57291        5.04309       -9.93768
H          0.63228        3.59013      -12.66788
H          1.87856        2.79442       -9.95270
C         12.03544       -6.00273      -10.93907
C         14.57395       -6.01565      -10.88493
C         13.31855       -5.26756      -11.39523
H         14.55094       -6.03669       -9.76990
H         14.62631       -3.05415      -12.43999
C         14.59915       -3.07576      -11.32502
C         13.31399       -3.81080      -10.87337
H         13.34330       -5.24810      -12.51027
C         12.06165       -3.06234      -11.38968
C         10.77452       -3.79439      -10.93731
C         10.77943       -5.25752      -11.45333
H         10.80678       -5.24173      -12.56838
H         12.01037       -6.02035       -9.82410
H         13.28650       -3.83030       -9.75844
H         12.09025       -3.04436      -12.50459
H         10.74737       -3.81027       -9.82228
C         12.05958       -1.60523      -10.86842
C         14.59582       -1.61999      -10.79962
C         13.34693       -0.87055      -11.31697
C         10.81282       -0.85478      -11.38969
H         12.02782       -1.62342       -9.75358
H         14.56613       -1.64146       -9.68475
H         10.84683       -0.83811      -12.50479
H         13.37826       -0.85098      -12.43203
C          9.51730       -1.58206      -10.94365
C          9.51849       -3.04476      -11.45361
C          9.49188       -5.99379      -10.99926
C          8.28934       -0.81080      -11.46552
C          8.24935       -3.79109      -11.00106
C          8.25442       -5.23442      -11.51373
H          8.27584       -0.80970      -12.57768
H          9.47563       -1.59435       -9.83014
H          9.53855       -3.03234      -12.56773
H          8.17353       -3.79253       -9.89148
H          8.23335       -5.23255      -12.62568
H          9.45711       -6.00588       -9.88556
C          8.29704        0.63435      -10.95496
C          9.57886        1.35464      -11.38650
C         10.81698        0.60618      -10.87092
C         12.10097        1.33086      -11.31001
C         13.34444        0.58790      -10.79481
C         14.62814        1.31668      -11.23201
H          8.21558        0.64187       -9.84676
H         10.78290        0.60191       -9.75797
H         13.31101        0.58103       -9.68194
H          9.60245        1.42539      -12.49641
H         12.13516        1.39965      -12.42083
H         14.66135        1.38935      -12.34255
C         14.57897        5.78628      -11.40950
C         13.29996        5.05031      -10.94986
C         12.04312        5.79791      -11.45960
H         14.59955        5.80715      -12.52463
C         13.30677        3.59135      -11.47066
H         13.27888        5.03167       -9.83462
C         12.03253        2.86198      -11.01506
C         10.77907        3.59949      -11.51671
C         10.76481        5.06088      -10.99936
H         13.32574        3.59727      -12.58391
H         12.06512        5.81563      -12.57471
H         10.74420        5.04480       -9.88392
H         10.79952        3.60309      -12.63003
H         12.01242        2.79427       -9.90385
C         14.56121        2.85004      -10.97356
H         14.54353        2.77921       -9.86260
C          9.50040        5.80131      -11.50862
C          9.50939        2.86443      -11.06246
C          8.24024        5.04323      -11.04779
C          8.25803        3.59769      -11.55700
H          9.51362        5.81331      -12.62287
H          8.17191        5.04309       -9.93768
H          8.23128        3.59013      -12.66788
H          9.47756        2.79442       -9.95270
C        -10.76156       -6.00273       11.06093
C         -8.22305       -6.01565       11.11507
C         -9.47845       -5.26756       10.60477
H         -8.24606       -6.03669       12.23010
H         -8.17069       -3.05415        9.56001
C         -8.19785       -3.07576       10.67498
C         -9.48301       -3.81080       11.12663
H         -9.45370       -5.24810        9.48973
C        -10.73535       -3.06234       10.61032
C        -12.02248       -3.79439       11.06269
C        -12.01757       -5.25752       10.54667
H        -11.99022       -5.24173        9.43162
H        -10.78663       -6.02035       12.17590
H         -9.51050       -3.83030       12.24156
H        -10.70675       -3.04436        9.49541
H        -12.04963       -3.81027       12.17772
C        -10.73742       -1.60523       11.13158
C         -8.20118       -1.61999       11.20038
C         -9.45007       -0.87055       10.68303
C        -11.98418       -0.85478       10.61031
H        -10.76918       -1.62342       12.24642
H         -8.23087       -1.64146       12.31525
H        -11.95017       -0.83811        9.49521
H         -9.41874       -0.85098        9.56797
C        -13.27970       -1.58206       11.05635
C        -13.27851       -3.04476       10.54639
C        -13.30512       -5.99379       11.00074
C        -14.50766       -0.81080       10.53448
C        -14.54765       -3.79109       10.99894
C        -14.54258       -5.23442       10.48627
H        -14.52116       -0.80970        9.42232
H        -13.32137       -1.59435       12.16986
H        -13.25845       -3.03234        9.43227
H        -14.62347       -3.79253       12.10852
H        -14.56365       -5.23255        9.37432
H        -13.33989       -6.00588       12.11444
C        -14.49996        0.63435       11.04504
C        -13.21814        1.35464       10.61350
C        -11.98002        0.60618       11.12908
C        -10.69603        1.33086       10.68999
C         -9.45256        0.58790       11.20519
C         -8.16886        1.31668       10.76799
H        -14.58142        0.64187       12.15324
H        -12.01410        0.60191       12.24203
H         -9.48599        0.58103       12.31806
H        -13.19455        1.42539        9.50359
H        -10.66184        1.39965        9.57917
H         -8.13565        1.38935        9.65745
C         -8.21803        5.78628       10.59050
C         -9.49704        5.05031       11.05014
C        -10.75388        5.79791       10.54040
H         -8.19745        5.80715        9.47537
C         -9.49023        3.59135       10.52934
H         -9.51812        5.03167       12.16538
C        -10.76447        2.86198       10.98494
C        -12.01793        3.59949       10.48329
C        -12.03219        5.06088       11.00064
H         -9.47126        3.59727        9.41609
H        -10.73188        5.81563        9.42529
H        -12.05280        5.04480       12.11608
H        -11.99748        3.60309        9.36997
H        -10.78458        2.79427       12.09615
C         -8.23579        2.85004       11.02644
H         -8.25347        2.77921       12.13740
C        -13.29660        5.80131       10.49138
C        -13.28761        2.86443       10.93754
C        -14.55676        5.04323       10.95221
C        -14.53897        3.59769       10.44300
H        -13.28338        5.81331        9.37713
H        -14.62509        5.04309       12.06232
H        -14.56572        3.59013        9.33212
H        -13.31944        2.79442       12.04730
C         -3.16256       -6.00273       11.06093
C         -0.62405       -6.01565       11.11507
C         -1.87945       -5.26756       10.60477
H         -0.64706       -6.03669       12.23010
H         -0.57169       -3.05415        9.56001
C         -0.59885       -3.07576       10.67498
C         -1.88401       -3.81080       11.12663
H         -1.85470       -5.24810        9.48973
C         -3.13635       -3.06234       10.61032
C         -4.42348       -3.79439       11.06269
C         -4.41857       -5.25752       10.54667
H         -4.39122       -5.24173        9.43162
H         -3.18763       -6.02035       12.17590
H         -1.91150       -3.83030       12.24156
H         -3.10775       -3.04436        9.49541
H         -4.45063       -3.81027       12.17772
C         -3.13842       -1.60523       11.13158
C         -0.60218       -1.61999       11.20038
C         -1.85107       -0.87055       10.68303
C         -4.38518       -0.85478       10.61031
H         -3.17018       -1.62342       12.24642
H         -0.63187       -1.64146       12.31525
H         -1.81974       -0.85098        9.56797
C         -5.68070       -1.58206       11.05635
C         -5.67951       -3.04476       10.54639
C         -5.70612       -5.99379       11.00074
C         -6.90866       -0.81080       10.53448
C         -6.94865       -3.79109       10.99894
C         -6.94358       -5.23442       10.48627
H         -6.92216       -0.80970        9.42232
H         -5.72237       -1.59435       12.16986
H         -5.65945       -3.03234        9.43227
H         -7.02447       -3.79253       12.10852
H         -6.96465       -5.23255        9.37432
H         -5.74089       -6.00588       12.11444
C         -6.90096        0.63435       11.04504
C         -5.61914        1.35464       10.61350
C         -4.38102        0.60618       11.12908
C         -3.09703        1.33086       10.68999
C         -1.85356        0.58790       11.20519
C         -0.56986        1.31668       10.76799
H         -6.98242        0.64187       12.15324
H         -4.41510        0.60191       12.24203
H         -1.88699        0.58103       12.31806
H         -5.59555        1.42539        9.50359
H         -3.06284        1.39965        9.57917
H         -0.53665        1.38935        9.65745
C         -0.61903        5.78628       10.59050
C         -1.89804        5.05031       11.05014
C         -3.15488        5.79791       10.54040
H         -0.59845        5.80715        9.47537
C         -1.89123        3.59135       10.52934
H         -1.91912        5.03167       12.16538
C         -3.16547        2.86198       10.98494
C         -4.41893        3.59949       10.48329
C         -4.43319        5.06088       11.00064
H         -1.87226        3.59727        9.41609
H         -3.13288        5.81563        9.42529
H         -4.45380        5.04480       12.11608
H         -4.39848        3.60309        9.36997
H         -3.18558        2.79427       12.09615
C         -0.63679        2.85004       11.02644
H         -0.65447        2.77921       12.13740
C         -5.69760        5.80131       10.49138
C         -5.68861        2.86443       10.93754
C         -6.95776        5.04323       10.95221
C         -6.93997        3.59769       10.44300
H         -5.68438        5.81331        9.37713
H         -7.02609        5.04309       12.06232
H         -6.96672        3.59013        9.33212
H         -5.72044        2.79442       12.04730
C          4.43644       -6.00273       11.06093
C          6.97495       -6.01565       11.11507
C          5.71955       -5.26756       10.60477
H          6.95194       -6.03669       12.23010
H          7.02731       -3.05415        9.56001
C          7.00015       -3.07576       10.67498
C          5.71499       -3.81080       11.12663
H          5.74430       -5.24810        9.48973
C          4.46265       -3.06234       10.61032
C          3.17552       -3.79439       11.06269
C          3.18043       -5.25752       10.54667
H          3.20778       -5.24173        9.43162
H          4.41137       -6.02035       12.17590
H          5.68750       -3.83030       12.24156
H          4.49125       -3.04436        9.49541
H          3.14837       -3.81027       12.17772
C          4.46058       -1.60523       11.13158
C          6.99682       -1.61999       11.20038
C          5.74793       -0.87055       10.68303
C          3.21382       -0.85478       10.61031
H          4.42882       -1.62342       12.24642
H          6.96713       -1.64146       12.31525
H          3.24783       -0.83811        9.49521
C          1.91830       -1.58206       11.05635
C          1.91949       -3.04476       10.54639
C          1.89288       -5.99379       11.00074
C          0.69034       -0.81080       10.53448
C          0.65035       -3.79109       10.99894
C          0.65542       -5.23442       10.48627
H          0.67684       -0.80970        9.42232
H          1.87663       -1.59435       12.16986
H          1.93955       -3.03234        9.43227
H          0.57453       -3.79253       12.10852
H          0.63435       -5.23255        9.37432
H          1.85811       -6.00588       12.11444
C          0.69804        0.63435       11.04504
C          1.97986        1.35464       10.61350
C          3.21798        0.60618       11.12908
C          4.50197        1.33086       10.68999
C          5.74544        0.58790       11.20519
C          7.02914        1.31668       10.76799
H          0.61658        0.64187       12.15324
H          3.18390        0.60191       12.24203
H          5.71201        0.58103       12.31806
H          2.00345        1.42539        9.50359
H          4.53616        1.39965        9.57917
H          7.06235        1.38935        9.65745
C          6.97997        5.78628       10.59050
C          5.70096        5.05031       11.05014
C          4.44412        5.79791       10.54040
H          7.00055        5.80715        9.47537
C          5.70777        3.59135       10.52934
H          5.67988        5.03167       12.16538
C          4.43353        2.86198       10.98494
C          3.18007        3.59949       10.48329
C          3.16581        5.06088       11.00064
H          5.72674        3.59727        9.41609
H          4.46612        5.81563        9.42529
H          3.14520        5.04480       12.11608
H          3.20052        3.60309        9.36997
H          4.41342        2.79427       12.09615
C          6.96221        2.85004       11.02644
H          6.94453        2.77921       12.13740
C          1.90140        5.80131       10.49138
C          1.91039        2.86443       10.93754
C          0.64124        5.04323       10.95221
C          0.65903        3.59769       10.44300
H          1.91462        5.81331        9.37713
H          0.57291        5.04309       12.06232
H          0.63228        3.59013        9.33212
H          1.87856        2.79442       12.04730
C         12.03544       -6.00273       11.06093
C         14.57395       -6.01565       11.11507
C         13.31855       -5.26756       10.60477
H         14.55094       -6.03669       12.23010
H         14.62631       -3.05415        9.56001
C         14.59915       -3.07576       10.67498
C         13.31399       -3.81080       11.12663
H         13.34330       -5.24810        9.48973
C         12.06165       -3.06234       10.61032
C         10.77452       -3.79439       11.06269
C         10.77943       -5.25752       10.54667
H         10.80678       -5.24173        9.43162
H         12.01037       -6.02035       12.17590
H         13.28650       -3.83030       12.24156
H         12.09025       -3.04436        9.49541
H         10.74737       -3.81027       12.17772
C         12.05958       -1.60523       11.13158
C         14.59582       -1.61999       11.20038
C         13.34693       -0.87055       10.68303
C         10.81282       -0.85478       10.61031
H         12.02782       -1.62342       12.24642
H         14.56613       -1.64146       12.31525
H         10.84683       -0.83811        9.49521
H         13.37826       -0.85098        9.56797
C          9.51730       -1.58206       11.05635
C          9.51849       -3.04476       10.54639
C          9.49188       -5.99379       11.00074
C          8.28934       -0.81080       10.53448
C          8.24935       -3.79109       10.99894
C          8.25442       -5.23442       10.48627
H          8.27584       -0.80970        9.42232
H          9.47563       -1.59435       12.16986
H          9.53855       -3.03234        9.43227
H          8.17353       -3.79253       12.10852
H          8.23335       -5.23255        9.37432
H          9.45711       -6.00588       12.11444
C          8.29704        0.63435       11.04504
C          9.57886        1.35464       10.61350
C         10.81698        0.60618       11.12908
C         12.10097        1.33086       10.68999
C         13.34444        0.58790       11.20519
C         14.62814        1.31668       10.76799
H          8.21558        0.64187       12.15324
H         10.78290        0.60191       12.24203
H         13.31101        0.58103       12.31806
H          9.60245        1.42539        9.50359
H         12.13516        1.39965        9.57917
H         14.66135        1.38935        9.65745
C         14.57897        5.78628       10.59050
C         13.29996        5.05031       11.05014
C         12.04312        5.79791       10.54040
H         14.59955        5.80715        9.47537
C         13.30677        3.59135       10.52934
H         13.27888        5.03167       12.16538
C         12.03253        2.86198       10.98494
C         10.77907        3.59949       10.48329
C         10.76481        5.06088       11.00064
H         13.32574        3.59727        9.41609
H         12.06512        5.81563        9.42529
H         10.74420        5.04480       12.11608
H         10.79952        3.60309        9.36997
H         12.01242        2.79427       12.09615
C         14.56121        2.85004       11.02644
H         14.54353        2.77921       12.13740
C          9.50040        5.80131       10.49138
C          9.50939        2.86443       10.93754
C          8.24024        5.04323       10.95221
C          8.25803        3.59769       10.44300
H          9.51362        5.81331        9.37713
H          8.17191        5.04309       12.06232
H          8.23128        3.59013        9.33212
H          9.47756        2.79442       12.04730
C         -6.59411       -2.17675        4.70751
C         -6.64972       -1.99697        6.19202
H         -6.82426       -2.98477        6.67848
H         -7.51668       -1.34678        6.45371
C         -5.38676       -1.37668        6.83610
H         -4.50330       -2.02146        6.65082
H         -5.19677       -0.36613        6.42009
C         -5.56736       -1.24100        8.35365
H         -5.73908       -2.29510        8.66107
H         -6.45488       -0.57558        8.42215
C         -4.33001       -0.63569        9.00614
H         -3.44213       -1.28205        8.83895
H         -4.13283        0.38172        8.60615
H         -5.84012       -2.79531        4.43728
H         -6.49010       -1.28975        4.23152
C         -7.91522       -2.80813        4.26030
H         -8.74630       -2.14713        4.53157
H         -8.04285       -3.77757        4.75538
N         -7.89773       -3.00075        2.80207
C         -9.16708       -3.60735        2.37238
H         -9.15404       -3.75089        1.28589
H         -9.99814       -2.94632        2.64362
H         -9.29474       -4.57678        2.86747
C         -6.78227       -3.88792        2.43803
H         -5.83654       -3.43595        2.75825
H         -6.76922       -4.03141        1.35155
H         -6.90999       -4.85736        2.93309
C         -7.72636       -1.69959        2.13765
H         -6.78061       -1.24765        2.45785
H         -8.55746       -1.03861        2.40893
H         -7.71333       -1.84310        1.05117
C          3.53900       -2.19252        4.78023
C          3.48339       -2.01274        6.26474
H          3.30885       -3.00054        6.75120
H          2.61643       -1.36255        6.52643
C          4.74635       -1.39245        6.90882
H          5.62981       -2.03723        6.72354
H          4.93634       -0.38190        6.49281
C          4.56575       -1.25677        8.42637
H          4.39403       -2.31087        8.73379
H          3.67823       -0.59135        8.49487
C          5.80310       -0.65146        9.07886
H          6.69098       -1.29782        8.91167
H          6.00028        0.36595        8.67887
H          4.29299       -2.81109        4.51000
H          3.64301       -1.30552        4.30425
C          2.21789       -2.82390        4.33302
H          1.38681       -2.16290        4.60429
H          2.09026       -3.79334        4.82810
N          2.23538       -3.01652        2.87479
C          0.96603       -3.62312        2.44510
H          0.97908       -3.76666        1.35861
H          0.13497       -2.96209        2.71634
H          0.83837       -4.59255        2.94020
C          3.35084       -3.90369        2.51075
H          4.29657       -3.45172        2.83097
H          3.36389       -4.04718        1.42427
H          3.22312       -4.87313        3.00581
C          2.40675       -1.71536        2.21037
H          3.35250       -1.26342        2.53057
H          1.57565       -1.05438        2.48165
H          2.41978       -1.85887        1.12389
O         -5.83124        0.09318       -1.01107
H         -5.84122        1.01847       -0.76307
H         -5.81979        0.09334       -1.96900
O         -6.24198        1.42536       -4.18176
H         -5.47742        1.80459       -3.74656
H         -6.07301        1.53338       -5.11854
O        -13.51115        0.13525       -3.51992
H        -13.52113        1.06054       -3.27192
H        -13.49970        0.13541       -4.47785
O        -13.44483       -2.34826        0.04097
H        -12.69273       -1.76049       -0.04037
H        -13.16752       -3.16494       -0.37604
O        -12.81847        0.53749        1.84977
H        -12.82845        1.46278        2.09777
H        -12.80702        0.53765        0.89184
O        -11.32345       -0.56765       -3.26153
H        -11.33343        0.35764       -3.01353
H        -11.31200       -0.56749       -4.21946
O        -10.89072        0.63793       -0.83806
H         -9.93913        0.61485       -0.94626
H        -11.17837       -0.26477       -0.97998
O        -10.59164        1.11286        1.81182
H        -10.99547        1.34575        0.97490
H        -10.48807        0.16098        1.78078
O        -13.00970        1.35494        4.05212
H        -12.05384        1.29102        4.05559
H        -13.31749        0.46025        3.90193
O        -10.06110        0.96156        4.06346
H        -10.32754        1.75466        3.59680
H        -10.85593        0.43008        4.12302
O         -8.86736        1.88465       -4.77862
H         -8.36656        1.40595       -5.44030
H         -9.60266        1.31050       -4.56079
O         -8.31288        1.87939       -2.30469
H         -7.46316        1.97884       -1.87358
H         -8.23339        1.08101       -2.82817
O         -8.87494        1.86802        3.45462
H         -8.88493        2.79331        3.70262
H         -8.86349        1.86818        2.49669
O         -3.80456        0.78860       -1.14591
H         -3.12008        1.38402       -1.45367
H         -3.96445        0.19408       -1.87990
O         -2.70520        0.89542        1.02061
H         -2.13585        1.62340        0.76830
H         -2.92408        0.45532        0.19832
O         -1.41369        0.98832        3.53411
H         -1.16486        1.91329        3.51756
H         -1.73124        0.80112        2.64987
O          0.88663        0.86282        3.18485
H          0.87665        1.78811        3.43285
H          0.89808        0.86298        2.22692
O         -0.21708        0.68545        1.26871
H         -0.22706        1.61074        1.51671
H         -0.20563        0.68561        0.31078
O         -1.23395        0.48300       -0.88305
H         -1.24393        1.40829       -0.63505
H         -1.22250        0.48316       -1.84098
O         -1.58138        0.53885       -3.43699
H         -1.30542        1.27652       -3.98238
H         -1.36763       -0.24191       -3.94932
O          0.22025        0.62916       -4.81687
H          1.04969        0.54677       -5.28910
H         -0.33272       -0.07256       -5.16268
O          2.60424        0.61476       -4.45719
H          3.51700        0.81657       -4.66676
H          2.48403       -0.29705       -4.72534
O          5.72915        0.46921       -4.30170
H          6.49652        0.64979       -4.84603
H          5.18967       -0.12624       -4.82340
O          5.76756        0.27409       -1.93459
H          5.75758        1.19938       -1.68659
H          5.77901        0.27425       -2.89252
O          6.07799        0.80346        0.33761
H          6.86816        1.13007       -0.09451
H          5.54061        0.44217       -0.36840
O          7.35909        0.98737        2.38388
H          8.26305        1.29739        2.45103
H          7.26974        0.67709        1.48193
O         10.27799        0.98259        3.45426
H          9.44023        1.43775        3.54779
H         10.33710        0.76065        2.52420
O          9.09004        0.77795       -0.04893
H          9.93269        1.03519        0.32728
H          9.30737        0.36930       -0.88770
O          8.44398        0.40270       -2.10464
H          7.66601        0.96165       -2.09501
H          8.59406        0.20256       -3.02941
O          8.92839        0.29157       -4.33441
H          9.78330        0.72157       -4.37902
H          8.83412       -0.16049       -5.17377
O         11.49716       -0.04946       -4.30558
H         11.48718        0.87583       -4.05758
H         11.50861       -0.04930       -5.26351
O         10.94018        0.59271       -1.83280
H         11.82161        0.79770       -1.51842
H         11.07233        0.16369       -2.67911
O         11.89633        0.98096        0.86742
H         12.80534        0.68619        0.93505
H         11.58866        0.64468        0.02479
O         12.21552        0.99586        3.88588
H         11.80707        1.27883        3.06682
H         13.14810        0.91397        3.68253
O         11.29981        3.56048       -6.44335
H         11.17942        3.51331       -7.39259
H         10.48907        3.94647       -6.10947
O         13.54916       -0.02064       -3.89799
H         13.06905        0.62804       -3.38179
H         13.42058        0.24361       -4.80980
O         13.60982        0.20745       -0.95629
H         14.22588        0.87087       -0.64307
H         13.07207        0.65707       -1.60930
O          1.20157        4.00896       -3.60545
H          1.19159        4.93425       -3.35745
H          1.21302        4.00912       -4.56338
O          1.42504        5.22524       -1.52000
H          1.11486        5.20214       -0.61390
H          1.16169        4.38340       -1.89377
O          1.23356        3.82830        1.07438
H          0.65276        4.57125        1.24305
H          1.42550        3.87149        0.13680
O          0.74366        5.11285        3.21792
H          1.28392        4.33536        3.36416
H          0.87980        5.33978        2.29719
O          1.45980       -4.90896       -4.22894
H          1.44982       -3.98367       -3.98094
H          1.47125       -4.90880       -5.18687
O          0.96209       -5.59502        3.89877
H          0.95211       -4.66973        4.14677
H          0.97354       -5.59487        2.94084
O          1.19819       -5.11986        0.99760
H          1.06200       -5.99512        0.63272
H          1.18768       -4.53164        0.24152
O          8.83219        3.32715       -2.54653
H          8.82221        4.25244       -2.29853
H          8.84364        3.32731       -3.50446
O        -10.59662       -4.69355       -3.51121
H        -10.60660       -3.76826       -3.26321
H        -10.58517       -4.69339       -4.46914
O          4.69775        4.41959       -0.01706
H          4.00986        3.75349        0.01266
H          4.67406        4.76074       -0.91194
O          3.37857        2.65074        3.16001
H          2.69045        2.00109        3.30903
H          3.53461        2.63431        2.21495
O         -3.06978       -4.80368       -4.08965
H         -3.07976       -3.87839       -3.84165
H         -3.05833       -4.80352       -5.04758
O         -1.90582       -2.89236       -2.90421
H         -1.90079       -2.16391       -3.52638
H         -1.51305       -3.62623       -3.37848
O         -7.17067        4.63302        2.96454
H         -7.66231        3.83163        2.78061
H         -6.76497        4.48430        3.81956
O        -10.61425        4.22378        0.81371
H        -10.47411        3.89719       -0.07593
H        -10.37967        3.49234        1.38618
O         -3.01359        2.70399       -3.76997
H         -3.02357        3.62928       -3.52197
H         -3.00214        2.70415       -4.72790
O         -5.27103        4.34444        1.62168
H         -5.28101        5.26973        1.86968
H         -5.25958        4.34460        0.66375
O         -2.52891        4.60244        0.64403
H         -2.53889        5.52773        0.89203
H         -2.51746        4.60260       -0.31390
O          6.90487        3.35874        2.29977
H          6.89489        4.28403        2.54777
H          6.91632        3.35890        1.34184
O          1.82795       -0.22133        0.79197
H          1.81797        0.70396        1.03997
H          1.83940       -0.22117       -0.16596
O          1.12395        0.12798       -1.72635
H          1.11396        1.05327       -1.47835
H          1.13540        0.12813       -2.68428
O         12.08788        3.77044       -2.40617
H         12.07547        4.69604       -2.15943
H         12.10884        3.76942       -3.36394
O          8.88871        4.21681        3.49209
H          8.96796        5.14000        3.73543
H          8.79984        4.21857        2.53822
O          5.68126       -4.49370        3.35414
H          5.67128       -3.56841        3.60214
H          5.69271       -4.49354        2.39621
O          7.42011       -3.27737        1.48454
H          7.41013       -2.35208        1.73254
H          7.43156       -3.27721        0.52661
O          9.51534       -1.64949        3.22392
H         10.04307       -2.44353        3.31746
H          9.56696       -1.21559        4.07646
O         12.61341       -2.31329        0.30699
H         12.52467       -3.20558       -0.03024
H         13.03486       -2.41200        1.16163
O         13.11258       -4.67693       -1.58848
H         13.10260       -3.75164       -1.34048
H         13.12403       -4.67678       -2.54641
O        -12.83850       -5.87501        1.61823
H        -12.84848       -4.94972        1.86623
H        -12.82705       -5.87485        0.66030
O          9.42355       -5.15764       -1.82782
H          9.41356       -4.23235       -1.57982
H          9.43500       -5.15749       -2.78575
O        -12.91918       -4.53484       -2.42120
H        -12.92916       -3.60955       -2.17320
H        -12.90773       -4.53469       -3.37913
O        -13.05468        3.86364        2.41357
H        -13.06466        4.78893        2.66157
H        -13.04323        3.86379        1.45564
O         -8.00781        2.60118        0.02078
H         -7.99636        2.60134       -0.93716
H         -8.01779        3.52647        0.26878
O         -5.20417        4.47382       -2.30023
H         -5.21415        5.39911       -2.05224
H         -5.19272        4.47398       -3.25817
O         11.95972        0.60334       -6.73571
H         12.55252        1.31122       -6.99118
H         11.91442        0.02938       -7.50139
O          7.70115        1.45007       -6.25797
H          8.38563        2.04549       -6.56573
H          7.54126        0.85555       -6.99196
O          4.63516        1.98623       -5.99875
H          4.84957        2.08781       -6.92690
H          4.96724        1.11966       -5.76095
O          1.91017        2.26086       -6.35421
H          2.43547        2.74966       -6.98894
H          1.93631        1.35261       -6.65779
O         -1.46179        2.37290       -5.58113
H         -0.77731        2.96832       -5.88889
H         -1.62168        1.77838       -6.31512
O         -4.40407        2.75757       -5.85265
H         -3.71959        3.35299       -6.16041
H         -4.56396        2.16305       -6.58664
O         -7.19328        3.35533       -6.17303
H         -6.72541        3.51048       -6.99448
H         -7.00927        2.44161       -5.95164
O        -10.06392        3.52608       -6.03047
H         -9.49396        3.39807       -6.78975
H        -10.95496        3.49131       -6.38063
O        -12.96434        3.88828       -5.50057
H        -12.73322        3.98832       -6.42487
H        -12.57262        3.05508       -5.23580
O         13.30359       -1.35686        5.73782
H         13.98807       -0.76144        5.43006
H         13.14370       -1.95138        5.00383
O         11.29447       -1.03369        6.27309
H         10.68276       -1.58502        6.76258
H         10.94034       -0.99966        5.38359
O          8.20420       -1.10188        5.86320
H          7.82207       -0.59428        6.58019
H          7.83109       -0.72429        5.06572
O          0.39629       -0.07052        6.76646
H          1.08077        0.52490        6.45870
H          0.23640       -0.66504        6.03247
O         -1.96077        0.19339        5.78947
H         -2.09543        1.11245        5.55505
H         -1.45845       -0.17687        5.06260
O         -4.04435        1.03593        3.44680
H         -3.35987        1.63135        3.13904
H         -4.20424        0.44141        2.71281
O         -9.71661        1.08391        6.76138
H         -9.03213        1.67933        6.45362
H         -9.87650        0.48939        6.02739
O        -12.90126        1.41824        6.92141
H        -12.21678        2.01366        6.61365
H        -13.06115        0.82372        6.18742
O          1.47571       -2.57750       -5.30107
H          2.16019       -1.98208       -5.60883
H          1.31582       -3.17202       -6.03506
O          0.71055       -4.78489        6.83949
H          1.39503       -4.18947        6.53173
H          0.55066       -5.37941        6.10550
O          0.85261        3.06078        6.52481
H          1.53709        3.65620        6.21705
H          0.69272        2.46626        5.79082
O          1.01195        5.74626        4.80408
H          1.67797        5.49169        5.44390
H          1.23341        5.26009        4.00887
O          5.71441        3.55394       -3.76480
H          5.53786        2.93196       -3.05789
H          6.03158        3.01825       -4.49295
O          5.35880        3.83525        5.22653
H          6.04328        4.43067        4.91877
H          5.19891        3.24073        4.49254
O          3.26464        0.03767       -2.09978
H          3.94912        0.63309       -2.40754
H          3.10475       -0.55685       -2.83377
O         -2.32722        0.66093       -7.88135
H         -2.80101        1.42676       -7.55459
H         -1.59738        0.54238       -7.27222
O          9.71702       -1.79549       -6.86444
H          9.17371       -2.06392       -7.60641
H          9.12585       -1.31147       -6.28651
O         -2.87948        5.07707        7.09908
H         -3.25862        4.59034        6.36620
H         -2.94666        4.48634        7.85027
O         -1.29895        4.32414       -6.37613
H         -1.68995        4.29897       -7.25033
H         -2.04148        4.29546       -5.77148
O          0.60910       -4.75830       -6.82510
H          1.29358       -4.16288       -7.13286
H          0.44921       -5.35282       -7.55909
O          0.74665       -1.63924       -0.93777
H          1.43113       -1.04382       -1.24553
H          0.58676       -2.23376       -1.67176
O         -4.09175       -2.34594        2.08560
H         -3.40727       -1.75052        1.77784
H         -4.25164       -2.94046        1.35161
O         -3.47593       -1.52496        5.21893
H         -2.79145       -0.92954        4.91117
H         -3.63582       -2.11948        4.48494
O        -12.12125       -5.35778        5.02466
H        -11.43677       -4.76236        4.71690
H        -12.28114       -5.95230        4.29067
O         -9.42893       -0.35739       -2.20754
H         -9.43892        0.56790       -1.95954
O         11.11513       -4.80068        2.31416
H         11.10515       -3.87539        2.56216
