1030 

C      -10.784920     -5.892780    -10.759350
C       -8.246410     -5.905700    -10.705210
C       -9.501810     -5.157610    -11.215510
H       -8.269420     -5.926740     -9.590180
H       -8.194050     -2.944200    -12.260270
C       -8.221210     -2.965810    -11.145300
C       -9.506370     -3.700850    -10.693650
H       -9.477060     -5.138150    -12.330550
C      -10.758710     -2.952390    -11.209960
C      -12.045840     -3.684440    -10.757590
C      -12.040930     -5.147570    -11.273610
H      -12.013580     -5.131780    -12.388660
H      -10.809990     -5.910400     -9.644380
H       -9.533860     -3.720350     -9.578720
H      -10.730110     -2.934410    -12.324870
H      -12.072990     -3.700320     -9.642560
C      -10.760780     -1.495280    -10.688700
C       -8.224540     -1.510040    -10.619900
C       -9.473430     -0.760600    -11.137250
C      -12.007540     -0.744830    -11.209970
H      -10.792540     -1.513470     -9.573860
H       -8.254230     -1.531510     -9.505030
H      -11.973530     -0.728160    -12.325070
H       -9.442100     -0.741030    -12.252310
C      -13.303060     -1.472110    -10.763930
C      -13.301870     -2.934810    -11.273890
C      -13.328480     -5.883840    -10.819540
C      -14.531020     -0.700850    -11.285800
C      -14.571010     -3.681140    -10.821340
C      -14.565940     -5.124470    -11.334010
H      -14.544520     -0.699750    -12.397960
H      -13.344730     -1.484400     -9.650420
H      -13.281810     -2.922390    -12.388010
H      -14.646830     -3.682580     -9.711760
H      -14.587010     -5.122600    -12.445960
H      -13.363250     -5.895930     -9.705840
C      -14.523320      0.744300    -10.775240
C      -13.241500      1.464590    -11.206780
C      -12.003380      0.716130    -10.691200
C      -10.719390      1.440810    -11.130290
C       -9.475920      0.697850    -10.615090
C       -8.192220      1.426630    -11.052290
H      -14.604780      0.751820     -9.667040
H      -12.037460      0.711860     -9.578250
H       -9.509350      0.690980     -9.502220
H      -13.217910      1.535340    -12.316690
H      -10.685200      1.509600    -12.241110
H       -8.159010      1.499300    -12.162830
C       -8.241390      5.896230    -11.229780
C       -9.520400      5.160260    -10.770140
C      -10.777240      5.907860    -11.279880
H       -8.220810      5.917100    -12.344910
C       -9.513590      3.701300    -11.290940
H       -9.541480      5.141620     -9.654900
C      -10.787830      2.971930    -10.835340
C      -12.041290      3.709440    -11.336990
C      -12.055550      5.170830    -10.819640
H       -9.494620      3.707220    -12.404190
H      -10.755240      5.925580    -12.394990
H      -12.076160      5.154750     -9.704200
H      -12.020840      3.713040    -12.450310
H      -10.807940      2.904220     -9.724130
C       -8.259150      2.959990    -10.793840
H       -8.276830      2.889160     -9.682880
C      -13.319960      5.911260    -11.328900
C      -13.310970      2.974380    -10.882740
C      -14.580120      5.153180    -10.868070
C      -14.562330      3.707640    -11.377280
H      -13.306740      5.923260    -12.443150
H      -14.648450      5.153040     -9.757960
H      -14.589080      3.700080    -12.488160
H      -13.342800      2.904370     -9.772980
C       -3.185920     -5.892780    -10.759350
C       -0.647410     -5.905700    -10.705210
C       -1.902810     -5.157610    -11.215510
H       -0.670420     -5.926740     -9.590180
H       -0.595050     -2.944200    -12.260270
C       -0.622210     -2.965810    -11.145300
C       -1.907370     -3.700850    -10.693650
H       -1.878060     -5.138150    -12.330550
C       -3.159710     -2.952390    -11.209960
C       -4.446840     -3.684440    -10.757590
C       -4.441930     -5.147570    -11.273610
H       -4.414580     -5.131780    -12.388660
H       -3.210990     -5.910400     -9.644380
H       -1.934860     -3.720350     -9.578720
H       -3.131110     -2.934410    -12.324870
H       -4.473990     -3.700320     -9.642560
C       -3.161780     -1.495280    -10.688700
C       -0.625540     -1.510040    -10.619900
C       -1.874430     -0.760600    -11.137250
C       -4.408540     -0.744830    -11.209970
H       -3.193540     -1.513470     -9.573860
H       -0.655230     -1.531510     -9.505030
H       -4.374530     -0.728160    -12.325070
H       -1.843100     -0.741030    -12.252310
C       -5.704060     -1.472110    -10.763930
C       -5.702870     -2.934810    -11.273890
C       -5.729480     -5.883840    -10.819540
C       -6.932020     -0.700850    -11.285800
C       -6.972010     -3.681140    -10.821340
C       -6.966940     -5.124470    -11.334010
H       -6.945520     -0.699750    -12.397960
H       -5.745730     -1.484400     -9.650420
H       -5.682810     -2.922390    -12.388010
H       -7.047830     -3.682580     -9.711760
H       -6.988010     -5.122600    -12.445960
H       -5.764250     -5.895930     -9.705840
C       -6.924320      0.744300    -10.775240
C       -5.642500      1.464590    -11.206780
C       -4.404380      0.716130    -10.691200
C       -3.120390      1.440810    -11.130290
C       -1.876920      0.697850    -10.615090
C       -0.593220      1.426630    -11.052290
H       -7.005780      0.751820     -9.667040
H       -4.438460      0.711860     -9.578250
H       -1.910350      0.690980     -9.502220
H       -5.618910      1.535340    -12.316690
H       -3.086200      1.509600    -12.241110
H       -0.560010      1.499300    -12.162830
C       -0.642390      5.896230    -11.229780
C       -1.921400      5.160260    -10.770140
C       -3.178240      5.907860    -11.279880
H       -0.621810      5.917100    -12.344910
C       -1.914590      3.701300    -11.290940
H       -1.942480      5.141620     -9.654900
C       -3.188830      2.971930    -10.835340
C       -4.442290      3.709440    -11.336990
C       -4.456550      5.170830    -10.819640
H       -1.895620      3.707220    -12.404190
H       -3.156240      5.925580    -12.394990
H       -4.477160      5.154750     -9.704200
H       -4.421840      3.713040    -12.450310
H       -3.208940      2.904220     -9.724130
C       -0.660150      2.959990    -10.793840
H       -0.677830      2.889160     -9.682880
C       -5.720960      5.911260    -11.328900
C       -5.711970      2.974380    -10.882740
C       -6.981120      5.153180    -10.868070
C       -6.963330      3.707640    -11.377280
H       -5.707740      5.923260    -12.443150
H       -7.049450      5.153040     -9.757960
H       -6.990080      3.700080    -12.488160
H       -5.743800      2.904370     -9.772980
C        4.413080     -5.892780    -10.759350
C        6.951590     -5.905700    -10.705210
C        5.696190     -5.157610    -11.215510
H        6.928580     -5.926740     -9.590180
H        7.003950     -2.944200    -12.260270
C        6.976790     -2.965810    -11.145300
C        5.691630     -3.700850    -10.693650
H        5.720940     -5.138150    -12.330550
C        4.439290     -2.952390    -11.209960
C        3.152160     -3.684440    -10.757590
C        3.157070     -5.147570    -11.273610
H        3.184420     -5.131780    -12.388660
H        4.388010     -5.910400     -9.644380
H        5.664140     -3.720350     -9.578720
H        4.467890     -2.934410    -12.324870
H        3.125010     -3.700320     -9.642560
C        4.437220     -1.495280    -10.688700
C        6.973460     -1.510040    -10.619900
C        5.724570     -0.760600    -11.137250
C        3.190460     -0.744830    -11.209970
H        4.405460     -1.513470     -9.573860
H        6.943770     -1.531510     -9.505030
H        3.224470     -0.728160    -12.325070
H        5.755900     -0.741030    -12.252310
C        1.894940     -1.472110    -10.763930
C        1.896130     -2.934810    -11.273890
C        1.869520     -5.883840    -10.819540
C        0.666980     -0.700850    -11.285800
C        0.626990     -3.681140    -10.821340
C        0.632060     -5.124470    -11.334010
H        0.653480     -0.699750    -12.397960
H        1.853270     -1.484400     -9.650420
H        1.916190     -2.922390    -12.388010
H        0.551170     -3.682580     -9.711760
H        0.610990     -5.122600    -12.445960
H        1.834750     -5.895930     -9.705840
C        0.674680      0.744300    -10.775240
C        1.956500      1.464590    -11.206780
C        3.194620      0.716130    -10.691200
C        4.478610      1.440810    -11.130290
C        5.722080      0.697850    -10.615090
C        7.005780      1.426630    -11.052290
H        0.593220      0.751820     -9.667040
H        3.160540      0.711860     -9.578250
H        5.688650      0.690980     -9.502220
H        1.980090      1.535340    -12.316690
H        4.512800      1.509600    -12.241110
H        7.038990      1.499300    -12.162830
C        6.956610      5.896230    -11.229780
C        5.677600      5.160260    -10.770140
C        4.420760      5.907860    -11.279880
H        6.977190      5.917100    -12.344910
C        5.684410      3.701300    -11.290940
H        5.656520      5.141620     -9.654900
C        4.410170      2.971930    -10.835340
C        3.156710      3.709440    -11.336990
C        3.142450      5.170830    -10.819640
H        5.703380      3.707220    -12.404190
H        4.442760      5.925580    -12.394990
H        3.121840      5.154750     -9.704200
H        3.177160      3.713040    -12.450310
H        4.390060      2.904220     -9.724130
C        6.938850      2.959990    -10.793840
H        6.921170      2.889160     -9.682880
C        1.878040      5.911260    -11.328900
C        1.887030      2.974380    -10.882740
C        0.617880      5.153180    -10.868070
C        0.635670      3.707640    -11.377280
H        1.891260      5.923260    -12.443150
H        0.549550      5.153040     -9.757960
H        0.608920      3.700080    -12.488160
H        1.855200      2.904370     -9.772980
C       12.012080     -5.892780    -10.759350
C       14.550590     -5.905700    -10.705210
C       13.295190     -5.157610    -11.215510
H       14.527580     -5.926740     -9.590180
H       14.602950     -2.944200    -12.260270
C       14.575790     -2.965810    -11.145300
C       13.290630     -3.700850    -10.693650
H       13.319940     -5.138150    -12.330550
C       12.038290     -2.952390    -11.209960
C       10.751160     -3.684440    -10.757590
C       10.756070     -5.147570    -11.273610
H       10.783420     -5.131780    -12.388660
H       11.987010     -5.910400     -9.644380
H       13.263140     -3.720350     -9.578720
H       12.066890     -2.934410    -12.324870
H       10.724010     -3.700320     -9.642560
C       12.036220     -1.495280    -10.688700
C       14.572460     -1.510040    -10.619900
C       13.323570     -0.760600    -11.137250
C       10.789460     -0.744830    -11.209970
H       12.004460     -1.513470     -9.573860
H       14.542770     -1.531510     -9.505030
H       10.823470     -0.728160    -12.325070
H       13.354900     -0.741030    -12.252310
C        9.493940     -1.472110    -10.763930
C        9.495130     -2.934810    -11.273890
C        9.468520     -5.883840    -10.819540
C        8.265980     -0.700850    -11.285800
C        8.225990     -3.681140    -10.821340
C        8.231060     -5.124470    -11.334010
H        8.252480     -0.699750    -12.397960
H        9.452270     -1.484400     -9.650420
H        9.515190     -2.922390    -12.388010
H        8.150170     -3.682580     -9.711760
H        8.209990     -5.122600    -12.445960
H        9.433750     -5.895930     -9.705840
C        8.273680      0.744300    -10.775240
C        9.555500      1.464590    -11.206780
C       10.793620      0.716130    -10.691200
C       12.077610      1.440810    -11.130290
C       13.321080      0.697850    -10.615090
C       14.604780      1.426630    -11.052290
H        8.192220      0.751820     -9.667040
H       10.759540      0.711860     -9.578250
H       13.287650      0.690980     -9.502220
H        9.579090      1.535340    -12.316690
H       12.111800      1.509600    -12.241110
H       14.637990      1.499300    -12.162830
C       14.555610      5.896230    -11.229780
C       13.276600      5.160260    -10.770140
C       12.019760      5.907860    -11.279880
H       14.576190      5.917100    -12.344910
C       13.283410      3.701300    -11.290940
H       13.255520      5.141620     -9.654900
C       12.009170      2.971930    -10.835340
C       10.755710      3.709440    -11.336990
C       10.741450      5.170830    -10.819640
H       13.302380      3.707220    -12.404190
H       12.041760      5.925580    -12.394990
H       10.720840      5.154750     -9.704200
H       10.776160      3.713040    -12.450310
H       11.989060      2.904220     -9.724130
C       14.537850      2.959990    -10.793840
H       14.520170      2.889160     -9.682880
C        9.477040      5.911260    -11.328900
C        9.486030      2.974380    -10.882740
C        8.216880      5.153180    -10.868070
C        8.234670      3.707640    -11.377280
H        9.490260      5.923260    -12.443150
H        8.148550      5.153040     -9.757960
H        8.207920      3.700080    -12.488160
H        9.454200      2.904370     -9.772980
C      -10.784920     -5.892780     11.240650
C       -8.246410     -5.905700     11.294790
C       -9.501810     -5.157610     10.784490
H       -8.269420     -5.926740     12.409820
H       -8.194050     -2.944200      9.739730
C       -8.221210     -2.965810     10.854700
C       -9.506370     -3.700850     11.306350
H       -9.477060     -5.138150      9.669450
C      -10.758710     -2.952390     10.790040
C      -12.045840     -3.684440     11.242410
C      -12.040930     -5.147570     10.726390
H      -12.013580     -5.131780      9.611340
H      -10.809990     -5.910400     12.355620
H       -9.533860     -3.720350     12.421280
H      -10.730110     -2.934410      9.675130
H      -12.072990     -3.700320     12.357440
C      -10.760780     -1.495280     11.311300
C       -8.224540     -1.510040     11.380100
C       -9.473430     -0.760600     10.862750
C      -12.007540     -0.744830     10.790030
H      -10.792540     -1.513470     12.426140
H       -8.254230     -1.531510     12.494970
H      -11.973530     -0.728160      9.674930
H       -9.442100     -0.741030      9.747690
C      -13.303060     -1.472110     11.236070
C      -13.301870     -2.934810     10.726110
C      -13.328480     -5.883840     11.180460
C      -14.531020     -0.700850     10.714200
C      -14.571010     -3.681140     11.178660
C      -14.565940     -5.124470     10.665990
H      -14.544520     -0.699750      9.602040
H      -13.344730     -1.484400     12.349580
H      -13.281810     -2.922390      9.611990
H      -14.646830     -3.682580     12.288240
H      -14.587010     -5.122600      9.554040
H      -13.363250     -5.895930     12.294160
C      -14.523320      0.744300     11.224760
C      -13.241500      1.464590     10.793220
C      -12.003380      0.716130     11.308800
C      -10.719390      1.440810     10.869710
C       -9.475920      0.697850     11.384910
C       -8.192220      1.426630     10.947710
H      -14.604780      0.751820     12.332960
H      -12.037460      0.711860     12.421750
H       -9.509350      0.690980     12.497780
H      -13.217910      1.535340      9.683310
H      -10.685200      1.509600      9.758890
H       -8.159010      1.499300      9.837170
C       -8.241390      5.896230     10.770220
C       -9.520400      5.160260     11.229860
C      -10.777240      5.907860     10.720120
H       -8.220810      5.917100      9.655090
C       -9.513590      3.701300     10.709060
H       -9.541480      5.141620     12.345100
C      -10.787830      2.971930     11.164660
C      -12.041290      3.709440     10.663010
C      -12.055550      5.170830     11.180360
H       -9.494620      3.707220      9.595810
H      -10.755240      5.925580      9.605010
H      -12.076160      5.154750     12.295800
H      -12.020840      3.713040      9.549690
H      -10.807940      2.904220     12.275870
C       -8.259150      2.959990     11.206160
H       -8.276830      2.889160     12.317120
C      -13.319960      5.911260     10.671100
C      -13.310970      2.974380     11.117260
C      -14.580120      5.153180     11.131930
C      -14.562330      3.707640     10.622720
H      -13.306740      5.923260      9.556850
H      -14.648450      5.153040     12.242040
H      -14.589080      3.700080      9.511840
H      -13.342800      2.904370     12.227020
C       -3.185920     -5.892780     11.240650
C       -0.647410     -5.905700     11.294790
C       -1.902810     -5.157610     10.784490
H       -0.670420     -5.926740     12.409820
H       -0.595050     -2.944200      9.739730
C       -0.622210     -2.965810     10.854700
C       -1.907370     -3.700850     11.306350
H       -1.878060     -5.138150      9.669450
C       -3.159710     -2.952390     10.790040
C       -4.446840     -3.684440     11.242410
C       -4.441930     -5.147570     10.726390
H       -4.414580     -5.131780      9.611340
H       -3.210990     -5.910400     12.355620
H       -1.934860     -3.720350     12.421280
H       -3.131110     -2.934410      9.675130
H       -4.473990     -3.700320     12.357440
C       -3.161780     -1.495280     11.311300
C       -0.625540     -1.510040     11.380100
C       -1.874430     -0.760600     10.862750
C       -4.408540     -0.744830     10.790030
H       -3.193540     -1.513470     12.426140
H       -0.655230     -1.531510     12.494970
H       -4.374530     -0.728160      9.674930
H       -1.843100     -0.741030      9.747690
C       -5.704060     -1.472110     11.236070
C       -5.702870     -2.934810     10.726110
C       -5.729480     -5.883840     11.180460
C       -6.932020     -0.700850     10.714200
C       -6.972010     -3.681140     11.178660
C       -6.966940     -5.124470     10.665990
H       -5.745730     -1.484400     12.349580
H       -5.682810     -2.922390      9.611990
H       -7.047830     -3.682580     12.288240
H       -6.988010     -5.122600      9.554040
H       -5.764250     -5.895930     12.294160
C       -6.924320      0.744300     11.224760
C       -5.642500      1.464590     10.793220
C       -4.404380      0.716130     11.308800
C       -3.120390      1.440810     10.869710
C       -1.876920      0.697850     11.384910
C       -0.593220      1.426630     10.947710
H       -7.005780      0.751820     12.332960
H       -4.438460      0.711860     12.421750
H       -1.910350      0.690980     12.497780
H       -5.618910      1.535340      9.683310
H       -3.086200      1.509600      9.758890
H       -0.560010      1.499300      9.837170
C       -0.642390      5.896230     10.770220
C       -1.921400      5.160260     11.229860
C       -3.178240      5.907860     10.720120
H       -0.621810      5.917100      9.655090
C       -1.914590      3.701300     10.709060
H       -1.942480      5.141620     12.345100
C       -3.188830      2.971930     11.164660
C       -4.442290      3.709440     10.663010
C       -4.456550      5.170830     11.180360
H       -1.895620      3.707220      9.595810
H       -3.156240      5.925580      9.605010
H       -4.477160      5.154750     12.295800
H       -4.421840      3.713040      9.549690
H       -3.208940      2.904220     12.275870
C       -0.660150      2.959990     11.206160
H       -0.677830      2.889160     12.317120
C       -5.720960      5.911260     10.671100
C       -5.711970      2.974380     11.117260
C       -6.981120      5.153180     11.131930
C       -6.963330      3.707640     10.622720
H       -5.707740      5.923260      9.556850
H       -7.049450      5.153040     12.242040
H       -6.990080      3.700080      9.511840
H       -5.743800      2.904370     12.227020
C        4.413080     -5.892780     11.240650
C        6.951590     -5.905700     11.294790
C        5.696190     -5.157610     10.784490
H        6.928580     -5.926740     12.409820
H        7.003950     -2.944200      9.739730
C        6.976790     -2.965810     10.854700
C        5.691630     -3.700850     11.306350
H        5.720940     -5.138150      9.669450
C        4.439290     -2.952390     10.790040
C        3.152160     -3.684440     11.242410
C        3.157070     -5.147570     10.726390
H        3.184420     -5.131780      9.611340
H        4.388010     -5.910400     12.355620
H        5.664140     -3.720350     12.421280
H        4.467890     -2.934410      9.675130
H        3.125010     -3.700320     12.357440
C        4.437220     -1.495280     11.311300
C        6.973460     -1.510040     11.380100
C        5.724570     -0.760600     10.862750
C        3.190460     -0.744830     10.790030
H        4.405460     -1.513470     12.426140
H        6.943770     -1.531510     12.494970
H        3.224470     -0.728160      9.674930
H        5.755900     -0.741030      9.747690
C        1.894940     -1.472110     11.236070
C        1.896130     -2.934810     10.726110
C        1.869520     -5.883840     11.180460
C        0.666980     -0.700850     10.714200
C        0.626990     -3.681140     11.178660
C        0.632060     -5.124470     10.665990
H        0.653480     -0.699750      9.602040
H        1.853270     -1.484400     12.349580
H        1.916190     -2.922390      9.611990
H        0.551170     -3.682580     12.288240
H        0.610990     -5.122600      9.554040
H        1.834750     -5.895930     12.294160
C        0.674680      0.744300     11.224760
C        1.956500      1.464590     10.793220
C        3.194620      0.716130     11.308800
C        4.478610      1.440810     10.869710
C        5.722080      0.697850     11.384910
C        7.005780      1.426630     10.947710
H        0.593220      0.751820     12.332960
H        3.160540      0.711860     12.421750
H        5.688650      0.690980     12.497780
H        1.980090      1.535340      9.683310
H        4.512800      1.509600      9.758890
H        7.038990      1.499300      9.837170
C        6.956610      5.896230     10.770220
C        5.677600      5.160260     11.229860
C        4.420760      5.907860     10.720120
H        6.977190      5.917100      9.655090
C        5.684410      3.701300     10.709060
H        5.656520      5.141620     12.345100
C        4.410170      2.971930     11.164660
C        3.156710      3.709440     10.663010
C        3.142450      5.170830     11.180360
H        5.703380      3.707220      9.595810
H        4.442760      5.925580      9.605010
H        3.121840      5.154750     12.295800
H        3.177160      3.713040      9.549690
H        4.390060      2.904220     12.275870
C        6.938850      2.959990     11.206160
H        6.921170      2.889160     12.317120
C        1.878040      5.911260     10.671100
C        1.887030      2.974380     11.117260
C        0.617880      5.153180     11.131930
C        0.635670      3.707640     10.622720
H        1.891260      5.923260      9.556850
H        0.549550      5.153040     12.242040
H        0.608920      3.700080      9.511840
H        1.855200      2.904370     12.227020
C       12.012080     -5.892780     11.240650
C       14.550590     -5.905700     11.294790
C       13.295190     -5.157610     10.784490
H       14.527580     -5.926740     12.409820
H       14.602950     -2.944200      9.739730
C       14.575790     -2.965810     10.854700
C       13.290630     -3.700850     11.306350
H       13.319940     -5.138150      9.669450
C       12.038290     -2.952390     10.790040
C       10.751160     -3.684440     11.242410
C       10.756070     -5.147570     10.726390
H       10.783420     -5.131780      9.611340
H       11.987010     -5.910400     12.355620
H       13.263140     -3.720350     12.421280
H       12.066890     -2.934410      9.675130
H       10.724010     -3.700320     12.357440
C       12.036220     -1.495280     11.311300
C       14.572460     -1.510040     11.380100
C       13.323570     -0.760600     10.862750
C       10.789460     -0.744830     10.790030
H       12.004460     -1.513470     12.426140
H       14.542770     -1.531510     12.494970
H       10.823470     -0.728160      9.674930
H       13.354900     -0.741030      9.747690
C        9.493940     -1.472110     11.236070
C        9.495130     -2.934810     10.726110
C        9.468520     -5.883840     11.180460
C        8.265980     -0.700850     10.714200
C        8.225990     -3.681140     11.178660
C        8.231060     -5.124470     10.665990
H        9.452270     -1.484400     12.349580
H        9.515190     -2.922390      9.611990
H        8.150170     -3.682580     12.288240
H        8.209990     -5.122600      9.554040
H        9.433750     -5.895930     12.294160
C        8.273680      0.744300     11.224760
C        9.555500      1.464590     10.793220
C       10.793620      0.716130     11.308800
C       12.077610      1.440810     10.869710
C       13.321080      0.697850     11.384910
C       14.604780      1.426630     10.947710
H        8.192220      0.751820     12.332960
H       10.759540      0.711860     12.421750
H       13.287650      0.690980     12.497780
H        9.579090      1.535340      9.683310
H       12.111800      1.509600      9.758890
H       14.637990      1.499300      9.837170
C       14.555610      5.896230     10.770220
C       13.276600      5.160260     11.229860
C       12.019760      5.907860     10.720120
H       14.576190      5.917100      9.655090
C       13.283410      3.701300     10.709060
H       13.255520      5.141620     12.345100
C       12.009170      2.971930     11.164660
C       10.755710      3.709440     10.663010
C       10.741450      5.170830     11.180360
H       13.302380      3.707220      9.595810
H       12.041760      5.925580      9.605010
H       10.720840      5.154750     12.295800
H       10.776160      3.713040      9.549690
H       11.989060      2.904220     12.275870
C       14.537850      2.959990     11.206160
H       14.520170      2.889160     12.317120
C        9.477040      5.911260     10.671100
C        9.486030      2.974380     11.117260
C        8.216880      5.153180     11.131930
C        8.234670      3.707640     10.622720
H        9.490260      5.923260      9.556850
H        8.148550      5.153040     12.242040
H        8.207920      3.700080      9.511840
H        9.454200      2.904370     12.227020
C       -9.140955     -2.022827      4.811401
C       -9.196565     -1.843047      6.295911
H       -9.371105     -2.830847      6.782371
H      -10.063525     -1.192857      6.557601
C       -7.933605     -1.222757      6.939991
H       -7.050145     -1.867537      6.754711
H       -7.743615     -0.212207      6.523981
C       -8.114205     -1.087077      8.457541
H       -8.285925     -2.141177      8.764961
H       -9.001725     -0.421657      8.526041
C       -6.876855     -0.481767      9.110031
H       -5.988975     -1.128127      8.942841
H       -6.679675      0.535643      8.710041
H       -8.386965     -2.641387      4.541171
H       -9.036945     -1.135827      4.335411
C      -10.462065     -2.654207      4.364191
H      -11.293145     -1.993207      4.635461
H      -10.589685     -3.623647      4.859271
N      -10.444575     -2.846827      2.905961
C      -11.713925     -3.453427      2.476271
H      -11.700885     -3.596967      1.389781
H      -12.544985     -2.792397      2.747511
H      -11.841585     -4.422857      2.971371
C       -9.329115     -3.733997      2.541921
H       -8.383385     -3.282027      2.862141
H       -9.316065     -3.877487      1.455441
H       -9.456835     -4.703437      3.036981
C      -10.273205     -1.545667      2.241541
H       -9.327455     -1.093727      2.561741
H      -11.104305     -0.884687      2.512821
H      -10.260175     -1.689177      1.155061
C        6.057045     -2.022827      4.811401
C        6.001435     -1.843047      6.295911
H        5.826895     -2.830847      6.782371
H        5.134475     -1.192857      6.557601
C        7.264395     -1.222757      6.939991
H        8.147855     -1.867537      6.754711
H        7.454385     -0.212207      6.523981
C        7.083795     -1.087077      8.457541
H        6.912075     -2.141177      8.764961
H        6.196275     -0.421657      8.526041
C        8.321145     -0.481767      9.110031
H        9.209025     -1.128127      8.942841
H        8.518325      0.535643      8.710041
H        6.811035     -2.641387      4.541171
H        6.161055     -1.135827      4.335411
C        4.735935     -2.654207      4.364191
H        3.904855     -1.993207      4.635461
H        4.608315     -3.623647      4.859271
N        4.753425     -2.846827      2.905961
C        3.484085     -3.453427      2.476271
H        3.497125     -3.596967      1.389781
H        2.653015     -2.792397      2.747511
H        3.356415     -4.422857      2.971371
C        5.868885     -3.733997      2.541921
H        6.814615     -3.282027      2.862141
H        5.881935     -3.877487      1.455441
H        5.741165     -4.703437      3.036981
C        4.924795     -1.545667      2.241541
H        5.870545     -1.093727      2.561741
H        4.093695     -0.884687      2.512821
H        4.937825     -1.689177      1.155061
O       -5.703640      0.136610     -1.059300
H       -5.713620      1.061900     -0.811300
H       -5.692190      0.136770     -2.017230
O       -6.114380      1.468790     -4.229990
H       -5.349820      1.848020     -3.794790
H       -5.945410      1.576810     -5.166770
O      -13.383550      0.178680     -3.568150
H      -13.393530      1.103970     -3.320150
H      -13.372100      0.178840     -4.526080
O      -13.317230     -2.304830     -0.007260
H      -12.565130     -1.717060     -0.088600
H      -13.039920     -3.121510     -0.424270
O      -12.690870      0.580920      1.801540
H      -12.700850      1.506210      2.049540
H      -12.679420      0.581080      0.843610
O      -11.195850     -0.524220     -3.309760
H      -11.205830      0.401070     -3.061760
H      -11.184400     -0.524060     -4.267690
O      -10.763120      0.681360     -0.886290
H       -9.811530      0.658280     -0.994490
H      -11.050770     -0.221340     -1.028210
O      -10.464040      1.156290      1.763590
H      -10.867870      1.389180      0.926670
H      -10.360470      0.204410      1.732550
O      -12.882100      1.398370      4.003890
H      -11.926240      1.334450      4.007360
H      -13.189890      0.503680      3.853700
O       -9.933500      1.004990      4.015230
H      -10.199940      1.798090      3.548570
H      -10.728330      0.473510      4.074790
O       -8.739760      1.928080     -4.826850
H       -8.238960      1.449380     -5.488530
H       -9.475060      1.353930     -4.609020
O       -8.185280      1.922820     -2.352920
H       -7.335560      2.022270     -1.921810
H       -8.105790      1.124440     -2.876400
O       -8.747340      1.911450      3.406390
H       -8.757330      2.836740      3.654390
H       -8.735890      1.911610      2.448460
O       -3.676960      0.832030     -1.194140
H       -2.992480      1.427450     -1.501900
H       -3.836850      0.237510     -1.928130
O       -2.577600      0.938850      0.972380
H       -2.008250      1.666830      0.720070
H       -2.796480      0.498750      0.150090
O       -1.286090      1.031750      3.485880
H       -1.037260      1.956720      3.469330
H       -1.603640      0.844550      2.601640
O        1.014230      0.906250      3.136620
H        1.004250      1.831540      3.384620
H        1.025680      0.906410      2.178690
O       -0.089480      0.728880      1.220480
H       -0.099460      1.654170      1.468480
H       -0.078030      0.729040      0.262550
O       -1.106350      0.526430     -0.931280
H       -1.116330      1.451720     -0.683280
H       -1.094900      0.526590     -1.889210
O       -1.453780      0.582280     -3.485220
H       -1.177820      1.319950     -4.030610
H       -1.240030     -0.198480     -3.997550
O        0.347850      0.672590     -4.865100
H        1.177290      0.590200     -5.337330
H       -0.205120     -0.029130     -5.210910
O        2.731840      0.658190     -4.505420
H        3.644600      0.860000     -4.714990
H        2.611630     -0.253620     -4.773570
O        5.856750      0.512640     -4.349930
H        6.624120      0.693220     -4.894260
H        5.317270     -0.082810     -4.871630
O        5.895160      0.317520     -1.982820
H        5.885180      1.242810     -1.734820
H        5.906610      0.317680     -2.940750
O        6.205590      0.846890      0.289380
H        6.995760      1.173500     -0.142740
H        5.668210      0.485600     -0.416630
O        7.486690      1.030800      2.335650
H        8.390650      1.340820      2.402800
H        7.397340      0.720520      1.433700
O       10.405590      1.026020      3.406030
H        9.567830      1.481180      3.499560
H       10.464700      0.804080      2.475970
O        9.217640      0.821380     -0.097160
H       10.060290      1.078620      0.279050
H        9.434970      0.412730     -0.935930
O        8.571580      0.446130     -2.152870
H        7.793610      1.005080     -2.143240
H        8.721660      0.245990     -3.077640
O        9.055990      0.335000     -4.382640
H        9.910900      0.765000     -4.427250
H        8.961720     -0.117060     -5.222000
O       11.624760     -0.006030     -4.353810
H       11.614780      0.919260     -4.105810
H       11.636210     -0.005870     -5.311740
O       11.067780      0.636140     -1.881030
H       11.949210      0.841130     -1.566650
H       11.199930      0.207120     -2.727340
O       12.023930      1.024390      0.819190
H       12.932940      0.729620      0.886820
H       11.716260      0.688110     -0.023440
O       12.343120      1.039290      3.837650
H       11.934670      1.322260      3.018590
H       13.275700      0.957400      3.634300
O       11.427410      3.603910     -6.491580
H       11.307020      3.556740     -7.440820
H       10.616670      3.989900     -6.157700
O       13.676760      0.022790     -3.946220
H       13.196650      0.671470     -3.430020
H       13.548180      0.287040     -4.858030
O       13.737420      0.250880     -1.004520
H       14.353480      0.914300     -0.691300
H       13.199670      0.700500     -1.657530
O        1.329170      4.052390     -3.653680
H        1.319190      4.977680     -3.405680
H        1.340620      4.052550     -4.611610
O        1.552640      5.268670     -1.568230
H        1.242460      5.245570     -0.662130
H        1.289290      4.426830     -1.942000
O        1.361160      3.871730      1.026150
H        0.780360      4.614680      1.194820
H        1.553100      3.914920      0.088570
O        1.587400     -4.865530     -4.277170
H        1.577420     -3.940240     -4.029170
H        1.598850     -4.865370     -5.235100
O        1.089690     -5.551590      3.850540
H        1.079710     -4.626300      4.098540
H        1.101140     -5.551440      2.892610
O       -1.860010     -4.257620      3.326750
H       -2.069540     -3.495290      2.785710
H       -2.470860     -4.214240      4.063470
O        8.959790      3.370580     -2.594760
H        8.949810      4.295870     -2.346760
H        8.971240      3.370740     -3.552690
O      -10.469020     -4.650120     -3.559440
H      -10.479000     -3.724830     -3.311440
H      -10.457570     -4.649960     -4.517370
O        4.825350      4.463020     -0.065290
H        4.137460      3.796920     -0.035570
H        4.801660      4.804170     -0.960170
O        3.506170      2.694170      3.111780
H        2.818050      2.044520      3.260800
H        3.662210      2.677740      2.166720
O       -2.942180     -4.760250     -4.137880
H       -2.952160     -3.834960     -3.889880
H       -2.930730     -4.760090     -5.095810
O       -1.778220     -2.848930     -2.952440
H       -1.773190     -2.120480     -3.574610
H       -1.385450     -3.582800     -3.426710
O       -5.928120      3.798120      3.589710
H       -6.585470      3.613250      2.917780
H       -5.123750      3.388310      3.269070
O      -10.486650      4.267210      0.765480
H      -10.346510      3.940620     -0.124160
H      -10.252070      3.535770      1.337950
O       -2.885990      2.747420     -3.818200
H       -2.895970      3.672710     -3.570200
H       -2.874540      2.747580     -4.776130
O       -5.143430      4.387870      1.573450
H       -5.153410      5.313160      1.821450
H       -5.131980      4.388030      0.615520
O       -2.401310      4.645870      0.595800
H       -2.411290      5.571160      0.843800
H       -2.389860      4.646030     -0.362130
O        7.032470      3.402170      2.251540
H        7.022490      4.327460      2.499540
H        7.043920      3.402330      1.293610
O        1.955550     -0.177900      0.743740
H        1.945570      0.747390      0.991740
H        1.967000     -0.177740     -0.214190
O        1.251550      0.171410     -1.774580
H        1.241560      1.096700     -1.526580
H        1.263000      0.171560     -2.732510
O       12.215480      3.813870     -2.454400
H       12.203070      4.739470     -2.207660
H       12.236440      3.812850     -3.412170
O        9.016310      4.260240      3.443860
H        9.095560      5.183430      3.687200
H        8.927440      4.262000      2.489990
O        7.547710     -3.233940      1.436310
H        7.537730     -2.308650      1.684310
H        7.559160     -3.233780      0.478380
O        9.642940     -1.606060      3.175690
H       10.170670     -2.400100      3.269230
H        9.694560     -1.172160      4.028230
O       12.741010     -2.269860      0.258760
H       12.652270     -3.162150     -0.078470
H       13.162460     -2.368570      1.113400
O       13.240180     -4.633500     -1.636710
H       13.230200     -3.708210     -1.388710
H       13.251630     -4.633350     -2.594640
O        9.551150     -5.114210     -1.876050
H        9.541160     -4.188920     -1.628050
H        9.562600     -5.114060     -2.833980
O      -12.791580     -4.491410     -2.469430
H      -12.801560     -3.566120     -2.221430
H      -12.780130     -4.491260     -3.427360
O      -12.927080      3.907070      2.365340
H      -12.937060      4.832360      2.613340
H      -12.915630      3.907220      1.407410
O       -7.880210      2.644610     -0.027450
H       -7.868760      2.644770     -0.985390
H       -7.890190      3.569900      0.220550
O       -5.076570      4.517250     -2.348460
H       -5.086550      5.442540     -2.100470
H       -5.065120      4.517410     -3.306400
O       12.087320      0.646770     -6.783940
H       12.680120      1.354650     -7.039410
H       12.042020      0.072810     -7.549620
O        7.828750      1.493500     -6.306200
H        8.513230      2.088920     -6.613960
H        7.668860      0.898980     -7.040190
O        4.762760      2.029660     -6.046980
H        4.977170      2.131240     -6.975130
H        5.094840      1.163090     -5.809180
O        2.037770      2.304290     -6.402440
H        2.563070      2.793090     -7.037170
H        2.063910      1.396040     -6.706020
O       -1.334190      2.416330     -5.629360
H       -0.649710      3.011750     -5.937120
H       -1.494080      1.821810     -6.363350
O       -4.276470      2.801000     -5.900880
H       -3.591990      3.396420     -6.208640
H       -4.436360      2.206480     -6.634870
O       -7.065680      3.398760     -6.221260
H       -6.597810      3.553910     -7.042710
H       -6.881670      2.485040     -5.999870
O       -9.936320      3.569510     -6.078700
H       -9.366360      3.441500     -6.837980
H      -10.827360      3.534740     -6.428860
O      -12.836740      3.931710     -5.548800
H      -12.605620      4.031750     -6.473100
H      -12.445020      3.098510     -5.284030
O       13.431190     -1.313430      5.689590
H       14.115670     -0.718010      5.381830
H       13.271300     -1.907950      4.955600
O       11.422070     -0.990260      6.224860
H       10.810360     -1.541590      6.714350
H       11.067940     -0.956230      5.335360
O        0.523890     -0.027090      6.718230
H        1.208370      0.568330      6.410470
H        0.364000     -0.621610      5.984240
O       -1.833170      0.236820      5.741240
H       -1.967830      1.155880      5.506820
H       -1.330850     -0.133440      5.014370
O       -3.916750      1.079360      3.398570
H       -3.232270      1.674780      3.090810
H       -4.076640      0.484840      2.664580
O       -9.589010      1.127340      6.713150
H       -8.904530      1.722760      6.405390
H       -9.748900      0.532820      5.979160
O      -12.773660      1.461670      6.873180
H      -12.089180      2.057090      6.565420
H      -12.933550      0.867150      6.139190
O        1.603310     -2.534070     -5.349300
H        2.287790     -1.938650     -5.657060
H        1.443420     -3.128590     -6.083290
O        0.838150     -4.741460      6.791260
H        1.522630     -4.146040      6.483500
H        0.678260     -5.335980      6.057270
O        0.980210      3.104210      6.476580
H        1.664690      3.699630      6.168820
H        0.820320      2.509690      5.742590
O        5.842010      3.597370     -3.813030
H        5.665460      2.975390     -3.106120
H        6.159180      3.061680     -4.541180
O        5.486400      3.878680      5.178300
H        6.170880      4.474100      4.870540
H        5.326510      3.284160      4.444310
O        3.392240      0.081100     -2.148010
H        4.076720      0.676520     -2.455770
H        3.232350     -0.513420     -2.882000
O       -2.199620      0.704360     -7.929580
H       -2.673410      1.470190     -7.602820
H       -1.469780      0.585810     -7.320450
O        9.844620     -1.752060     -6.912670
H        9.301310     -2.020490     -7.654640
H        9.253450     -1.268040     -6.334740
O       -2.751880      5.120500      7.050850
H       -3.131020      4.633770      6.317970
H       -2.819060      4.529770      7.802040
O       -1.171350      4.367570     -6.424360
H       -1.562350      4.342400     -7.298560
H       -1.913880      4.338890     -5.819710
O        0.736700     -4.714870     -6.873330
H        1.421180     -4.119450     -7.181090
H        0.576810     -5.309390     -7.607320
O        0.874250     -1.595810     -0.986000
H        1.558730     -1.000390     -1.293760
H        0.714360     -2.190330     -1.719990
O       -3.964150     -2.302510      2.037370
H       -3.279670     -1.707090      1.729610
H       -4.124040     -2.897030      1.303380
O       -3.348330     -1.481530      5.170700
H       -2.663850     -0.886110      4.862940
H       -3.508220     -2.076050      4.436710
O       -5.966470      0.084130      1.173680
H       -6.227900      0.987590      0.991520
H       -5.013920      0.116360      1.270500
O        2.243402     -1.165802     -7.455262
H        1.687828     -0.385685     -7.432710
H        3.113522     -0.843733     -7.693860
O       -9.113310      1.372510     -7.909800
H       -8.209370      1.663940     -7.784470
H       -9.098310      0.432230     -7.726960
O       -6.119710      1.787560     -7.304540
H       -5.888590      1.887600     -8.228840
H       -5.727990      0.954360     -7.039770
O      -10.634300      0.578040     -6.081600
H      -10.759090      1.527860     -6.088110
H      -11.516210      0.212640     -6.001020
O       -7.176580     -3.908140     -7.467840
H       -7.429030     -3.250280     -6.818810
H       -6.352730     -4.273550     -7.143000
O       -9.688910     -3.741900     -5.374600
H       -9.457790     -3.641860     -6.298900
H       -9.297190     -4.575100     -5.109830
O       -2.781910     -3.611060     -0.460650
H       -2.550790     -3.511020     -1.384950
H       -2.390190     -4.444260     -0.195880
O       -0.696710     -4.784110     -2.101940
H       -0.310960     -4.505080     -2.933260
H       -0.035860     -4.576980     -1.440020
O       -8.371920     -0.475950      0.087350
H       -8.516390     -0.193180     -0.816490
H       -7.504230     -0.140650      0.316380
O       -4.649700     -1.871220     -1.249660
H       -4.371770     -1.320720     -1.982780
H       -3.836370     -2.194090     -0.859750
O       -8.457170     -3.508120     -1.092480
H       -8.434430     -3.161580     -1.985320
H       -7.667230     -3.164830     -0.673060
O        3.376480      1.706370      6.256110
H        4.315300      1.838460      6.118570
H        3.225380      0.780370      6.062540
O       -0.819340      2.180440      6.347120
H       -0.588220      2.280480      5.422820
H       -0.427620      1.347240      6.611890
O       -5.936450      2.480300      6.561460
H       -5.929010      1.599660      6.184400
H       -6.843190      2.778050      6.478150
O       -2.938230      3.624010      4.686190
H       -2.406700      2.891350      4.372450
H       -2.323860      4.352760      4.782380
O       -4.480890      2.016290      4.932970
H       -4.064660      1.172160      5.111720
H       -5.417950      1.824340      4.879550
O        2.901570     -4.549310     -1.688280
H        2.464080     -4.661960     -2.533070
H        3.833580     -4.480370     -1.898940
O        4.772040      4.141690      6.961870
H        3.955440      3.649580      7.055400
H        4.508360      5.062680      6.965670
O        4.694930      4.980750      3.075070
H        4.984330      4.441750      2.337860
H        3.740260      5.010250      3.000970
O        9.281490     -4.368430      5.212090
H        9.297090     -3.896130      4.378760
H        8.354170     -4.535550      5.385070
O       -8.481430      3.304130      7.577110
H       -8.484770      2.371800      7.797370
H       -9.369300      3.607720      7.770220
O        6.729070      2.342990      6.935890
H        7.299860      1.901200      7.565790
H        6.063470      1.693340      6.706280
O        6.343970      1.210570      4.645870
H        6.575090      1.310610      3.721570
H        6.735690      0.377370      4.910640
O       10.947250     -3.135600     -5.529000
H       11.178370     -3.035560     -6.453300
H       11.338970     -3.968800     -5.264230
O        7.077480     -1.431970     -4.944630
H        7.769180     -1.775210     -4.377640
H        7.030180     -2.046580     -5.677960
O       -6.170453     -3.716708      1.806750
H       -5.838390     -3.737282      0.908382
H       -5.391416     -3.781041      2.360589
O       -4.806782     -0.803445      5.757362
H       -5.418492     -1.354775      6.246852
H       -5.160912     -0.769415      4.867862
O       -6.427090      1.032426      3.047090
H       -7.295982      1.315157      3.334916
H       -6.516185      0.094350      2.874313
O       -5.041072     -2.548442     -4.085152
H       -5.652782     -3.099772     -3.595662
H       -5.395202     -2.514412     -4.974652
O      -11.728499      2.733133     -2.451076
H      -11.611311      3.319198     -3.199774
H      -12.493988      3.074043     -1.986767
O        6.484471     -4.483040     -6.145728
H        6.864165     -4.366734     -5.273914
H        5.574649     -4.738172     -5.987909
O       -9.301330     -0.313960     -2.255770
H       -9.311320      0.611330     -2.007770
O       11.242730     -4.757250      2.265930
H       11.232750     -3.831960      2.513930