739

C   -10.76340000   -5.92505000   -5.83460000
C   -8.22489000   -5.93797000   -5.78046000
C   -9.48029000   -5.18988000   -6.29076000
H   -8.24790000   -5.95901000   -4.66543000
H   -8.17253000   -2.97647000   -7.33552000
C   -8.19969000   -2.99808000   -6.22055000
C   -9.48485000   -3.73312000   -5.76890000
H   -9.45554000   -5.17042000   -7.40580000
C   -10.73719000   -2.98466000   -6.28521000
C   -12.02432000   -3.71671000   -5.83284000
C   -12.01941000   -5.17984000   -6.34886000
H   -11.99206000   -5.16405000   -7.46391000
H   -10.78847000   -5.94267000   -4.71963000
H   -9.51234000   -3.75262000   -4.65397000
H   -10.70859000   -2.96668000   -7.40012000
H   -12.05147000   -3.73259000   -4.71781000
C   -10.73926000   -1.52755000   -5.76395000
C   -8.20302000   -1.54231000   -5.69515000
C   -9.45191000   -0.79287000   -6.21250000
C   -11.98602000   -0.77710000   -6.28522000
H   -10.77102000   -1.54574000   -4.64911000
H   -8.23271000   -1.56378000   -4.58028000
H   -11.95201000   -0.76043000   -7.40032000
H   -9.42058000   -0.77330000   -7.32756000
C   -13.28154000   -1.50438000   -5.83918000
C   -13.28035000   -2.96708000   -6.34914000
C   -13.30696000   -5.91611000   -5.89479000
C   -14.50950000   -0.73312000   -6.36105000
C   -14.54949000   -3.71341000   -5.89659000
C   -14.54442000   -5.15674000   -6.40926000
H   -14.52300000   -0.73202000   -7.47321000
H   -13.32321000   -1.51667000   -4.72567000
H   -13.26029000   -2.95466000   -7.46326000
H   -14.62531000   -3.71485000   -4.78701000
H   -14.56549000   -5.15487000   -7.52121000
H   -13.34173000   -5.92820000   -4.78109000
C   -14.50180000   0.71203000   -5.85049000
C   -13.21998000   1.43232000   -6.28203000
C   -11.98186000   0.68386000   -5.76645000
C   -10.69787000   1.40854000   -6.20554000
C   -9.45440000   0.66558000   -5.69034000
C   -8.17070000   1.39436000   -6.12754000
H   -14.58326000   0.71955000   -4.74229000
H   -12.01594000   0.67959000   -4.65350000
H   -9.48783000   0.65871000   -4.57747000
H   -13.19639000   1.50307000   -7.39194000
H   -10.66368000   1.47733000   -7.31636000
H   -8.13749000   1.46703000   -7.23808000
C   -8.21987000   5.86396000   -6.30503000
C   -9.49888000   5.12799000   -5.84539000
C   -10.75572000   5.87559000   -6.35513000
H   -8.19929000   5.88483000   -7.42016000
C   -9.49207000   3.66903000   -6.36619000
H   -9.51996000   5.10935000   -4.73015000
C   -10.76631000   2.93966000   -5.91059000
C   -12.01977000   3.67717000   -6.41224000
C   -12.03403000   5.13856000   -5.89489000
H   -9.47310000   3.67495000   -7.47944000
H   -10.73372000   5.89331000   -7.47024000
H   -12.05464000   5.12248000   -4.77945000
H   -11.99932000   3.68077000   -7.52556000
H   -10.78642000   2.87195000   -4.79938000
C   -8.23763000   2.92772000   -5.86909000
H   -8.25531000   2.85689000   -4.75813000
C   -13.29844000   5.87899000   -6.40415000
C   -13.28945000   2.94211000   -5.95799000
C   -14.55860000   5.12091000   -5.94332000
C   -14.54081000   3.67537000   -6.45253000
H   -13.28522000   5.89099000   -7.51840000
H   -14.62693000   5.12077000   -4.83321000
H   -14.56756000   3.66781000   -7.56341000
H   -13.32128000   2.87210000   -4.84823000
C   -3.16440000   -5.92505000   -5.83460000
C   -0.62589000   -5.93797000   -5.78046000
C   -1.88129000   -5.18988000   -6.29076000
H   -0.64890000   -5.95901000   -4.66543000
H   -0.57353000   -2.97647000   -7.33552000
C   -0.60069000   -2.99808000   -6.22055000
C   -1.88585000   -3.73312000   -5.76890000
H   -1.85654000   -5.17042000   -7.40580000
C   -3.13819000   -2.98466000   -6.28521000
C   -4.42532000   -3.71671000   -5.83284000
C   -4.42041000   -5.17984000   -6.34886000
H   -4.39306000   -5.16405000   -7.46391000
H   -3.18947000   -5.94267000   -4.71963000
H   -1.91334000   -3.75262000   -4.65397000
H   -3.10959000   -2.96668000   -7.40012000
H   -4.45247000   -3.73259000   -4.71781000
C   -3.14026000   -1.52755000   -5.76395000
C   -0.60402000   -1.54231000   -5.69515000
C   -1.85291000   -0.79287000   -6.21250000
C   -4.38702000   -0.77710000   -6.28522000
H   -3.17202000   -1.54574000   -4.64911000
H   -0.63371000   -1.56378000   -4.58028000
H   -4.35301000   -0.76043000   -7.40032000
H   -1.82158000   -0.77330000   -7.32756000
C   -5.68254000   -1.50438000   -5.83918000
C   -5.68135000   -2.96708000   -6.34914000
C   -5.70796000   -5.91611000   -5.89479000
C   -6.91050000   -0.73312000   -6.36105000
C   -6.95049000   -3.71341000   -5.89659000
C   -6.94542000   -5.15674000   -6.40926000
H   -6.92400000   -0.73202000   -7.47321000
H   -5.72421000   -1.51667000   -4.72567000
H   -5.66129000   -2.95466000   -7.46326000
H   -7.02631000   -3.71485000   -4.78701000
H   -6.96649000   -5.15487000   -7.52121000
H   -5.74273000   -5.92820000   -4.78109000
C   -6.90280000   0.71203000   -5.85049000
C   -5.62098000   1.43232000   -6.28203000
C   -4.38286000   0.68386000   -5.76645000
C   -3.09887000   1.40854000   -6.20554000
C   -1.85540000   0.66558000   -5.69034000
C   -0.57170000   1.39436000   -6.12754000
H   -6.98426000   0.71955000   -4.74229000
H   -4.41694000   0.67959000   -4.65350000
H   -1.88883000   0.65871000   -4.57747000
H   -5.59739000   1.50307000   -7.39194000
H   -3.06468000   1.47733000   -7.31636000
H   -0.53849000   1.46703000   -7.23808000
C   -0.62087000   5.86396000   -6.30503000
C   -1.89988000   5.12799000   -5.84539000
C   -3.15672000   5.87559000   -6.35513000
H   -0.60029000   5.88483000   -7.42016000
C   -1.89307000   3.66903000   -6.36619000
H   -1.92096000   5.10935000   -4.73015000
C   -3.16731000   2.93966000   -5.91059000
C   -4.42077000   3.67717000   -6.41224000
C   -4.43503000   5.13856000   -5.89489000
H   -1.87410000   3.67495000   -7.47944000
H   -3.13472000   5.89331000   -7.47024000
H   -4.45564000   5.12248000   -4.77945000
H   -4.40032000   3.68077000   -7.52556000
H   -3.18742000   2.87195000   -4.79938000
C   -0.63863000   2.92772000   -5.86909000
H   -0.65631000   2.85689000   -4.75813000
C   -5.69944000   5.87899000   -6.40415000
C   -5.69045000   2.94211000   -5.95799000
C   -6.95960000   5.12091000   -5.94332000
C   -6.94181000   3.67537000   -6.45253000
H   -5.68622000   5.89099000   -7.51840000
H   -7.02793000   5.12077000   -4.83321000
H   -6.96856000   3.66781000   -7.56341000
H   -5.72228000   2.87210000   -4.84823000
C   4.43460000   -5.92505000   -5.83460000
C   6.97311000   -5.93797000   -5.78046000
C   5.71771000   -5.18988000   -6.29076000
H   6.95010000   -5.95901000   -4.66543000
H   7.02547000   -2.97647000   -7.33552000
C   6.99831000   -2.99808000   -6.22055000
C   5.71315000   -3.73312000   -5.76890000
H   5.74246000   -5.17042000   -7.40580000
C   4.46081000   -2.98466000   -6.28521000
C   3.17368000   -3.71671000   -5.83284000
C   3.17859000   -5.17984000   -6.34886000
H   3.20594000   -5.16405000   -7.46391000
H   4.40953000   -5.94267000   -4.71963000
H   5.68566000   -3.75262000   -4.65397000
H   4.48941000   -2.96668000   -7.40012000
H   3.14653000   -3.73259000   -4.71781000
C   4.45874000   -1.52755000   -5.76395000
C   6.99498000   -1.54231000   -5.69515000
C   5.74609000   -0.79287000   -6.21250000
C   3.21198000   -0.77710000   -6.28522000
H   4.42698000   -1.54574000   -4.64911000
H   6.96529000   -1.56378000   -4.58028000
H   3.24599000   -0.76043000   -7.40032000
H   5.77742000   -0.77330000   -7.32756000
C   1.91646000   -1.50438000   -5.83918000
C   1.91765000   -2.96708000   -6.34914000
C   1.89104000   -5.91611000   -5.89479000
C   0.68850000   -0.73312000   -6.36105000
C   0.64851000   -3.71341000   -5.89659000
C   0.65358000   -5.15674000   -6.40926000
H   0.67500000   -0.73202000   -7.47321000
H   1.87479000   -1.51667000   -4.72567000
H   1.93771000   -2.95466000   -7.46326000
H   0.57269000   -3.71485000   -4.78701000
H   0.63251000   -5.15487000   -7.52121000
H   1.85627000   -5.92820000   -4.78109000
C   0.69620000   0.71203000   -5.85049000
C   1.97802000   1.43232000   -6.28203000
C   3.21614000   0.68386000   -5.76645000
C   4.50013000   1.40854000   -6.20554000
C   5.74360000   0.66558000   -5.69034000
C   7.02730000   1.39436000   -6.12754000
H   0.61474000   0.71955000   -4.74229000
H   3.18206000   0.67959000   -4.65350000
H   5.71017000   0.65871000   -4.57747000
H   2.00161000   1.50307000   -7.39194000
H   4.53432000   1.47733000   -7.31636000
H   7.06051000   1.46703000   -7.23808000
C   6.97813000   5.86396000   -6.30503000
C   5.69912000   5.12799000   -5.84539000
C   4.44228000   5.87559000   -6.35513000
H   6.99871000   5.88483000   -7.42016000
C   5.70593000   3.66903000   -6.36619000
H   5.67804000   5.10935000   -4.73015000
C   4.43169000   2.93966000   -5.91059000
C   3.17823000   3.67717000   -6.41224000
C   3.16397000   5.13856000   -5.89489000
H   5.72490000   3.67495000   -7.47944000
H   4.46428000   5.89331000   -7.47024000
H   3.14336000   5.12248000   -4.77945000
H   3.19868000   3.68077000   -7.52556000
H   4.41158000   2.87195000   -4.79938000
C   6.96037000   2.92772000   -5.86909000
H   6.94269000   2.85689000   -4.75813000
C   1.89956000   5.87899000   -6.40415000
C   1.90855000   2.94211000   -5.95799000
C   0.63940000   5.12091000   -5.94332000
C   0.65719000   3.67537000   -6.45253000
H   1.91278000   5.89099000   -7.51840000
H   0.57107000   5.12077000   -4.83321000
H   0.63044000   3.66781000   -7.56341000
H   1.87672000   2.87210000   -4.84823000
C   12.03360000   -5.92505000   -5.83460000
C   14.57211000   -5.93797000   -5.78046000
C   13.31671000   -5.18988000   -6.29076000
H   14.54910000   -5.95901000   -4.66543000
H   14.62447000   -2.97647000   -7.33552000
C   14.59731000   -2.99808000   -6.22055000
C   13.31215000   -3.73312000   -5.76890000
H   13.34146000   -5.17042000   -7.40580000
C   12.05981000   -2.98466000   -6.28521000
C   10.77268000   -3.71671000   -5.83284000
C   10.77759000   -5.17984000   -6.34886000
H   10.80494000   -5.16405000   -7.46391000
H   12.00853000   -5.94267000   -4.71963000
H   13.28466000   -3.75262000   -4.65397000
H   12.08841000   -2.96668000   -7.40012000
H   10.74553000   -3.73259000   -4.71781000
C   12.05774000   -1.52755000   -5.76395000
C   14.59398000   -1.54231000   -5.69515000
C   13.34509000   -0.79287000   -6.21250000
C   10.81098000   -0.77710000   -6.28522000
H   12.02598000   -1.54574000   -4.64911000
H   14.56429000   -1.56378000   -4.58028000
H   10.84499000   -0.76043000   -7.40032000
H   13.37642000   -0.77330000   -7.32756000
C   9.51546000   -1.50438000   -5.83918000
C   9.51665000   -2.96708000   -6.34914000
C   9.49004000   -5.91611000   -5.89479000
C   8.28750000   -0.73312000   -6.36105000
C   8.24751000   -3.71341000   -5.89659000
C   8.25258000   -5.15674000   -6.40926000
H   8.27400000   -0.73202000   -7.47321000
H   9.47379000   -1.51667000   -4.72567000
H   9.53671000   -2.95466000   -7.46326000
H   8.17169000   -3.71485000   -4.78701000
H   8.23151000   -5.15487000   -7.52121000
H   9.45527000   -5.92820000   -4.78109000
C   8.29520000   0.71203000   -5.85049000
C   9.57702000   1.43232000   -6.28203000
C   10.81514000   0.68386000   -5.76645000
C   12.09913000   1.40854000   -6.20554000
C   13.34260000   0.66558000   -5.69034000
C   14.62630000   1.39436000   -6.12754000
H   8.21374000   0.71955000   -4.74229000
H   10.78106000   0.67959000   -4.65350000
H   13.30917000   0.65871000   -4.57747000
H   9.60061000   1.50307000   -7.39194000
H   12.13332000   1.47733000   -7.31636000
H   14.65951000   1.46703000   -7.23808000
C   14.57713000   5.86396000   -6.30503000
C   13.29812000   5.12799000   -5.84539000
C   12.04128000   5.87559000   -6.35513000
H   14.59771000   5.88483000   -7.42016000
C   13.30493000   3.66903000   -6.36619000
H   13.27704000   5.10935000   -4.73015000
C   12.03069000   2.93966000   -5.91059000
C   10.77723000   3.67717000   -6.41224000
C   10.76297000   5.13856000   -5.89489000
H   13.32390000   3.67495000   -7.47944000
H   12.06328000   5.89331000   -7.47024000
H   10.74236000   5.12248000   -4.77945000
H   10.79768000   3.68077000   -7.52556000
H   12.01058000   2.87195000   -4.79938000
C   14.55937000   2.92772000   -5.86909000
H   14.54169000   2.85689000   -4.75813000
C   9.49856000   5.87899000   -6.40415000
C   9.50755000   2.94211000   -5.95799000
C   8.23840000   5.12091000   -5.94332000
C   8.25619000   3.67537000   -6.45253000
H   9.51178000   5.89099000   -7.51840000
H   8.17007000   5.12077000   -4.83321000
H   8.22944000   3.66781000   -7.56341000
H   9.47572000   2.87210000   -4.84823000
C   -10.76340000   -5.92505000   6.16540000
C   -8.22489000   -5.93797000   6.21954000
C   -9.48029000   -5.18988000   5.70924000
H   -8.24790000   -5.95901000   7.33457000
H   -8.17253000   -2.97647000   4.66448000
C   -8.19969000   -2.99808000   5.77945000
C   -9.48485000   -3.73312000   6.23110000
H   -9.45554000   -5.17042000   4.59420000
C   -10.73719000   -2.98466000   5.71479000
C   -12.02432000   -3.71671000   6.16716000
C   -12.01941000   -5.17984000   5.65114000
H   -11.99206000   -5.16405000   4.53609000
H   -10.78847000   -5.94267000   7.28037000
H   -9.51234000   -3.75262000   7.34603000
H   -10.70859000   -2.96668000   4.59988000
H   -12.05147000   -3.73259000   7.28219000
C   -10.73926000   -1.52755000   6.23605000
C   -8.20302000   -1.54231000   6.30485000
C   -9.45191000   -0.79287000   5.78750000
C   -11.98602000   -0.77710000   5.71478000
H   -10.77102000   -1.54574000   7.35089000
H   -8.23271000   -1.56378000   7.41972000
H   -11.95201000   -0.76043000   4.59968000
H   -9.42058000   -0.77330000   4.67244000
C   -13.28154000   -1.50438000   6.16082000
C   -13.28035000   -2.96708000   5.65086000
C   -13.30696000   -5.91611000   6.10521000
C   -14.50950000   -0.73312000   5.63895000
C   -14.54949000   -3.71341000   6.10341000
C   -14.54442000   -5.15674000   5.59074000
H   -14.52300000   -0.73202000   4.52679000
H   -13.32321000   -1.51667000   7.27433000
H   -13.26029000   -2.95466000   4.53674000
H   -14.62531000   -3.71485000   7.21299000
H   -14.56549000   -5.15487000   4.47879000
H   -13.34173000   -5.92820000   7.21891000
C   -14.50180000   0.71203000   6.14951000
C   -13.21998000   1.43232000   5.71797000
C   -11.98186000   0.68386000   6.23355000
C   -10.69787000   1.40854000   5.79446000
C   -9.45440000   0.66558000   6.30966000
C   -8.17070000   1.39436000   5.87246000
H   -14.58326000   0.71955000   7.25771000
H   -12.01594000   0.67959000   7.34650000
H   -9.48783000   0.65871000   7.42253000
H   -13.19639000   1.50307000   4.60806000
H   -10.66368000   1.47733000   4.68364000
H   -8.13749000   1.46703000   4.76192000
C   -8.21987000   5.86396000   5.69497000
C   -9.49888000   5.12799000   6.15461000
C   -10.75572000   5.87559000   5.64487000
H   -8.19929000   5.88483000   4.57984000
C   -9.49207000   3.66903000   5.63381000
H   -9.51996000   5.10935000   7.26985000
C   -10.76631000   2.93966000   6.08941000
C   -12.01977000   3.67717000   5.58776000
C   -12.03403000   5.13856000   6.10511000
H   -9.47310000   3.67495000   4.52056000
H   -10.73372000   5.89331000   4.52976000
H   -12.05464000   5.12248000   7.22055000
H   -11.99932000   3.68077000   4.47444000
H   -10.78642000   2.87195000   7.20062000
C   -8.23763000   2.92772000   6.13091000
H   -8.25531000   2.85689000   7.24187000
C   -13.29844000   5.87899000   5.59585000
C   -13.28945000   2.94211000   6.04201000
C   -14.55860000   5.12091000   6.05668000
C   -14.54081000   3.67537000   5.54747000
H   -13.28522000   5.89099000   4.48160000
H   -14.62693000   5.12077000   7.16679000
H   -14.56756000   3.66781000   4.43659000
H   -13.32128000   2.87210000   7.15177000
C   -3.16440000   -5.92505000   6.16540000
C   -0.62589000   -5.93797000   6.21954000
C   -1.88129000   -5.18988000   5.70924000
H   -0.64890000   -5.95901000   7.33457000
H   -0.57353000   -2.97647000   4.66448000
C   -0.60069000   -2.99808000   5.77945000
C   -1.88585000   -3.73312000   6.23110000
H   -1.85654000   -5.17042000   4.59420000
C   -3.13819000   -2.98466000   5.71479000
C   -4.42532000   -3.71671000   6.16716000
C   -4.42041000   -5.17984000   5.65114000
H   -4.39306000   -5.16405000   4.53609000
H   -3.18947000   -5.94267000   7.28037000
H   -1.91334000   -3.75262000   7.34603000
H   -3.10959000   -2.96668000   4.59988000
H   -4.45247000   -3.73259000   7.28219000
C   -3.14026000   -1.52755000   6.23605000
C   -0.60402000   -1.54231000   6.30485000
C   -1.85291000   -0.79287000   5.78750000
C   -4.38702000   -0.77710000   5.71478000
H   -3.17202000   -1.54574000   7.35089000
H   -0.63371000   -1.56378000   7.41972000
H   -1.82158000   -0.77330000   4.67244000
C   -5.68254000   -1.50438000   6.16082000
C   -5.68135000   -2.96708000   5.65086000
C   -5.70796000   -5.91611000   6.10521000
C   -6.91050000   -0.73312000   5.63895000
C   -6.95049000   -3.71341000   6.10341000
C   -6.94542000   -5.15674000   5.59074000
H   -6.92400000   -0.73202000   4.52679000
H   -5.72421000   -1.51667000   7.27433000
H   -5.66129000   -2.95466000   4.53674000
H   -7.02631000   -3.71485000   7.21299000
H   -6.96649000   -5.15487000   4.47879000
H   -5.74273000   -5.92820000   7.21891000
C   -6.90280000   0.71203000   6.14951000
C   -5.62098000   1.43232000   5.71797000
C   -4.38286000   0.68386000   6.23355000
C   -3.09887000   1.40854000   5.79446000
C   -1.85540000   0.66558000   6.30966000
C   -0.57170000   1.39436000   5.87246000
H   -6.98426000   0.71955000   7.25771000
H   -4.41694000   0.67959000   7.34650000
H   -1.88883000   0.65871000   7.42253000
H   -5.59739000   1.50307000   4.60806000
H   -3.06468000   1.47733000   4.68364000
H   -0.53849000   1.46703000   4.76192000
C   -0.62087000   5.86396000   5.69497000
C   -1.89988000   5.12799000   6.15461000
C   -3.15672000   5.87559000   5.64487000
H   -0.60029000   5.88483000   4.57984000
C   -1.89307000   3.66903000   5.63381000
H   -1.92096000   5.10935000   7.26985000
C   -3.16731000   2.93966000   6.08941000
C   -4.42077000   3.67717000   5.58776000
C   -4.43503000   5.13856000   6.10511000
H   -1.87410000   3.67495000   4.52056000
H   -3.13472000   5.89331000   4.52976000
H   -4.45564000   5.12248000   7.22055000
H   -4.40032000   3.68077000   4.47444000
H   -3.18742000   2.87195000   7.20062000
C   -0.63863000   2.92772000   6.13091000
H   -0.65631000   2.85689000   7.24187000
C   -5.69944000   5.87899000   5.59585000
C   -5.69045000   2.94211000   6.04201000
C   -6.95960000   5.12091000   6.05668000
C   -6.94181000   3.67537000   5.54747000
H   -5.68622000   5.89099000   4.48160000
H   -7.02793000   5.12077000   7.16679000
H   -6.96856000   3.66781000   4.43659000
H   -5.72228000   2.87210000   7.15177000
C   4.43460000   -5.92505000   6.16540000
C   6.97311000   -5.93797000   6.21954000
C   5.71771000   -5.18988000   5.70924000
H   6.95010000   -5.95901000   7.33457000
H   7.02547000   -2.97647000   4.66448000
C   6.99831000   -2.99808000   5.77945000
C   5.71315000   -3.73312000   6.23110000
H   5.74246000   -5.17042000   4.59420000
C   4.46081000   -2.98466000   5.71479000
C   3.17368000   -3.71671000   6.16716000
C   3.17859000   -5.17984000   5.65114000
H   3.20594000   -5.16405000   4.53609000
H   4.40953000   -5.94267000   7.28037000
H   5.68566000   -3.75262000   7.34603000
H   4.48941000   -2.96668000   4.59988000
H   3.14653000   -3.73259000   7.28219000
C   4.45874000   -1.52755000   6.23605000
C   6.99498000   -1.54231000   6.30485000
C   5.74609000   -0.79287000   5.78750000
C   3.21198000   -0.77710000   5.71478000
H   4.42698000   -1.54574000   7.35089000
H   6.96529000   -1.56378000   7.41972000
H   3.24599000   -0.76043000   4.59968000
C   1.91646000   -1.50438000   6.16082000
C   1.91765000   -2.96708000   5.65086000
C   1.89104000   -5.91611000   6.10521000
C   0.68850000   -0.73312000   5.63895000
C   0.64851000   -3.71341000   6.10341000
C   0.65358000   -5.15674000   5.59074000
H   0.67500000   -0.73202000   4.52679000
H   1.87479000   -1.51667000   7.27433000
H   1.93771000   -2.95466000   4.53674000
H   0.57269000   -3.71485000   7.21299000
H   0.63251000   -5.15487000   4.47879000
H   1.85627000   -5.92820000   7.21891000
C   0.69620000   0.71203000   6.14951000
C   1.97802000   1.43232000   5.71797000
C   3.21614000   0.68386000   6.23355000
C   4.50013000   1.40854000   5.79446000
C   5.74360000   0.66558000   6.30966000
C   7.02730000   1.39436000   5.87246000
H   0.61474000   0.71955000   7.25771000
H   3.18206000   0.67959000   7.34650000
H   5.71017000   0.65871000   7.42253000
H   2.00161000   1.50307000   4.60806000
H   4.53432000   1.47733000   4.68364000
H   7.06051000   1.46703000   4.76192000
C   6.97813000   5.86396000   5.69497000
C   5.69912000   5.12799000   6.15461000
C   4.44228000   5.87559000   5.64487000
H   6.99871000   5.88483000   4.57984000
C   5.70593000   3.66903000   5.63381000
H   5.67804000   5.10935000   7.26985000
C   4.43169000   2.93966000   6.08941000
C   3.17823000   3.67717000   5.58776000
C   3.16397000   5.13856000   6.10511000
H   5.72490000   3.67495000   4.52056000
H   4.46428000   5.89331000   4.52976000
H   3.14336000   5.12248000   7.22055000
H   3.19868000   3.68077000   4.47444000
H   4.41158000   2.87195000   7.20062000
C   6.96037000   2.92772000   6.13091000
H   6.94269000   2.85689000   7.24187000
C   1.89956000   5.87899000   5.59585000
C   1.90855000   2.94211000   6.04201000
C   0.63940000   5.12091000   6.05668000
C   0.65719000   3.67537000   5.54747000
H   1.91278000   5.89099000   4.48160000
H   0.57107000   5.12077000   7.16679000
H   0.63044000   3.66781000   4.43659000
H   1.87672000   2.87210000   7.15177000
C   12.03360000   -5.92505000   6.16540000
C   14.57211000   -5.93797000   6.21954000
C   13.31671000   -5.18988000   5.70924000
H   14.54910000   -5.95901000   7.33457000
H   14.62447000   -2.97647000   4.66448000
C   14.59731000   -2.99808000   5.77945000
C   13.31215000   -3.73312000   6.23110000
H   13.34146000   -5.17042000   4.59420000
C   12.05981000   -2.98466000   5.71479000
C   10.77268000   -3.71671000   6.16716000
C   10.77759000   -5.17984000   5.65114000
H   10.80494000   -5.16405000   4.53609000
H   12.00853000   -5.94267000   7.28037000
H   13.28466000   -3.75262000   7.34603000
H   12.08841000   -2.96668000   4.59988000
H   10.74553000   -3.73259000   7.28219000
C   12.05774000   -1.52755000   6.23605000
C   14.59398000   -1.54231000   6.30485000
C   13.34509000   -0.79287000   5.78750000
C   10.81098000   -0.77710000   5.71478000
H   12.02598000   -1.54574000   7.35089000
H   14.56429000   -1.56378000   7.41972000
H   10.84499000   -0.76043000   4.59968000
H   13.37642000   -0.77330000   4.67244000
C   9.51546000   -1.50438000   6.16082000
C   9.51665000   -2.96708000   5.65086000
C   9.49004000   -5.91611000   6.10521000
C   8.28750000   -0.73312000   5.63895000
C   8.24751000   -3.71341000   6.10341000
C   8.25258000   -5.15674000   5.59074000
H   8.27400000   -0.73202000   4.52679000
H   9.47379000   -1.51667000   7.27433000
H   9.53671000   -2.95466000   4.53674000
H   8.17169000   -3.71485000   7.21299000
H   8.23151000   -5.15487000   4.47879000
H   9.45527000   -5.92820000   7.21891000
C   8.29520000   0.71203000   6.14951000
C   9.57702000   1.43232000   5.71797000
C   10.81514000   0.68386000   6.23355000
C   12.09913000   1.40854000   5.79446000
C   13.34260000   0.66558000   6.30966000
C   14.62630000   1.39436000   5.87246000
H   8.21374000   0.71955000   7.25771000
H   10.78106000   0.67959000   7.34650000
H   13.30917000   0.65871000   7.42253000
H   9.60061000   1.50307000   4.60806000
H   12.13332000   1.47733000   4.68364000
H   14.65951000   1.46703000   4.76192000
C   14.57713000   5.86396000   5.69497000
C   13.29812000   5.12799000   6.15461000
C   12.04128000   5.87559000   5.64487000
H   14.59771000   5.88483000   4.57984000
C   13.30493000   3.66903000   5.63381000
H   13.27704000   5.10935000   7.26985000
C   12.03069000   2.93966000   6.08941000
C   10.77723000   3.67717000   5.58776000
C   10.76297000   5.13856000   6.10511000
H   13.32390000   3.67495000   4.52056000
H   12.06328000   5.89331000   4.52976000
H   10.74236000   5.12248000   7.22055000
H   10.79768000   3.68077000   4.47444000
H   12.01058000   2.87195000   7.20062000
C   14.55937000   2.92772000   6.13091000
H   14.54169000   2.85689000   7.24187000
C   9.49856000   5.87899000   5.59585000
C   9.50755000   2.94211000   6.04201000
C   8.23840000   5.12091000   6.05668000
C   8.25619000   3.67537000   5.54747000
H   9.51178000   5.89099000   4.48160000
H   8.17007000   5.12077000   7.16679000
H   8.22944000   3.66781000   4.43659000
H   9.47572000   2.87210000   7.15177000
N   -4.09023701   -1.14744626   1.58798508
C   -3.99494213   -1.77878152   3.07077103
H   -4.71166188   -2.58981407   3.06893457
H   -2.93673621   -2.13693714   3.02417521
C   -4.38049127   -0.66665414   4.06524431
H   -3.81942410   0.16548263   3.82556967
H   -5.38807274   -0.39781307   3.85919476
C   -3.91250386   -2.32635777   0.64045025
H   -3.03603636   -2.21139204   0.06305547
H   -30.52816201   -5.84215449   -0.40888089
H   -4.76805305   -2.34664974   0.00077376
C   -2.92212954   -0.10751417   1.35655661
H   -1.99968106   -0.28667751   1.92743097
H   -2.65796529   -0.04779370   0.27085241
H   -3.32249275   0.84019472   1.70858469
C   -5.36423376   -0.44274289   1.23436583
H   -5.49287581   0.47824909   1.73618345
H   -5.30945371   -0.13876897   0.17802759
H   -6.23430529   -0.94440859   1.58310550
N   5.34650040   -1.34368193   1.72841681
C   6.01886867   -1.90837152   3.28397610
H   -13.42324190   3.25882780   -1.11253336
H   7.08385670   -1.85903512   2.95121660
C   5.77172328   -0.73277205   4.19175017
H   6.58489268   0.01196068   3.98463244
H   4.79555658   -0.31089634   3.88037393
C   5.75727498   -2.31699769   0.72897029
H   6.84899636   -2.38928351   0.55800785
H   5.42258104   -3.32077506   0.88614051
H   5.17914434   -2.11452723   -0.18018927
C   5.74662158   0.04047053   1.27161866
H   6.82151246   0.09825204   0.94628582
H   5.13743765   0.48097628   0.46692382
H   5.60928487   0.75070502   2.09753762
C   3.86696970   -1.40438166   1.75707245
H   3.38914087   -2.41529656   1.73148299
H   3.37765962   -0.90579581   2.57238071
H   3.53722002   -0.95950478   0.78409510
O   -13.31426903   34.44162145   2.42747437
H   -14.15778320   34.46687181   1.96650759
H   -0.36480081   15.92564298   2.74832440
O   -7.00390046   -2.76704349   -1.13431906
H   -7.16190410   -3.69889475   -1.46661584
H   -6.69762796   -2.37221779   -1.89820328
O   -4.56266682   2.76467030   1.64868645
H   -3.89170553   -3.29621749   1.32559275
H   -4.88285115   2.88171420   0.77470149
O   11.59748727   14.88775693   -1.41961774
H   11.31641031   14.54316946   -0.56389498
H   11.80751551   14.17292071   -2.10542224
O   8.28025765   -2.10005244   -2.00237839
H   8.06802387   -1.19243063   -2.12999218
H   9.06400325   -2.14339131   -2.54532762
O   20.63375631   2.08715912   1.70745112
H   2.49195650   -11.94715161   0.01922078
H   20.77946373   2.45931330   2.56945193
O   -9.62264441   6.89400888   -0.34854036
H   20.54880584   2.86252263   1.01898480
H   -8.86143201   7.39759817   -0.49641169
O   -6.63767060   9.58286351   2.49787945
H   -6.52419075   10.10435729   1.66385571
H   -5.79154495   7.73332858   1.28372325
O   -6.58545433   7.17791404   1.36461063
H   -8.99180570   -21.68968329   2.34533013
H   -7.17735431   7.57061246   2.03705810
O   22.30100650   -8.70422345   -0.93054187
H   21.39535517   -8.35813334   -1.00818711
H   22.88477145   -8.02181838   -1.31439992
O   -30.03686188   -6.68856578   -0.34859439
H   -29.07641450   -6.71855181   -0.07998990
H   -16.70679874   -32.13520764   -1.94410923
O   12.77421277   9.87731982   1.04240756
H   12.60368102   10.47115268   0.36030807
H   13.55393043   9.43930595   0.74748756
O   -37.78069935   -25.34859565   0.04589999
H   -38.32311627   -25.25132679   0.90219992
H   -13.38016864   -13.03962038   0.94877281
O   18.19594406   -8.45569980   -0.08078618
H   18.11209062   -9.16669240   0.58764755
H   19.02410959   -8.51587043   -0.53262673
O   -5.05510431   4.11232755   -0.70693212
H   -5.13084438   4.79864990   0.06735813
H   -13.36398373   33.97471364   3.26431972
O   -6.72598750   -5.44822791   -1.29190273
H   26.44683675   -34.51486751   2.33839024
H   26.34960243   -33.42214260   1.36457785
O   17.98948411   -18.60181513   -1.74863448
H   18.26016658   -19.43652518   -2.18094343
H   17.34397781   -18.87487204   -1.06838599
O   20.42749675   -45.35703836   2.17265867
H   20.69707126   -44.48726860   1.85077780
H   19.47713164   -45.44448040   2.35271453
O   -27.68554205   13.23038248   -1.75541644
H   -28.49177183   13.06803930   -2.26188547
H   -27.81888906   13.16643661   -0.82600672
O   -9.77699623   -21.64537494   1.81161694
H   -9.84985103   -20.78392652   1.45492147
H   3.07280549   -10.81164291   0.77060355
O   -17.11510397   -31.19901177   -2.06860308
H   -4.10562290   3.58403529   1.87260918
H   -16.50260726   19.11971979   -2.35121790
O   -16.20285051   19.53733285   -1.50491859
H   -14.30682171   -12.26690735   -0.09871067
H   -15.90742249   18.73399737   -1.02635306
O   1.96712803   -4.76384428   2.07319573
H   2.35925658   -3.97201917   2.39230148
H   -15.95854042   -6.14399809   0.11430858
O   -14.67384316   -0.21214659   -1.98973914
H   -15.46836921   0.26821109   -2.16808815
H   -14.92221337   -1.13158230   -2.07901263
O   -9.71269998   -11.08546357   -2.39083558
H   -9.70630942   -11.63641478   -3.12218737
H   2.05986806   -5.38141788   2.81615427
O   -1.49656952   -11.42846488   -1.69923550
H   -2.01997904   -10.83442800   -1.14321263
H   -9.39996196   -10.18116000   -2.54181181
O   -4.19353273   8.40997432   1.85914552
H   -3.93660830   21.66048921   2.76152875
H   -5.74143754   3.46067945   -0.55933050
O   -2.08980996   7.86869630   0.29073314
H   -2.92160006   8.15600507   0.79738856
H   -2.06378901   6.93559353   0.55303647
O   0.18862128   26.84012349   -0.29932204
H   -5.77554230   -5.19013545   -1.55989152
H   -0.19768950   27.59998682   -0.73966778
O   -1.85964059   17.64929076   -0.18719449
H   -2.31535009   18.08345424   0.56057267
H   -0.97315530   17.89657652   -0.13920198
O   -31.59072909   -2.93807260   0.42649469
H   -31.82820173   -3.86845149   0.31626323
H   -30.67238552   -2.98705579   0.25843253
O   -14.51383437   -2.75015780   0.04531192
H   -14.08492686   -1.89967045   -0.20687274
H   -9.95527545   7.33047188   0.43851689
O   -1.11518851   15.61372163   2.22038758
H   -1.43600358   16.40597151   1.64807923
H   -17.01714257   -30.80542257   -1.17288017
O   -15.37251554   -5.50492235   0.46621087
H   -0.37195744   26.43106178   0.42658247
H   -14.69120169   -5.23626142   -0.20120084
O   9.67949090   -5.59492300   -1.24141243
H   9.98755635   -5.38723933   -0.33500103
H   10.44312306   -5.61232401   -1.84706134
O   26.46554444   -34.37273251   1.43278261
H   -6.61857671   -5.72254745   -0.38150618
H   27.26961004   -6.36096017   -1.44327466
O   12.82884409   -9.56120023   -2.70859232
H   12.68523003   -10.55571103   -2.55811255
H   11.96013991   -9.19764053   -2.87342137
O   10.48287073   8.57093094   1.97463211
H   10.91589099   7.66070173   1.86657815
H   11.30632577   9.02928098   1.56818967
O   -19.59514670   -26.67774122   1.54336927
H   -19.80757305   -25.86214985   2.03283331
H   -14.99816823   -2.62701409   0.91352400
O   3.19792672   -11.75329785   0.66399495
H   -1.28167588   -10.92743525   -2.49985417
H   -5.85594297   9.04885327   2.61269705
O   -13.88648197   2.47534525   -1.49103024
H   -19.83198306   -27.46578777   2.11246777
H   -13.36286819   2.10961478   -2.20410355
O   -14.30351792   -12.81319284   0.71908218
H   -38.48018286   -25.40227384   -0.58905870
O   26.37868808   -6.35022223   -1.88122330
H   26.31611125   -7.15404719   -2.36680101
