739

C   -10.76340000   -5.92505000   -5.83460000
C   -8.22489000   -5.93797000   -5.78046000
C   -9.48029000   -5.18988000   -6.29076000
H   -8.24790000   -5.95901000   -4.66543000
H   -8.17253000   -2.97647000   -7.33552000
C   -8.19969000   -2.99808000   -6.22055000
C   -9.48485000   -3.73312000   -5.76890000
H   -9.45554000   -5.17042000   -7.40580000
C   -10.73719000   -2.98466000   -6.28521000
C   -12.02432000   -3.71671000   -5.83284000
C   -12.01941000   -5.17984000   -6.34886000
H   -11.99206000   -5.16405000   -7.46391000
H   -10.78847000   -5.94267000   -4.71963000
H   -9.51234000   -3.75262000   -4.65397000
H   -10.70859000   -2.96668000   -7.40012000
H   -12.05147000   -3.73259000   -4.71781000
C   -10.73926000   -1.52755000   -5.76395000
C   -8.20302000   -1.54231000   -5.69515000
C   -9.45191000   -0.79287000   -6.21250000
C   -11.98602000   -0.77710000   -6.28522000
H   -10.77102000   -1.54574000   -4.64911000
H   -8.23271000   -1.56378000   -4.58028000
H   -11.95201000   -0.76043000   -7.40032000
H   -9.42058000   -0.77330000   -7.32756000
C   -13.28154000   -1.50438000   -5.83918000
C   -13.28035000   -2.96708000   -6.34914000
C   -13.30696000   -5.91611000   -5.89479000
C   -14.50950000   -0.73312000   -6.36105000
C   -14.54949000   -3.71341000   -5.89659000
C   -14.54442000   -5.15674000   -6.40926000
H   -14.52300000   -0.73202000   -7.47321000
H   -13.32321000   -1.51667000   -4.72567000
H   -13.26029000   -2.95466000   -7.46326000
H   -14.62531000   -3.71485000   -4.78701000
H   -14.56549000   -5.15487000   -7.52121000
H   -13.34173000   -5.92820000   -4.78109000
C   -14.50180000   0.71203000   -5.85049000
C   -13.21998000   1.43232000   -6.28203000
C   -11.98186000   0.68386000   -5.76645000
C   -10.69787000   1.40854000   -6.20554000
C   -9.45440000   0.66558000   -5.69034000
C   -8.17070000   1.39436000   -6.12754000
H   -14.58326000   0.71955000   -4.74229000
H   -12.01594000   0.67959000   -4.65350000
H   -9.48783000   0.65871000   -4.57747000
H   -13.19639000   1.50307000   -7.39194000
H   -10.66368000   1.47733000   -7.31636000
H   -8.13749000   1.46703000   -7.23808000
C   -8.21987000   5.86396000   -6.30503000
C   -9.49888000   5.12799000   -5.84539000
C   -10.75572000   5.87559000   -6.35513000
H   -8.19929000   5.88483000   -7.42016000
C   -9.49207000   3.66903000   -6.36619000
H   -9.51996000   5.10935000   -4.73015000
C   -10.76631000   2.93966000   -5.91059000
C   -12.01977000   3.67717000   -6.41224000
C   -12.03403000   5.13856000   -5.89489000
H   -9.47310000   3.67495000   -7.47944000
H   -10.73372000   5.89331000   -7.47024000
H   -12.05464000   5.12248000   -4.77945000
H   -11.99932000   3.68077000   -7.52556000
H   -10.78642000   2.87195000   -4.79938000
C   -8.23763000   2.92772000   -5.86909000
H   -8.25531000   2.85689000   -4.75813000
C   -13.29844000   5.87899000   -6.40415000
C   -13.28945000   2.94211000   -5.95799000
C   -14.55860000   5.12091000   -5.94332000
C   -14.54081000   3.67537000   -6.45253000
H   -13.28522000   5.89099000   -7.51840000
H   -14.62693000   5.12077000   -4.83321000
H   -14.56756000   3.66781000   -7.56341000
H   -13.32128000   2.87210000   -4.84823000
C   -3.16440000   -5.92505000   -5.83460000
C   -0.62589000   -5.93797000   -5.78046000
C   -1.88129000   -5.18988000   -6.29076000
H   -0.64890000   -5.95901000   -4.66543000
H   -0.57353000   -2.97647000   -7.33552000
C   -0.60069000   -2.99808000   -6.22055000
C   -1.88585000   -3.73312000   -5.76890000
H   -1.85654000   -5.17042000   -7.40580000
C   -3.13819000   -2.98466000   -6.28521000
C   -4.42532000   -3.71671000   -5.83284000
C   -4.42041000   -5.17984000   -6.34886000
H   -4.39306000   -5.16405000   -7.46391000
H   -3.18947000   -5.94267000   -4.71963000
H   -1.91334000   -3.75262000   -4.65397000
H   -3.10959000   -2.96668000   -7.40012000
H   -4.45247000   -3.73259000   -4.71781000
C   -3.14026000   -1.52755000   -5.76395000
C   -0.60402000   -1.54231000   -5.69515000
C   -1.85291000   -0.79287000   -6.21250000
C   -4.38702000   -0.77710000   -6.28522000
H   -3.17202000   -1.54574000   -4.64911000
H   -0.63371000   -1.56378000   -4.58028000
H   -4.35301000   -0.76043000   -7.40032000
H   -1.82158000   -0.77330000   -7.32756000
C   -5.68254000   -1.50438000   -5.83918000
C   -5.68135000   -2.96708000   -6.34914000
C   -5.70796000   -5.91611000   -5.89479000
C   -6.91050000   -0.73312000   -6.36105000
C   -6.95049000   -3.71341000   -5.89659000
C   -6.94542000   -5.15674000   -6.40926000
H   -6.92400000   -0.73202000   -7.47321000
H   -5.72421000   -1.51667000   -4.72567000
H   -5.66129000   -2.95466000   -7.46326000
H   -7.02631000   -3.71485000   -4.78701000
H   -6.96649000   -5.15487000   -7.52121000
H   -5.74273000   -5.92820000   -4.78109000
C   -6.90280000   0.71203000   -5.85049000
C   -5.62098000   1.43232000   -6.28203000
C   -4.38286000   0.68386000   -5.76645000
C   -3.09887000   1.40854000   -6.20554000
C   -1.85540000   0.66558000   -5.69034000
C   -0.57170000   1.39436000   -6.12754000
H   -6.98426000   0.71955000   -4.74229000
H   -4.41694000   0.67959000   -4.65350000
H   -1.88883000   0.65871000   -4.57747000
H   -5.59739000   1.50307000   -7.39194000
H   -3.06468000   1.47733000   -7.31636000
H   -0.53849000   1.46703000   -7.23808000
C   -0.62087000   5.86396000   -6.30503000
C   -1.89988000   5.12799000   -5.84539000
C   -3.15672000   5.87559000   -6.35513000
H   -0.60029000   5.88483000   -7.42016000
C   -1.89307000   3.66903000   -6.36619000
H   -1.92096000   5.10935000   -4.73015000
C   -3.16731000   2.93966000   -5.91059000
C   -4.42077000   3.67717000   -6.41224000
C   -4.43503000   5.13856000   -5.89489000
H   -1.87410000   3.67495000   -7.47944000
H   -3.13472000   5.89331000   -7.47024000
H   -4.45564000   5.12248000   -4.77945000
H   -4.40032000   3.68077000   -7.52556000
H   -3.18742000   2.87195000   -4.79938000
C   -0.63863000   2.92772000   -5.86909000
H   -0.65631000   2.85689000   -4.75813000
C   -5.69944000   5.87899000   -6.40415000
C   -5.69045000   2.94211000   -5.95799000
C   -6.95960000   5.12091000   -5.94332000
C   -6.94181000   3.67537000   -6.45253000
H   -5.68622000   5.89099000   -7.51840000
H   -7.02793000   5.12077000   -4.83321000
H   -6.96856000   3.66781000   -7.56341000
H   -5.72228000   2.87210000   -4.84823000
C   4.43460000   -5.92505000   -5.83460000
C   6.97311000   -5.93797000   -5.78046000
C   5.71771000   -5.18988000   -6.29076000
H   6.95010000   -5.95901000   -4.66543000
H   7.02547000   -2.97647000   -7.33552000
C   6.99831000   -2.99808000   -6.22055000
C   5.71315000   -3.73312000   -5.76890000
H   5.74246000   -5.17042000   -7.40580000
C   4.46081000   -2.98466000   -6.28521000
C   3.17368000   -3.71671000   -5.83284000
C   3.17859000   -5.17984000   -6.34886000
H   3.20594000   -5.16405000   -7.46391000
H   4.40953000   -5.94267000   -4.71963000
H   5.68566000   -3.75262000   -4.65397000
H   4.48941000   -2.96668000   -7.40012000
H   3.14653000   -3.73259000   -4.71781000
C   4.45874000   -1.52755000   -5.76395000
C   6.99498000   -1.54231000   -5.69515000
C   5.74609000   -0.79287000   -6.21250000
C   3.21198000   -0.77710000   -6.28522000
H   4.42698000   -1.54574000   -4.64911000
H   6.96529000   -1.56378000   -4.58028000
H   3.24599000   -0.76043000   -7.40032000
H   5.77742000   -0.77330000   -7.32756000
C   1.91646000   -1.50438000   -5.83918000
C   1.91765000   -2.96708000   -6.34914000
C   1.89104000   -5.91611000   -5.89479000
C   0.68850000   -0.73312000   -6.36105000
C   0.64851000   -3.71341000   -5.89659000
C   0.65358000   -5.15674000   -6.40926000
H   0.67500000   -0.73202000   -7.47321000
H   1.87479000   -1.51667000   -4.72567000
H   1.93771000   -2.95466000   -7.46326000
H   0.57269000   -3.71485000   -4.78701000
H   0.63251000   -5.15487000   -7.52121000
H   1.85627000   -5.92820000   -4.78109000
C   0.69620000   0.71203000   -5.85049000
C   1.97802000   1.43232000   -6.28203000
C   3.21614000   0.68386000   -5.76645000
C   4.50013000   1.40854000   -6.20554000
C   5.74360000   0.66558000   -5.69034000
C   7.02730000   1.39436000   -6.12754000
H   0.61474000   0.71955000   -4.74229000
H   3.18206000   0.67959000   -4.65350000
H   5.71017000   0.65871000   -4.57747000
H   2.00161000   1.50307000   -7.39194000
H   4.53432000   1.47733000   -7.31636000
H   7.06051000   1.46703000   -7.23808000
C   6.97813000   5.86396000   -6.30503000
C   5.69912000   5.12799000   -5.84539000
C   4.44228000   5.87559000   -6.35513000
H   6.99871000   5.88483000   -7.42016000
C   5.70593000   3.66903000   -6.36619000
H   5.67804000   5.10935000   -4.73015000
C   4.43169000   2.93966000   -5.91059000
C   3.17823000   3.67717000   -6.41224000
C   3.16397000   5.13856000   -5.89489000
H   5.72490000   3.67495000   -7.47944000
H   4.46428000   5.89331000   -7.47024000
H   3.14336000   5.12248000   -4.77945000
H   3.19868000   3.68077000   -7.52556000
H   4.41158000   2.87195000   -4.79938000
C   6.96037000   2.92772000   -5.86909000
H   6.94269000   2.85689000   -4.75813000
C   1.89956000   5.87899000   -6.40415000
C   1.90855000   2.94211000   -5.95799000
C   0.63940000   5.12091000   -5.94332000
C   0.65719000   3.67537000   -6.45253000
H   1.91278000   5.89099000   -7.51840000
H   0.57107000   5.12077000   -4.83321000
H   0.63044000   3.66781000   -7.56341000
H   1.87672000   2.87210000   -4.84823000
C   12.03360000   -5.92505000   -5.83460000
C   14.57211000   -5.93797000   -5.78046000
C   13.31671000   -5.18988000   -6.29076000
H   14.54910000   -5.95901000   -4.66543000
H   14.62447000   -2.97647000   -7.33552000
C   14.59731000   -2.99808000   -6.22055000
C   13.31215000   -3.73312000   -5.76890000
H   13.34146000   -5.17042000   -7.40580000
C   12.05981000   -2.98466000   -6.28521000
C   10.77268000   -3.71671000   -5.83284000
C   10.77759000   -5.17984000   -6.34886000
H   10.80494000   -5.16405000   -7.46391000
H   12.00853000   -5.94267000   -4.71963000
H   13.28466000   -3.75262000   -4.65397000
H   12.08841000   -2.96668000   -7.40012000
H   10.74553000   -3.73259000   -4.71781000
C   12.05774000   -1.52755000   -5.76395000
C   14.59398000   -1.54231000   -5.69515000
C   13.34509000   -0.79287000   -6.21250000
C   10.81098000   -0.77710000   -6.28522000
H   12.02598000   -1.54574000   -4.64911000
H   14.56429000   -1.56378000   -4.58028000
H   10.84499000   -0.76043000   -7.40032000
H   13.37642000   -0.77330000   -7.32756000
C   9.51546000   -1.50438000   -5.83918000
C   9.51665000   -2.96708000   -6.34914000
C   9.49004000   -5.91611000   -5.89479000
C   8.28750000   -0.73312000   -6.36105000
C   8.24751000   -3.71341000   -5.89659000
C   8.25258000   -5.15674000   -6.40926000
H   8.27400000   -0.73202000   -7.47321000
H   9.47379000   -1.51667000   -4.72567000
H   9.53671000   -2.95466000   -7.46326000
H   8.17169000   -3.71485000   -4.78701000
H   8.23151000   -5.15487000   -7.52121000
H   9.45527000   -5.92820000   -4.78109000
C   8.29520000   0.71203000   -5.85049000
C   9.57702000   1.43232000   -6.28203000
C   10.81514000   0.68386000   -5.76645000
C   12.09913000   1.40854000   -6.20554000
C   13.34260000   0.66558000   -5.69034000
C   14.62630000   1.39436000   -6.12754000
H   8.21374000   0.71955000   -4.74229000
H   10.78106000   0.67959000   -4.65350000
H   13.30917000   0.65871000   -4.57747000
H   9.60061000   1.50307000   -7.39194000
H   12.13332000   1.47733000   -7.31636000
H   14.65951000   1.46703000   -7.23808000
C   14.57713000   5.86396000   -6.30503000
C   13.29812000   5.12799000   -5.84539000
C   12.04128000   5.87559000   -6.35513000
H   14.59771000   5.88483000   -7.42016000
C   13.30493000   3.66903000   -6.36619000
H   13.27704000   5.10935000   -4.73015000
C   12.03069000   2.93966000   -5.91059000
C   10.77723000   3.67717000   -6.41224000
C   10.76297000   5.13856000   -5.89489000
H   13.32390000   3.67495000   -7.47944000
H   12.06328000   5.89331000   -7.47024000
H   10.74236000   5.12248000   -4.77945000
H   10.79768000   3.68077000   -7.52556000
H   12.01058000   2.87195000   -4.79938000
C   14.55937000   2.92772000   -5.86909000
H   14.54169000   2.85689000   -4.75813000
C   9.49856000   5.87899000   -6.40415000
C   9.50755000   2.94211000   -5.95799000
C   8.23840000   5.12091000   -5.94332000
C   8.25619000   3.67537000   -6.45253000
H   9.51178000   5.89099000   -7.51840000
H   8.17007000   5.12077000   -4.83321000
H   8.22944000   3.66781000   -7.56341000
H   9.47572000   2.87210000   -4.84823000
C   -10.76340000   -5.92505000   6.16540000
C   -8.22489000   -5.93797000   6.21954000
C   -9.48029000   -5.18988000   5.70924000
H   -8.24790000   -5.95901000   7.33457000
H   -8.17253000   -2.97647000   4.66448000
C   -8.19969000   -2.99808000   5.77945000
C   -9.48485000   -3.73312000   6.23110000
H   -9.45554000   -5.17042000   4.59420000
C   -10.73719000   -2.98466000   5.71479000
C   -12.02432000   -3.71671000   6.16716000
C   -12.01941000   -5.17984000   5.65114000
H   -11.99206000   -5.16405000   4.53609000
H   -10.78847000   -5.94267000   7.28037000
H   -9.51234000   -3.75262000   7.34603000
H   -10.70859000   -2.96668000   4.59988000
H   -12.05147000   -3.73259000   7.28219000
C   -10.73926000   -1.52755000   6.23605000
C   -8.20302000   -1.54231000   6.30485000
C   -9.45191000   -0.79287000   5.78750000
C   -11.98602000   -0.77710000   5.71478000
H   -10.77102000   -1.54574000   7.35089000
H   -8.23271000   -1.56378000   7.41972000
H   -11.95201000   -0.76043000   4.59968000
H   -9.42058000   -0.77330000   4.67244000
C   -13.28154000   -1.50438000   6.16082000
C   -13.28035000   -2.96708000   5.65086000
C   -13.30696000   -5.91611000   6.10521000
C   -14.50950000   -0.73312000   5.63895000
C   -14.54949000   -3.71341000   6.10341000
C   -14.54442000   -5.15674000   5.59074000
H   -14.52300000   -0.73202000   4.52679000
H   -13.32321000   -1.51667000   7.27433000
H   -13.26029000   -2.95466000   4.53674000
H   -14.62531000   -3.71485000   7.21299000
H   -14.56549000   -5.15487000   4.47879000
H   -13.34173000   -5.92820000   7.21891000
C   -14.50180000   0.71203000   6.14951000
C   -13.21998000   1.43232000   5.71797000
C   -11.98186000   0.68386000   6.23355000
C   -10.69787000   1.40854000   5.79446000
C   -9.45440000   0.66558000   6.30966000
C   -8.17070000   1.39436000   5.87246000
H   -14.58326000   0.71955000   7.25771000
H   -12.01594000   0.67959000   7.34650000
H   -9.48783000   0.65871000   7.42253000
H   -13.19639000   1.50307000   4.60806000
H   -10.66368000   1.47733000   4.68364000
H   -8.13749000   1.46703000   4.76192000
C   -8.21987000   5.86396000   5.69497000
C   -9.49888000   5.12799000   6.15461000
C   -10.75572000   5.87559000   5.64487000
H   -8.19929000   5.88483000   4.57984000
C   -9.49207000   3.66903000   5.63381000
H   -9.51996000   5.10935000   7.26985000
C   -10.76631000   2.93966000   6.08941000
C   -12.01977000   3.67717000   5.58776000
C   -12.03403000   5.13856000   6.10511000
H   -9.47310000   3.67495000   4.52056000
H   -10.73372000   5.89331000   4.52976000
H   -12.05464000   5.12248000   7.22055000
H   -11.99932000   3.68077000   4.47444000
H   -10.78642000   2.87195000   7.20062000
C   -8.23763000   2.92772000   6.13091000
H   -8.25531000   2.85689000   7.24187000
C   -13.29844000   5.87899000   5.59585000
C   -13.28945000   2.94211000   6.04201000
C   -14.55860000   5.12091000   6.05668000
C   -14.54081000   3.67537000   5.54747000
H   -13.28522000   5.89099000   4.48160000
H   -14.62693000   5.12077000   7.16679000
H   -14.56756000   3.66781000   4.43659000
H   -13.32128000   2.87210000   7.15177000
C   -3.16440000   -5.92505000   6.16540000
C   -0.62589000   -5.93797000   6.21954000
C   -1.88129000   -5.18988000   5.70924000
H   -0.64890000   -5.95901000   7.33457000
H   -0.57353000   -2.97647000   4.66448000
C   -0.60069000   -2.99808000   5.77945000
C   -1.88585000   -3.73312000   6.23110000
H   -1.85654000   -5.17042000   4.59420000
C   -3.13819000   -2.98466000   5.71479000
C   -4.42532000   -3.71671000   6.16716000
C   -4.42041000   -5.17984000   5.65114000
H   -4.39306000   -5.16405000   4.53609000
H   -3.18947000   -5.94267000   7.28037000
H   -1.91334000   -3.75262000   7.34603000
H   -3.10959000   -2.96668000   4.59988000
H   -4.45247000   -3.73259000   7.28219000
C   -3.14026000   -1.52755000   6.23605000
C   -0.60402000   -1.54231000   6.30485000
C   -1.85291000   -0.79287000   5.78750000
C   -4.38702000   -0.77710000   5.71478000
H   -3.17202000   -1.54574000   7.35089000
H   -0.63371000   -1.56378000   7.41972000
H   -1.82158000   -0.77330000   4.67244000
C   -5.68254000   -1.50438000   6.16082000
C   -5.68135000   -2.96708000   5.65086000
C   -5.70796000   -5.91611000   6.10521000
C   -6.91050000   -0.73312000   5.63895000
C   -6.95049000   -3.71341000   6.10341000
C   -6.94542000   -5.15674000   5.59074000
H   -6.92400000   -0.73202000   4.52679000
H   -5.72421000   -1.51667000   7.27433000
H   -5.66129000   -2.95466000   4.53674000
H   -7.02631000   -3.71485000   7.21299000
H   -6.96649000   -5.15487000   4.47879000
H   -5.74273000   -5.92820000   7.21891000
C   -6.90280000   0.71203000   6.14951000
C   -5.62098000   1.43232000   5.71797000
C   -4.38286000   0.68386000   6.23355000
C   -3.09887000   1.40854000   5.79446000
C   -1.85540000   0.66558000   6.30966000
C   -0.57170000   1.39436000   5.87246000
H   -6.98426000   0.71955000   7.25771000
H   -4.41694000   0.67959000   7.34650000
H   -1.88883000   0.65871000   7.42253000
H   -5.59739000   1.50307000   4.60806000
H   -3.06468000   1.47733000   4.68364000
H   -0.53849000   1.46703000   4.76192000
C   -0.62087000   5.86396000   5.69497000
C   -1.89988000   5.12799000   6.15461000
C   -3.15672000   5.87559000   5.64487000
H   -0.60029000   5.88483000   4.57984000
C   -1.89307000   3.66903000   5.63381000
H   -1.92096000   5.10935000   7.26985000
C   -3.16731000   2.93966000   6.08941000
C   -4.42077000   3.67717000   5.58776000
C   -4.43503000   5.13856000   6.10511000
H   -1.87410000   3.67495000   4.52056000
H   -3.13472000   5.89331000   4.52976000
H   -4.45564000   5.12248000   7.22055000
H   -4.40032000   3.68077000   4.47444000
H   -3.18742000   2.87195000   7.20062000
C   -0.63863000   2.92772000   6.13091000
H   -0.65631000   2.85689000   7.24187000
C   -5.69944000   5.87899000   5.59585000
C   -5.69045000   2.94211000   6.04201000
C   -6.95960000   5.12091000   6.05668000
C   -6.94181000   3.67537000   5.54747000
H   -5.68622000   5.89099000   4.48160000
H   -7.02793000   5.12077000   7.16679000
H   -6.96856000   3.66781000   4.43659000
H   -5.72228000   2.87210000   7.15177000
C   4.43460000   -5.92505000   6.16540000
C   6.97311000   -5.93797000   6.21954000
C   5.71771000   -5.18988000   5.70924000
H   6.95010000   -5.95901000   7.33457000
H   7.02547000   -2.97647000   4.66448000
C   6.99831000   -2.99808000   5.77945000
C   5.71315000   -3.73312000   6.23110000
H   5.74246000   -5.17042000   4.59420000
C   4.46081000   -2.98466000   5.71479000
C   3.17368000   -3.71671000   6.16716000
C   3.17859000   -5.17984000   5.65114000
H   3.20594000   -5.16405000   4.53609000
H   4.40953000   -5.94267000   7.28037000
H   5.68566000   -3.75262000   7.34603000
H   4.48941000   -2.96668000   4.59988000
H   3.14653000   -3.73259000   7.28219000
C   4.45874000   -1.52755000   6.23605000
C   6.99498000   -1.54231000   6.30485000
C   5.74609000   -0.79287000   5.78750000
C   3.21198000   -0.77710000   5.71478000
H   4.42698000   -1.54574000   7.35089000
H   6.96529000   -1.56378000   7.41972000
H   3.24599000   -0.76043000   4.59968000
C   1.91646000   -1.50438000   6.16082000
C   1.91765000   -2.96708000   5.65086000
C   1.89104000   -5.91611000   6.10521000
C   0.68850000   -0.73312000   5.63895000
C   0.64851000   -3.71341000   6.10341000
C   0.65358000   -5.15674000   5.59074000
H   0.67500000   -0.73202000   4.52679000
H   1.87479000   -1.51667000   7.27433000
H   1.93771000   -2.95466000   4.53674000
H   0.57269000   -3.71485000   7.21299000
H   0.63251000   -5.15487000   4.47879000
H   1.85627000   -5.92820000   7.21891000
C   0.69620000   0.71203000   6.14951000
C   1.97802000   1.43232000   5.71797000
C   3.21614000   0.68386000   6.23355000
C   4.50013000   1.40854000   5.79446000
C   5.74360000   0.66558000   6.30966000
C   7.02730000   1.39436000   5.87246000
H   0.61474000   0.71955000   7.25771000
H   3.18206000   0.67959000   7.34650000
H   5.71017000   0.65871000   7.42253000
H   2.00161000   1.50307000   4.60806000
H   4.53432000   1.47733000   4.68364000
H   7.06051000   1.46703000   4.76192000
C   6.97813000   5.86396000   5.69497000
C   5.69912000   5.12799000   6.15461000
C   4.44228000   5.87559000   5.64487000
H   6.99871000   5.88483000   4.57984000
C   5.70593000   3.66903000   5.63381000
H   5.67804000   5.10935000   7.26985000
C   4.43169000   2.93966000   6.08941000
C   3.17823000   3.67717000   5.58776000
C   3.16397000   5.13856000   6.10511000
H   5.72490000   3.67495000   4.52056000
H   4.46428000   5.89331000   4.52976000
H   3.14336000   5.12248000   7.22055000
H   3.19868000   3.68077000   4.47444000
H   4.41158000   2.87195000   7.20062000
C   6.96037000   2.92772000   6.13091000
H   6.94269000   2.85689000   7.24187000
C   1.89956000   5.87899000   5.59585000
C   1.90855000   2.94211000   6.04201000
C   0.63940000   5.12091000   6.05668000
C   0.65719000   3.67537000   5.54747000
H   1.91278000   5.89099000   4.48160000
H   0.57107000   5.12077000   7.16679000
H   0.63044000   3.66781000   4.43659000
H   1.87672000   2.87210000   7.15177000
C   12.03360000   -5.92505000   6.16540000
C   14.57211000   -5.93797000   6.21954000
C   13.31671000   -5.18988000   5.70924000
H   14.54910000   -5.95901000   7.33457000
H   14.62447000   -2.97647000   4.66448000
C   14.59731000   -2.99808000   5.77945000
C   13.31215000   -3.73312000   6.23110000
H   13.34146000   -5.17042000   4.59420000
C   12.05981000   -2.98466000   5.71479000
C   10.77268000   -3.71671000   6.16716000
C   10.77759000   -5.17984000   5.65114000
H   10.80494000   -5.16405000   4.53609000
H   12.00853000   -5.94267000   7.28037000
H   13.28466000   -3.75262000   7.34603000
H   12.08841000   -2.96668000   4.59988000
H   10.74553000   -3.73259000   7.28219000
C   12.05774000   -1.52755000   6.23605000
C   14.59398000   -1.54231000   6.30485000
C   13.34509000   -0.79287000   5.78750000
C   10.81098000   -0.77710000   5.71478000
H   12.02598000   -1.54574000   7.35089000
H   14.56429000   -1.56378000   7.41972000
H   10.84499000   -0.76043000   4.59968000
H   13.37642000   -0.77330000   4.67244000
C   9.51546000   -1.50438000   6.16082000
C   9.51665000   -2.96708000   5.65086000
C   9.49004000   -5.91611000   6.10521000
C   8.28750000   -0.73312000   5.63895000
C   8.24751000   -3.71341000   6.10341000
C   8.25258000   -5.15674000   5.59074000
H   8.27400000   -0.73202000   4.52679000
H   9.47379000   -1.51667000   7.27433000
H   9.53671000   -2.95466000   4.53674000
H   8.17169000   -3.71485000   7.21299000
H   8.23151000   -5.15487000   4.47879000
H   9.45527000   -5.92820000   7.21891000
C   8.29520000   0.71203000   6.14951000
C   9.57702000   1.43232000   5.71797000
C   10.81514000   0.68386000   6.23355000
C   12.09913000   1.40854000   5.79446000
C   13.34260000   0.66558000   6.30966000
C   14.62630000   1.39436000   5.87246000
H   8.21374000   0.71955000   7.25771000
H   10.78106000   0.67959000   7.34650000
H   13.30917000   0.65871000   7.42253000
H   9.60061000   1.50307000   4.60806000
H   12.13332000   1.47733000   4.68364000
H   14.65951000   1.46703000   4.76192000
C   14.57713000   5.86396000   5.69497000
C   13.29812000   5.12799000   6.15461000
C   12.04128000   5.87559000   5.64487000
H   14.59771000   5.88483000   4.57984000
C   13.30493000   3.66903000   5.63381000
H   13.27704000   5.10935000   7.26985000
C   12.03069000   2.93966000   6.08941000
C   10.77723000   3.67717000   5.58776000
C   10.76297000   5.13856000   6.10511000
H   13.32390000   3.67495000   4.52056000
H   12.06328000   5.89331000   4.52976000
H   10.74236000   5.12248000   7.22055000
H   10.79768000   3.68077000   4.47444000
H   12.01058000   2.87195000   7.20062000
C   14.55937000   2.92772000   6.13091000
H   14.54169000   2.85689000   7.24187000
C   9.49856000   5.87899000   5.59585000
C   9.50755000   2.94211000   6.04201000
C   8.23840000   5.12091000   6.05668000
C   8.25619000   3.67537000   5.54747000
H   9.51178000   5.89099000   4.48160000
H   8.17007000   5.12077000   7.16679000
H   8.22944000   3.66781000   4.43659000
H   9.47572000   2.87210000   7.15177000
N   -5.10122135   0.03881940   1.49293389
C   -5.53329660   -0.32534288   3.08776104
H   -6.08358308   0.54455578   3.36848898
H   -6.08843655   -1.24953797   2.98836108
C   -4.36524765   -0.70319052   4.07368983
H   -4.21380265   -1.71521916   3.79799258
H   -3.54429434   0.08597079   3.86337485
C   -4.00595985   -0.78177507   1.14402876
H   -4.35873082   -1.92875719   1.28324907
H   -3.48100944   -0.48738560   0.19784254
H   -6.64186150   -36.56953624   -3.07089662
C   -4.55844579   1.55836698   1.65166398
H   -3.77556026   1.48805857   0.93550186
H   -5.20030025   2.16336312   0.93098870
H   1.65800606   -9.74806386   1.05370471
C   -6.22072381   -0.00388151   0.57372996
H   -6.73220759   -0.95647031   0.51762459
H   -6.94182464   0.80131977   0.80594698
H   -5.78126673   0.32401949   -0.32186104
N   6.01028304   -0.60147688   1.67044976
C   5.15908855   -1.16475610   2.92013751
H   4.37361789   -0.48496253   2.93125921
H   4.84834015   -2.21189976   2.79947509
C   5.77240506   -0.63048589   4.20439916
H   6.73926383   -0.42334821   3.73245893
H   5.48524049   0.35697661   4.14041365
C   5.02412163   -0.61104655   0.51434792
H   -14.24877355   -16.63496870   -2.55238352
H   4.15544309   0.05208540   0.73093751
H   5.57913870   -0.16925792   -0.21639092
C   7.11862795   -1.63784527   1.23309091
H   7.74797795   -1.84455037   2.21377589
H   6.78459368   -2.71436502   1.25753601
H   7.82470713   -1.35037136   0.38857884
C   6.66105118   0.73192973   1.79621395
H   6.08806976   1.50512007   2.23012368
H   7.66171786   0.63336930   2.32472257
H   6.77518325   1.18627679   0.80865601
O   31.32186847   -4.21319233   2.85046560
H   -10.33789569   11.15381686   0.15278481
H   31.37430897   -3.16297520   2.61738678
O   38.51477148   1.56648108   -1.62411375
H   6.51063446   -34.98888355   -2.49528816
H   37.99407053   2.49513609   -1.81597057
O   1.89372162   -34.18295691   1.57419714
H   30.68396288   -4.68453661   2.10481235
H   1.72211670   -34.57206061   2.44002068
O   17.06396155   -16.99721399   -2.55935683
H   42.54413859   -51.76550997   0.84953337
H   17.31117176   -16.92055537   -3.44517738
O   5.78402689   -21.77788459   -1.82100783
H   6.36556878   -21.64987833   -0.92961234
H   9.25365565   30.19516945   -1.95038560
O   10.76875615   29.62855489   1.87998678
H   18.11784666   39.39840873   0.69578752
H   18.28707410   40.89135082   1.04343327
O   -8.76050504   5.96416293   -2.55371370
H   15.99289001   -1.89103816   0.92490582
H   -8.44842826   6.80793136   -2.62913078
O   -32.04106976   14.27581482   2.52294122
H   -31.53962829   15.02596146   2.48273856
H   -0.81939862   -7.91033818   1.67798867
O   -22.38741395   -36.07429316   1.19347610
H   -10.32934914   -14.68197896   1.56783642
H   -23.16369181   -36.68953481   1.53909438
O   -1.26843007   -7.05388816   2.17277822
H   5.84369178   8.02603569   0.15080143
H   -1.56163373   -6.59805335   1.44963034
O   20.21151219   21.12651544   -1.34898494
H   20.62069110   20.33024852   -0.91942622
H   19.29606347   21.65142629   -1.20317149
O   -9.74100790   11.44067722   0.92252428
H   2.35429619   -33.40021592   1.81260723
H   -9.62597276   6.00898622   -2.92714424
O   -26.79776091   -5.95320946   -1.58382450
H   -26.95996661   -6.84493061   -2.05958077
H   -26.04759360   -6.29862814   -0.98936777
O   14.75323562   -31.17384778   -0.94857005
H   15.43171675   -30.51700972   -1.02163100
H   13.92331456   -30.87023042   -0.74345928
O   -36.27195933   32.36893791   -2.82647790
H   -36.32587665   31.92674903   -1.85990897
H   -32.88410399   14.76879998   2.70828446
O   21.73468744   15.60723084   -0.32989906
H   27.83784619   8.57377258   0.37368669
H   28.98796931   9.29705922   -0.14686096
O   5.58302903   8.63584695   0.93199914
H   4.90015570   8.37184848   1.51704859
H   12.69320637   51.24908196   1.78375107
O   52.59558997   2.06214298   2.59879481
H   6.16236303   -0.64410943   -2.11250170
H   53.39685139   1.66161990   2.35969627
O   15.79053116   -2.03060458   1.90892482
H   -36.40114051   33.29684810   -2.68297545
H   -3.24739905   -0.49227048   1.92471226
O   -3.79472411   -25.01121429   -2.56823028
H   -2.85995290   -25.01096337   -2.78323309
H   53.98726142   -18.15856372   -0.37398107
O   -32.32262635   30.54253451   -0.78472168
H   -32.00159639   30.96079320   -1.65730927
H   43.93393024   13.72691886   0.24607518
O   -39.36962354   -21.28806301   1.79138648
H   -38.52719789   -22.03251820   1.80130879
H   -39.35821325   -20.91443549   0.92287027
O   15.30613421   2.19878911   0.58013920
H   -19.47263825   11.91594273   -0.39635185
H   15.69376209   1.46424176   -0.00336349
O   -49.30774993   35.42206970   -0.46037753
H   -49.01449122   21.66855955   0.41857154
H   -50.08218734   36.02894154   -0.27385305
O   -19.47535985   12.61085140   -1.08463071
H   -18.65465186   12.38904026   -1.56515989
H   52.71170391   2.89672578   3.09443273
O   32.13689547   -28.02750209   -2.02998543
H   32.71797522   -27.24582050   -1.78177559
H   31.46513336   -27.65060797   -2.45116625
O   44.68611041   13.00100240   0.05012264
H   0.10355235   0.30279047   -0.33236848
H   -32.68453204   30.87471073   0.15890867
O   -7.10257996   -37.41942823   -2.97560064
H   -7.97028133   -37.13249997   -2.62067266
H   16.14760197   -1.40720246   2.46652091
O   8.97759882   10.66377941   -1.60279561
H   21.86063204   14.83775948   -1.18910984
H   9.50278192   10.87230821   -2.54806466
O   -29.10706979   9.20088366   -1.97095988
H   -28.22443116   9.14587641   -1.67650063
H   -28.96256477   10.21627271   -1.77954791
O   -12.54099345   -10.45586616   1.32302277
H   -11.77733687   -10.91910284   1.56273069
H   -13.18171093   -11.09184599   1.55391709
O   1.36392641   -10.31594789   1.95111710
H   -22.47852650   -8.45099011   1.61785780
H   1.34163540   -11.25438061   1.56212001
O   -21.52518056   20.37909909   -0.50028871
H   -21.47015865   21.12500854   -0.86678559
H   -20.68741810   19.87850236   -0.39004267
O   17.88421272   40.05408604   1.25525688
H   7.93709274   10.69574010   -1.77152960
H   38.17001278   0.89140175   -2.39475277
O   -29.27833376   -9.53587522   -2.33189721
H   -29.93281338   -9.83036135   -3.05928458
H   -29.69975304   -8.63192954   -1.97231103
O   28.74594419   8.61185104   0.46151254
H   21.77921658   15.19705273   0.55902262
H   15.57657208   16.53014563   0.50374063
O   6.50117944   -0.39901627   -2.92297897
H   44.46121343   12.59741407   0.89996240
H   5.83113986   -0.69122018   -3.60276931
O   12.47620769   51.13787621   0.85621656
H   11.01192459   29.56642498   2.80570007
H   13.13412622   51.51343242   0.41271348
O   -4.00744708   -28.75058511   -1.86970156
H   -4.10188696   -27.67352508   -1.87832313
H   -3.20115938   -28.94516976   -2.27738538
O   54.32972213   -19.11144421   -0.27218675
H   54.16669112   -19.41174038   0.69857072
H   10.11468425   30.27975579   1.88982974
O   9.28154124   31.08361236   -2.37681260
H   -3.96670592   -24.53141579   -1.74811665
H   10.20063743   31.44685214   -2.60514003
O   -0.80695741   0.72801580   -0.52230085
H   -0.78878096   1.64102100   -0.29753238
O   12.57163437   -24.87908473   -0.00181090
H   12.25100847   -24.05578189   -0.51963993
