739

C   -10.76340000   -5.92505000   -5.83460000
C   -8.22489000   -5.93797000   -5.78046000
C   -9.48029000   -5.18988000   -6.29076000
H   -8.24790000   -5.95901000   -4.66543000
H   -8.17253000   -2.97647000   -7.33552000
C   -8.19969000   -2.99808000   -6.22055000
C   -9.48485000   -3.73312000   -5.76890000
H   -9.45554000   -5.17042000   -7.40580000
C   -10.73719000   -2.98466000   -6.28521000
C   -12.02432000   -3.71671000   -5.83284000
C   -12.01941000   -5.17984000   -6.34886000
H   -11.99206000   -5.16405000   -7.46391000
H   -10.78847000   -5.94267000   -4.71963000
H   -9.51234000   -3.75262000   -4.65397000
H   -10.70859000   -2.96668000   -7.40012000
H   -12.05147000   -3.73259000   -4.71781000
C   -10.73926000   -1.52755000   -5.76395000
C   -8.20302000   -1.54231000   -5.69515000
C   -9.45191000   -0.79287000   -6.21250000
C   -11.98602000   -0.77710000   -6.28522000
H   -10.77102000   -1.54574000   -4.64911000
H   -8.23271000   -1.56378000   -4.58028000
H   -11.95201000   -0.76043000   -7.40032000
H   -9.42058000   -0.77330000   -7.32756000
C   -13.28154000   -1.50438000   -5.83918000
C   -13.28035000   -2.96708000   -6.34914000
C   -13.30696000   -5.91611000   -5.89479000
C   -14.50950000   -0.73312000   -6.36105000
C   -14.54949000   -3.71341000   -5.89659000
C   -14.54442000   -5.15674000   -6.40926000
H   -14.52300000   -0.73202000   -7.47321000
H   -13.32321000   -1.51667000   -4.72567000
H   -13.26029000   -2.95466000   -7.46326000
H   -14.62531000   -3.71485000   -4.78701000
H   -14.56549000   -5.15487000   -7.52121000
H   -13.34173000   -5.92820000   -4.78109000
C   -14.50180000   0.71203000   -5.85049000
C   -13.21998000   1.43232000   -6.28203000
C   -11.98186000   0.68386000   -5.76645000
C   -10.69787000   1.40854000   -6.20554000
C   -9.45440000   0.66558000   -5.69034000
C   -8.17070000   1.39436000   -6.12754000
H   -14.58326000   0.71955000   -4.74229000
H   -12.01594000   0.67959000   -4.65350000
H   -9.48783000   0.65871000   -4.57747000
H   -13.19639000   1.50307000   -7.39194000
H   -10.66368000   1.47733000   -7.31636000
H   -8.13749000   1.46703000   -7.23808000
C   -8.21987000   5.86396000   -6.30503000
C   -9.49888000   5.12799000   -5.84539000
C   -10.75572000   5.87559000   -6.35513000
H   -8.19929000   5.88483000   -7.42016000
C   -9.49207000   3.66903000   -6.36619000
H   -9.51996000   5.10935000   -4.73015000
C   -10.76631000   2.93966000   -5.91059000
C   -12.01977000   3.67717000   -6.41224000
C   -12.03403000   5.13856000   -5.89489000
H   -9.47310000   3.67495000   -7.47944000
H   -10.73372000   5.89331000   -7.47024000
H   -12.05464000   5.12248000   -4.77945000
H   -11.99932000   3.68077000   -7.52556000
H   -10.78642000   2.87195000   -4.79938000
C   -8.23763000   2.92772000   -5.86909000
H   -8.25531000   2.85689000   -4.75813000
C   -13.29844000   5.87899000   -6.40415000
C   -13.28945000   2.94211000   -5.95799000
C   -14.55860000   5.12091000   -5.94332000
C   -14.54081000   3.67537000   -6.45253000
H   -13.28522000   5.89099000   -7.51840000
H   -14.62693000   5.12077000   -4.83321000
H   -14.56756000   3.66781000   -7.56341000
H   -13.32128000   2.87210000   -4.84823000
C   -3.16440000   -5.92505000   -5.83460000
C   -0.62589000   -5.93797000   -5.78046000
C   -1.88129000   -5.18988000   -6.29076000
H   -0.64890000   -5.95901000   -4.66543000
H   -0.57353000   -2.97647000   -7.33552000
C   -0.60069000   -2.99808000   -6.22055000
C   -1.88585000   -3.73312000   -5.76890000
H   -1.85654000   -5.17042000   -7.40580000
C   -3.13819000   -2.98466000   -6.28521000
C   -4.42532000   -3.71671000   -5.83284000
C   -4.42041000   -5.17984000   -6.34886000
H   -4.39306000   -5.16405000   -7.46391000
H   -3.18947000   -5.94267000   -4.71963000
H   -1.91334000   -3.75262000   -4.65397000
H   -3.10959000   -2.96668000   -7.40012000
H   -4.45247000   -3.73259000   -4.71781000
C   -3.14026000   -1.52755000   -5.76395000
C   -0.60402000   -1.54231000   -5.69515000
C   -1.85291000   -0.79287000   -6.21250000
C   -4.38702000   -0.77710000   -6.28522000
H   -3.17202000   -1.54574000   -4.64911000
H   -0.63371000   -1.56378000   -4.58028000
H   -4.35301000   -0.76043000   -7.40032000
H   -1.82158000   -0.77330000   -7.32756000
C   -5.68254000   -1.50438000   -5.83918000
C   -5.68135000   -2.96708000   -6.34914000
C   -5.70796000   -5.91611000   -5.89479000
C   -6.91050000   -0.73312000   -6.36105000
C   -6.95049000   -3.71341000   -5.89659000
C   -6.94542000   -5.15674000   -6.40926000
H   -6.92400000   -0.73202000   -7.47321000
H   -5.72421000   -1.51667000   -4.72567000
H   -5.66129000   -2.95466000   -7.46326000
H   -7.02631000   -3.71485000   -4.78701000
H   -6.96649000   -5.15487000   -7.52121000
H   -5.74273000   -5.92820000   -4.78109000
C   -6.90280000   0.71203000   -5.85049000
C   -5.62098000   1.43232000   -6.28203000
C   -4.38286000   0.68386000   -5.76645000
C   -3.09887000   1.40854000   -6.20554000
C   -1.85540000   0.66558000   -5.69034000
C   -0.57170000   1.39436000   -6.12754000
H   -6.98426000   0.71955000   -4.74229000
H   -4.41694000   0.67959000   -4.65350000
H   -1.88883000   0.65871000   -4.57747000
H   -5.59739000   1.50307000   -7.39194000
H   -3.06468000   1.47733000   -7.31636000
H   -0.53849000   1.46703000   -7.23808000
C   -0.62087000   5.86396000   -6.30503000
C   -1.89988000   5.12799000   -5.84539000
C   -3.15672000   5.87559000   -6.35513000
H   -0.60029000   5.88483000   -7.42016000
C   -1.89307000   3.66903000   -6.36619000
H   -1.92096000   5.10935000   -4.73015000
C   -3.16731000   2.93966000   -5.91059000
C   -4.42077000   3.67717000   -6.41224000
C   -4.43503000   5.13856000   -5.89489000
H   -1.87410000   3.67495000   -7.47944000
H   -3.13472000   5.89331000   -7.47024000
H   -4.45564000   5.12248000   -4.77945000
H   -4.40032000   3.68077000   -7.52556000
H   -3.18742000   2.87195000   -4.79938000
C   -0.63863000   2.92772000   -5.86909000
H   -0.65631000   2.85689000   -4.75813000
C   -5.69944000   5.87899000   -6.40415000
C   -5.69045000   2.94211000   -5.95799000
C   -6.95960000   5.12091000   -5.94332000
C   -6.94181000   3.67537000   -6.45253000
H   -5.68622000   5.89099000   -7.51840000
H   -7.02793000   5.12077000   -4.83321000
H   -6.96856000   3.66781000   -7.56341000
H   -5.72228000   2.87210000   -4.84823000
C   4.43460000   -5.92505000   -5.83460000
C   6.97311000   -5.93797000   -5.78046000
C   5.71771000   -5.18988000   -6.29076000
H   6.95010000   -5.95901000   -4.66543000
H   7.02547000   -2.97647000   -7.33552000
C   6.99831000   -2.99808000   -6.22055000
C   5.71315000   -3.73312000   -5.76890000
H   5.74246000   -5.17042000   -7.40580000
C   4.46081000   -2.98466000   -6.28521000
C   3.17368000   -3.71671000   -5.83284000
C   3.17859000   -5.17984000   -6.34886000
H   3.20594000   -5.16405000   -7.46391000
H   4.40953000   -5.94267000   -4.71963000
H   5.68566000   -3.75262000   -4.65397000
H   4.48941000   -2.96668000   -7.40012000
H   3.14653000   -3.73259000   -4.71781000
C   4.45874000   -1.52755000   -5.76395000
C   6.99498000   -1.54231000   -5.69515000
C   5.74609000   -0.79287000   -6.21250000
C   3.21198000   -0.77710000   -6.28522000
H   4.42698000   -1.54574000   -4.64911000
H   6.96529000   -1.56378000   -4.58028000
H   3.24599000   -0.76043000   -7.40032000
H   5.77742000   -0.77330000   -7.32756000
C   1.91646000   -1.50438000   -5.83918000
C   1.91765000   -2.96708000   -6.34914000
C   1.89104000   -5.91611000   -5.89479000
C   0.68850000   -0.73312000   -6.36105000
C   0.64851000   -3.71341000   -5.89659000
C   0.65358000   -5.15674000   -6.40926000
H   0.67500000   -0.73202000   -7.47321000
H   1.87479000   -1.51667000   -4.72567000
H   1.93771000   -2.95466000   -7.46326000
H   0.57269000   -3.71485000   -4.78701000
H   0.63251000   -5.15487000   -7.52121000
H   1.85627000   -5.92820000   -4.78109000
C   0.69620000   0.71203000   -5.85049000
C   1.97802000   1.43232000   -6.28203000
C   3.21614000   0.68386000   -5.76645000
C   4.50013000   1.40854000   -6.20554000
C   5.74360000   0.66558000   -5.69034000
C   7.02730000   1.39436000   -6.12754000
H   0.61474000   0.71955000   -4.74229000
H   3.18206000   0.67959000   -4.65350000
H   5.71017000   0.65871000   -4.57747000
H   2.00161000   1.50307000   -7.39194000
H   4.53432000   1.47733000   -7.31636000
H   7.06051000   1.46703000   -7.23808000
C   6.97813000   5.86396000   -6.30503000
C   5.69912000   5.12799000   -5.84539000
C   4.44228000   5.87559000   -6.35513000
H   6.99871000   5.88483000   -7.42016000
C   5.70593000   3.66903000   -6.36619000
H   5.67804000   5.10935000   -4.73015000
C   4.43169000   2.93966000   -5.91059000
C   3.17823000   3.67717000   -6.41224000
C   3.16397000   5.13856000   -5.89489000
H   5.72490000   3.67495000   -7.47944000
H   4.46428000   5.89331000   -7.47024000
H   3.14336000   5.12248000   -4.77945000
H   3.19868000   3.68077000   -7.52556000
H   4.41158000   2.87195000   -4.79938000
C   6.96037000   2.92772000   -5.86909000
H   6.94269000   2.85689000   -4.75813000
C   1.89956000   5.87899000   -6.40415000
C   1.90855000   2.94211000   -5.95799000
C   0.63940000   5.12091000   -5.94332000
C   0.65719000   3.67537000   -6.45253000
H   1.91278000   5.89099000   -7.51840000
H   0.57107000   5.12077000   -4.83321000
H   0.63044000   3.66781000   -7.56341000
H   1.87672000   2.87210000   -4.84823000
C   12.03360000   -5.92505000   -5.83460000
C   14.57211000   -5.93797000   -5.78046000
C   13.31671000   -5.18988000   -6.29076000
H   14.54910000   -5.95901000   -4.66543000
H   14.62447000   -2.97647000   -7.33552000
C   14.59731000   -2.99808000   -6.22055000
C   13.31215000   -3.73312000   -5.76890000
H   13.34146000   -5.17042000   -7.40580000
C   12.05981000   -2.98466000   -6.28521000
C   10.77268000   -3.71671000   -5.83284000
C   10.77759000   -5.17984000   -6.34886000
H   10.80494000   -5.16405000   -7.46391000
H   12.00853000   -5.94267000   -4.71963000
H   13.28466000   -3.75262000   -4.65397000
H   12.08841000   -2.96668000   -7.40012000
H   10.74553000   -3.73259000   -4.71781000
C   12.05774000   -1.52755000   -5.76395000
C   14.59398000   -1.54231000   -5.69515000
C   13.34509000   -0.79287000   -6.21250000
C   10.81098000   -0.77710000   -6.28522000
H   12.02598000   -1.54574000   -4.64911000
H   14.56429000   -1.56378000   -4.58028000
H   10.84499000   -0.76043000   -7.40032000
H   13.37642000   -0.77330000   -7.32756000
C   9.51546000   -1.50438000   -5.83918000
C   9.51665000   -2.96708000   -6.34914000
C   9.49004000   -5.91611000   -5.89479000
C   8.28750000   -0.73312000   -6.36105000
C   8.24751000   -3.71341000   -5.89659000
C   8.25258000   -5.15674000   -6.40926000
H   8.27400000   -0.73202000   -7.47321000
H   9.47379000   -1.51667000   -4.72567000
H   9.53671000   -2.95466000   -7.46326000
H   8.17169000   -3.71485000   -4.78701000
H   8.23151000   -5.15487000   -7.52121000
H   9.45527000   -5.92820000   -4.78109000
C   8.29520000   0.71203000   -5.85049000
C   9.57702000   1.43232000   -6.28203000
C   10.81514000   0.68386000   -5.76645000
C   12.09913000   1.40854000   -6.20554000
C   13.34260000   0.66558000   -5.69034000
C   14.62630000   1.39436000   -6.12754000
H   8.21374000   0.71955000   -4.74229000
H   10.78106000   0.67959000   -4.65350000
H   13.30917000   0.65871000   -4.57747000
H   9.60061000   1.50307000   -7.39194000
H   12.13332000   1.47733000   -7.31636000
H   14.65951000   1.46703000   -7.23808000
C   14.57713000   5.86396000   -6.30503000
C   13.29812000   5.12799000   -5.84539000
C   12.04128000   5.87559000   -6.35513000
H   14.59771000   5.88483000   -7.42016000
C   13.30493000   3.66903000   -6.36619000
H   13.27704000   5.10935000   -4.73015000
C   12.03069000   2.93966000   -5.91059000
C   10.77723000   3.67717000   -6.41224000
C   10.76297000   5.13856000   -5.89489000
H   13.32390000   3.67495000   -7.47944000
H   12.06328000   5.89331000   -7.47024000
H   10.74236000   5.12248000   -4.77945000
H   10.79768000   3.68077000   -7.52556000
H   12.01058000   2.87195000   -4.79938000
C   14.55937000   2.92772000   -5.86909000
H   14.54169000   2.85689000   -4.75813000
C   9.49856000   5.87899000   -6.40415000
C   9.50755000   2.94211000   -5.95799000
C   8.23840000   5.12091000   -5.94332000
C   8.25619000   3.67537000   -6.45253000
H   9.51178000   5.89099000   -7.51840000
H   8.17007000   5.12077000   -4.83321000
H   8.22944000   3.66781000   -7.56341000
H   9.47572000   2.87210000   -4.84823000
C   -10.76340000   -5.92505000   6.16540000
C   -8.22489000   -5.93797000   6.21954000
C   -9.48029000   -5.18988000   5.70924000
H   -8.24790000   -5.95901000   7.33457000
H   -8.17253000   -2.97647000   4.66448000
C   -8.19969000   -2.99808000   5.77945000
C   -9.48485000   -3.73312000   6.23110000
H   -9.45554000   -5.17042000   4.59420000
C   -10.73719000   -2.98466000   5.71479000
C   -12.02432000   -3.71671000   6.16716000
C   -12.01941000   -5.17984000   5.65114000
H   -11.99206000   -5.16405000   4.53609000
H   -10.78847000   -5.94267000   7.28037000
H   -9.51234000   -3.75262000   7.34603000
H   -10.70859000   -2.96668000   4.59988000
H   -12.05147000   -3.73259000   7.28219000
C   -10.73926000   -1.52755000   6.23605000
C   -8.20302000   -1.54231000   6.30485000
C   -9.45191000   -0.79287000   5.78750000
C   -11.98602000   -0.77710000   5.71478000
H   -10.77102000   -1.54574000   7.35089000
H   -8.23271000   -1.56378000   7.41972000
H   -11.95201000   -0.76043000   4.59968000
H   -9.42058000   -0.77330000   4.67244000
C   -13.28154000   -1.50438000   6.16082000
C   -13.28035000   -2.96708000   5.65086000
C   -13.30696000   -5.91611000   6.10521000
C   -14.50950000   -0.73312000   5.63895000
C   -14.54949000   -3.71341000   6.10341000
C   -14.54442000   -5.15674000   5.59074000
H   -14.52300000   -0.73202000   4.52679000
H   -13.32321000   -1.51667000   7.27433000
H   -13.26029000   -2.95466000   4.53674000
H   -14.62531000   -3.71485000   7.21299000
H   -14.56549000   -5.15487000   4.47879000
H   -13.34173000   -5.92820000   7.21891000
C   -14.50180000   0.71203000   6.14951000
C   -13.21998000   1.43232000   5.71797000
C   -11.98186000   0.68386000   6.23355000
C   -10.69787000   1.40854000   5.79446000
C   -9.45440000   0.66558000   6.30966000
C   -8.17070000   1.39436000   5.87246000
H   -14.58326000   0.71955000   7.25771000
H   -12.01594000   0.67959000   7.34650000
H   -9.48783000   0.65871000   7.42253000
H   -13.19639000   1.50307000   4.60806000
H   -10.66368000   1.47733000   4.68364000
H   -8.13749000   1.46703000   4.76192000
C   -8.21987000   5.86396000   5.69497000
C   -9.49888000   5.12799000   6.15461000
C   -10.75572000   5.87559000   5.64487000
H   -8.19929000   5.88483000   4.57984000
C   -9.49207000   3.66903000   5.63381000
H   -9.51996000   5.10935000   7.26985000
C   -10.76631000   2.93966000   6.08941000
C   -12.01977000   3.67717000   5.58776000
C   -12.03403000   5.13856000   6.10511000
H   -9.47310000   3.67495000   4.52056000
H   -10.73372000   5.89331000   4.52976000
H   -12.05464000   5.12248000   7.22055000
H   -11.99932000   3.68077000   4.47444000
H   -10.78642000   2.87195000   7.20062000
C   -8.23763000   2.92772000   6.13091000
H   -8.25531000   2.85689000   7.24187000
C   -13.29844000   5.87899000   5.59585000
C   -13.28945000   2.94211000   6.04201000
C   -14.55860000   5.12091000   6.05668000
C   -14.54081000   3.67537000   5.54747000
H   -13.28522000   5.89099000   4.48160000
H   -14.62693000   5.12077000   7.16679000
H   -14.56756000   3.66781000   4.43659000
H   -13.32128000   2.87210000   7.15177000
C   -3.16440000   -5.92505000   6.16540000
C   -0.62589000   -5.93797000   6.21954000
C   -1.88129000   -5.18988000   5.70924000
H   -0.64890000   -5.95901000   7.33457000
H   -0.57353000   -2.97647000   4.66448000
C   -0.60069000   -2.99808000   5.77945000
C   -1.88585000   -3.73312000   6.23110000
H   -1.85654000   -5.17042000   4.59420000
C   -3.13819000   -2.98466000   5.71479000
C   -4.42532000   -3.71671000   6.16716000
C   -4.42041000   -5.17984000   5.65114000
H   -4.39306000   -5.16405000   4.53609000
H   -3.18947000   -5.94267000   7.28037000
H   -1.91334000   -3.75262000   7.34603000
H   -3.10959000   -2.96668000   4.59988000
H   -4.45247000   -3.73259000   7.28219000
C   -3.14026000   -1.52755000   6.23605000
C   -0.60402000   -1.54231000   6.30485000
C   -1.85291000   -0.79287000   5.78750000
C   -4.38702000   -0.77710000   5.71478000
H   -3.17202000   -1.54574000   7.35089000
H   -0.63371000   -1.56378000   7.41972000
H   -1.82158000   -0.77330000   4.67244000
C   -5.68254000   -1.50438000   6.16082000
C   -5.68135000   -2.96708000   5.65086000
C   -5.70796000   -5.91611000   6.10521000
C   -6.91050000   -0.73312000   5.63895000
C   -6.95049000   -3.71341000   6.10341000
C   -6.94542000   -5.15674000   5.59074000
H   -6.92400000   -0.73202000   4.52679000
H   -5.72421000   -1.51667000   7.27433000
H   -5.66129000   -2.95466000   4.53674000
H   -7.02631000   -3.71485000   7.21299000
H   -6.96649000   -5.15487000   4.47879000
H   -5.74273000   -5.92820000   7.21891000
C   -6.90280000   0.71203000   6.14951000
C   -5.62098000   1.43232000   5.71797000
C   -4.38286000   0.68386000   6.23355000
C   -3.09887000   1.40854000   5.79446000
C   -1.85540000   0.66558000   6.30966000
C   -0.57170000   1.39436000   5.87246000
H   -6.98426000   0.71955000   7.25771000
H   -4.41694000   0.67959000   7.34650000
H   -1.88883000   0.65871000   7.42253000
H   -5.59739000   1.50307000   4.60806000
H   -3.06468000   1.47733000   4.68364000
H   -0.53849000   1.46703000   4.76192000
C   -0.62087000   5.86396000   5.69497000
C   -1.89988000   5.12799000   6.15461000
C   -3.15672000   5.87559000   5.64487000
H   -0.60029000   5.88483000   4.57984000
C   -1.89307000   3.66903000   5.63381000
H   -1.92096000   5.10935000   7.26985000
C   -3.16731000   2.93966000   6.08941000
C   -4.42077000   3.67717000   5.58776000
C   -4.43503000   5.13856000   6.10511000
H   -1.87410000   3.67495000   4.52056000
H   -3.13472000   5.89331000   4.52976000
H   -4.45564000   5.12248000   7.22055000
H   -4.40032000   3.68077000   4.47444000
H   -3.18742000   2.87195000   7.20062000
C   -0.63863000   2.92772000   6.13091000
H   -0.65631000   2.85689000   7.24187000
C   -5.69944000   5.87899000   5.59585000
C   -5.69045000   2.94211000   6.04201000
C   -6.95960000   5.12091000   6.05668000
C   -6.94181000   3.67537000   5.54747000
H   -5.68622000   5.89099000   4.48160000
H   -7.02793000   5.12077000   7.16679000
H   -6.96856000   3.66781000   4.43659000
H   -5.72228000   2.87210000   7.15177000
C   4.43460000   -5.92505000   6.16540000
C   6.97311000   -5.93797000   6.21954000
C   5.71771000   -5.18988000   5.70924000
H   6.95010000   -5.95901000   7.33457000
H   7.02547000   -2.97647000   4.66448000
C   6.99831000   -2.99808000   5.77945000
C   5.71315000   -3.73312000   6.23110000
H   5.74246000   -5.17042000   4.59420000
C   4.46081000   -2.98466000   5.71479000
C   3.17368000   -3.71671000   6.16716000
C   3.17859000   -5.17984000   5.65114000
H   3.20594000   -5.16405000   4.53609000
H   4.40953000   -5.94267000   7.28037000
H   5.68566000   -3.75262000   7.34603000
H   4.48941000   -2.96668000   4.59988000
H   3.14653000   -3.73259000   7.28219000
C   4.45874000   -1.52755000   6.23605000
C   6.99498000   -1.54231000   6.30485000
C   5.74609000   -0.79287000   5.78750000
C   3.21198000   -0.77710000   5.71478000
H   4.42698000   -1.54574000   7.35089000
H   6.96529000   -1.56378000   7.41972000
H   3.24599000   -0.76043000   4.59968000
C   1.91646000   -1.50438000   6.16082000
C   1.91765000   -2.96708000   5.65086000
C   1.89104000   -5.91611000   6.10521000
C   0.68850000   -0.73312000   5.63895000
C   0.64851000   -3.71341000   6.10341000
C   0.65358000   -5.15674000   5.59074000
H   0.67500000   -0.73202000   4.52679000
H   1.87479000   -1.51667000   7.27433000
H   1.93771000   -2.95466000   4.53674000
H   0.57269000   -3.71485000   7.21299000
H   0.63251000   -5.15487000   4.47879000
H   1.85627000   -5.92820000   7.21891000
C   0.69620000   0.71203000   6.14951000
C   1.97802000   1.43232000   5.71797000
C   3.21614000   0.68386000   6.23355000
C   4.50013000   1.40854000   5.79446000
C   5.74360000   0.66558000   6.30966000
C   7.02730000   1.39436000   5.87246000
H   0.61474000   0.71955000   7.25771000
H   3.18206000   0.67959000   7.34650000
H   5.71017000   0.65871000   7.42253000
H   2.00161000   1.50307000   4.60806000
H   4.53432000   1.47733000   4.68364000
H   7.06051000   1.46703000   4.76192000
C   6.97813000   5.86396000   5.69497000
C   5.69912000   5.12799000   6.15461000
C   4.44228000   5.87559000   5.64487000
H   6.99871000   5.88483000   4.57984000
C   5.70593000   3.66903000   5.63381000
H   5.67804000   5.10935000   7.26985000
C   4.43169000   2.93966000   6.08941000
C   3.17823000   3.67717000   5.58776000
C   3.16397000   5.13856000   6.10511000
H   5.72490000   3.67495000   4.52056000
H   4.46428000   5.89331000   4.52976000
H   3.14336000   5.12248000   7.22055000
H   3.19868000   3.68077000   4.47444000
H   4.41158000   2.87195000   7.20062000
C   6.96037000   2.92772000   6.13091000
H   6.94269000   2.85689000   7.24187000
C   1.89956000   5.87899000   5.59585000
C   1.90855000   2.94211000   6.04201000
C   0.63940000   5.12091000   6.05668000
C   0.65719000   3.67537000   5.54747000
H   1.91278000   5.89099000   4.48160000
H   0.57107000   5.12077000   7.16679000
H   0.63044000   3.66781000   4.43659000
H   1.87672000   2.87210000   7.15177000
C   12.03360000   -5.92505000   6.16540000
C   14.57211000   -5.93797000   6.21954000
C   13.31671000   -5.18988000   5.70924000
H   14.54910000   -5.95901000   7.33457000
H   14.62447000   -2.97647000   4.66448000
C   14.59731000   -2.99808000   5.77945000
C   13.31215000   -3.73312000   6.23110000
H   13.34146000   -5.17042000   4.59420000
C   12.05981000   -2.98466000   5.71479000
C   10.77268000   -3.71671000   6.16716000
C   10.77759000   -5.17984000   5.65114000
H   10.80494000   -5.16405000   4.53609000
H   12.00853000   -5.94267000   7.28037000
H   13.28466000   -3.75262000   7.34603000
H   12.08841000   -2.96668000   4.59988000
H   10.74553000   -3.73259000   7.28219000
C   12.05774000   -1.52755000   6.23605000
C   14.59398000   -1.54231000   6.30485000
C   13.34509000   -0.79287000   5.78750000
C   10.81098000   -0.77710000   5.71478000
H   12.02598000   -1.54574000   7.35089000
H   14.56429000   -1.56378000   7.41972000
H   10.84499000   -0.76043000   4.59968000
H   13.37642000   -0.77330000   4.67244000
C   9.51546000   -1.50438000   6.16082000
C   9.51665000   -2.96708000   5.65086000
C   9.49004000   -5.91611000   6.10521000
C   8.28750000   -0.73312000   5.63895000
C   8.24751000   -3.71341000   6.10341000
C   8.25258000   -5.15674000   5.59074000
H   8.27400000   -0.73202000   4.52679000
H   9.47379000   -1.51667000   7.27433000
H   9.53671000   -2.95466000   4.53674000
H   8.17169000   -3.71485000   7.21299000
H   8.23151000   -5.15487000   4.47879000
H   9.45527000   -5.92820000   7.21891000
C   8.29520000   0.71203000   6.14951000
C   9.57702000   1.43232000   5.71797000
C   10.81514000   0.68386000   6.23355000
C   12.09913000   1.40854000   5.79446000
C   13.34260000   0.66558000   6.30966000
C   14.62630000   1.39436000   5.87246000
H   8.21374000   0.71955000   7.25771000
H   10.78106000   0.67959000   7.34650000
H   13.30917000   0.65871000   7.42253000
H   9.60061000   1.50307000   4.60806000
H   12.13332000   1.47733000   4.68364000
H   14.65951000   1.46703000   4.76192000
C   14.57713000   5.86396000   5.69497000
C   13.29812000   5.12799000   6.15461000
C   12.04128000   5.87559000   5.64487000
H   14.59771000   5.88483000   4.57984000
C   13.30493000   3.66903000   5.63381000
H   13.27704000   5.10935000   7.26985000
C   12.03069000   2.93966000   6.08941000
C   10.77723000   3.67717000   5.58776000
C   10.76297000   5.13856000   6.10511000
H   13.32390000   3.67495000   4.52056000
H   12.06328000   5.89331000   4.52976000
H   10.74236000   5.12248000   7.22055000
H   10.79768000   3.68077000   4.47444000
H   12.01058000   2.87195000   7.20062000
C   14.55937000   2.92772000   6.13091000
H   14.54169000   2.85689000   7.24187000
C   9.49856000   5.87899000   5.59585000
C   9.50755000   2.94211000   6.04201000
C   8.23840000   5.12091000   6.05668000
C   8.25619000   3.67537000   5.54747000
H   9.51178000   5.89099000   4.48160000
H   8.17007000   5.12077000   7.16679000
H   8.22944000   3.66781000   4.43659000
H   9.47572000   2.87210000   7.15177000
N   -3.99987892   -0.09597841   1.56597156
C   -3.70680541   0.15024637   3.02504295
H   -2.63839088   0.14986349   3.10507319
H   -4.17627602   1.15732006   3.32275789
C   -4.44558137   -0.83694102   3.93961859
H   -5.48936927   -0.57404057   3.59175659
H   -4.08499433   -1.77921863   3.69813673
C   -3.38341988   -1.34348756   1.27012807
H   -3.09340223   -1.38687453   0.22507901
H   -2.49503058   -1.38667882   1.88383470
H   -3.92969077   -2.24982757   1.36075194
C   -3.21290336   1.16270606   0.62718379
H   14.21272426   -2.29047450   2.90478514
H   -4.21449774   1.63785703   0.68194183
H   -3.22066867   0.72018589   -0.38498380
C   -5.37641371   -0.10851082   1.05063477
H   -5.54093878   -1.08672184   0.68373058
H   -5.96991048   -0.03713369   1.93317380
H   -5.79498406   0.55085853   0.32417574
N   5.96736565   -0.44696200   1.38138630
C   5.56081834   0.39055998   2.95684240
H   6.17235986   1.37430062   3.07827049
H   4.39186869   0.67824385   2.59488943
C   5.48106148   -0.75824156   3.99601275
H   4.62945230   -1.38688700   3.73935037
H   6.48939753   -1.24409013   3.73956199
C   4.57725556   -0.29942879   0.51529681
H   3.72016616   -0.44787300   1.17258934
H   4.56536070   0.61116531   -0.04239348
H   4.48102452   -1.18893297   -0.05674554
C   6.50293961   -1.73308961   1.56349765
H   -8.25743618   -4.33531180   -2.99265601
H   -15.06454799   2.72047191   0.56355482
H   5.68444796   -2.47480962   1.22948858
C   7.00995765   0.42101081   0.94642216
H   7.01335749   0.32529528   -0.20275257
H   6.64264925   1.40526434   1.32261342
H   7.87796580   0.33580220   1.60704704
O   -7.81535394   -2.93423990   1.36027691
H   -8.03027534   -2.44356928   2.21747267
H   6.97274461   -2.62673217   -1.88566155
O   10.49013524   -1.30328430   -2.19133675
H   5.83173423   -5.76226956   1.85549367
H   -2.23389617   -4.20688253   1.22977242
O   1.33187946   3.61222695   -2.16721749
H   1.05344890   2.70954430   -2.46635407
H   3.67929078   -5.47542248   -3.38089043
O   1.64466213   -2.42062828   -2.06610101
H   2.42478592   -2.70924790   -1.46699662
H   -10.08376641   -6.10811015   2.16795977
O   -15.07350827   5.76241585   -2.13608200
H   14.76442998   5.30696028   -2.74325953
H   -2.99526722   1.41119725   -1.80661768
O   6.38266477   -6.39942323   -2.69132259
H   6.68256437   6.03319410   -2.64511968
H   0.78227111   -2.89037836   -2.20100828
O   -3.03352050   1.68579512   -2.72377805
H   -3.91291660   2.11579272   -2.74988820
H   -10.29636402   0.97137408   -1.81552652
O   13.09054364   -5.71987367   1.96410767
H   12.39239711   -6.09990616   1.32529746
H   13.45427623   -6.55441939   2.28993329
O   13.58116027   -1.68617747   2.40529817
H   5.74499642   -6.45126585   -1.91337315
H   13.56100095   -0.60729787   2.62229554
O   -5.66424473   -0.75428606   -2.10985875
H   -8.70392722   -5.84380971   -3.26336668
H   -6.04549186   -1.42045657   -2.71176232
O   -14.32143893   -3.04634523   0.84009994
H   -14.27670785   -2.92047504   -0.08348753
H   -7.83755357   3.87651994   -1.84649821
O   -12.52466640   1.97347271   -2.82681133
H   -11.52963389   1.80271630   -3.05284418
H   -0.04844953   1.63952891   2.10184566
O   2.64529096   1.20169010   -0.74066843
H   2.45996499   2.18411411   -1.08268277
H   -2.00260313   -1.16454030   -2.60981770
O   -1.41304304   -0.76497039   -2.03595344
H   9.79339533   2.80277362   -2.71925563
H   -1.76259713   0.17169901   -1.78156813
O   8.07783500   -4.19467753   2.64574020
H   -2.51872024   3.80557398   -0.95346314
H   8.40235138   -4.08114322   1.73318357
O   3.42236204   -5.92501077   0.25786932
H   -14.12052244   4.02265607   1.09357036
H   -15.15835797   2.99728194   -2.65718004
O   -4.23614462   -3.64784515   -1.58778102
H   -4.40724215   -3.06604050   -2.33377874
H   -5.12294408   -3.98207206   -1.61811498
O   -2.96421663   -4.43200232   1.69906353
H   -3.34083035   -5.23342061   1.52152876
H   -1.13843998   4.60241000   1.86079767
O   13.40053785   -4.55358098   -0.35262908
H   -6.72710095   -3.14335499   1.65087873
H   13.37168184   -5.51360587   -0.60831391
O   -10.36565878   0.06059811   -1.51747259
H   -4.88877101   -0.83603769   -2.48590156
H   -7.79486199   -6.39588581   0.29515262
O   7.87672484   -2.81395222   -2.13218069
H   7.75744183   -3.69711848   -2.47859141
H   -15.06303975   -2.50332250   0.99270561
O   -9.93221960   -2.41761943   -2.71826568
H   0.41852465   3.02134362   2.46256999
H   -10.53161069   -3.17892192   -2.87989648
O   -0.53941438   5.32140217   1.53951620
H   -0.59215589   5.99229480   2.18304420
H   7.56249387   -1.88058443   1.30581784
O   3.52286957   -4.62397015   -2.59296719
H   9.45799445   -1.48765822   2.88114852
H   -12.98004124   1.49798831   -3.53432604
O   -10.26471887   -2.16881605   0.53645697
H   -9.77048080   -3.04825883   0.55423198
H   -14.63627438   6.24287035   -2.85457756
O   10.99508795   5.72529284   0.90187385
H   -9.61620290   -1.37221637   0.43404305
H   10.05664369   6.20235848   0.66750188
O   -1.64366395   4.44949739   -1.09600809
H   -1.15321451   4.40510096   -0.35536370
H   2.65485569   -4.88418930   -2.05118275
O   9.28132269   -0.48670897   2.66294566
H   9.96752408   0.12146406   3.04501221
H   13.57650053   -4.43082731   -1.40667650
O   5.92425124   -5.24216068   1.16611724
H   3.29244059   -6.58968417   -0.49513964
H   5.80046216   -4.42449803   1.75197886
O   9.92392490   2.56023694   -1.68909369
H   9.78045255   3.25390786   -1.13709071
H   11.74529852   -1.47715592   -0.10810004
O   -6.89471246   3.65156077   -2.03744203
H   -1.98894263   -6.03235893   -3.23704336
H   -6.21472322   3.71995199   -1.17155497
O   1.02113348   -6.46147557   -1.11136624
H   0.55363834   6.08374974   -1.21531711
H   0.70391659   3.81036377   -1.45351596
O   -1.42949195   -6.08807281   -2.53639399
H   -10.30702720   -1.71981693   -2.28549530
H   -1.72016505   6.54495799   -1.90181759
O   -10.93441654   -5.68729767   1.85030064
H   10.46106140   -1.00609519   -1.34438309
H   -10.94572550   -4.90056748   2.24104989
O   10.30644328   -3.97654321   -0.99182416
H   10.35733155   -4.66473118   -1.60598878
H   7.30150200   -3.52530991   2.90054979
O   -14.08177174   3.07840704   0.82842081
H   3.63065299   -6.55219093   1.03903200
H   -11.67947198   5.11681390   -0.73169600
O   14.36067682   2.56158007   -2.22138398
H   13.58520331   2.90102190   -2.91789349
H   11.30796362   4.93204026   1.30044810
O   -12.37598245   -0.15984964   1.38426441
H   -12.49432064   0.43749480   0.69854783
H   -12.84951435   -1.05454846   1.07686377
O   12.55996728   -1.32269570   -0.59892565
H   10.11795985   -3.28107837   -1.57800468
H   12.27164717   -0.91205966   -1.52653728
O   -8.65549889   -6.50897444   -0.22254505
H   -8.62307119   -5.70165864   -1.01529350
H   9.65985176   -0.89279893   -2.39937469
O   -8.27440653   -5.28133362   -2.64485450
H   -11.20296016   0.02488796   -1.15132995
H   0.59793606   -5.93321237   -1.75745185
O   -0.29323567   2.50494011   2.17091105
H   2.65335508   0.57143357   -1.64816208
O   -11.78858467   6.04844813   -1.08519601
H   -12.66267803   6.47372335   -0.94344417
