739

C   -10.76340000   -5.92505000   -5.83460000
C   -8.22489000   -5.93797000   -5.78046000
C   -9.48029000   -5.18988000   -6.29076000
H   -8.24790000   -5.95901000   -4.66543000
H   -8.17253000   -2.97647000   -7.33552000
C   -8.19969000   -2.99808000   -6.22055000
C   -9.48485000   -3.73312000   -5.76890000
H   -9.45554000   -5.17042000   -7.40580000
C   -10.73719000   -2.98466000   -6.28521000
C   -12.02432000   -3.71671000   -5.83284000
C   -12.01941000   -5.17984000   -6.34886000
H   -11.99206000   -5.16405000   -7.46391000
H   -10.78847000   -5.94267000   -4.71963000
H   -9.51234000   -3.75262000   -4.65397000
H   -10.70859000   -2.96668000   -7.40012000
H   -12.05147000   -3.73259000   -4.71781000
C   -10.73926000   -1.52755000   -5.76395000
C   -8.20302000   -1.54231000   -5.69515000
C   -9.45191000   -0.79287000   -6.21250000
C   -11.98602000   -0.77710000   -6.28522000
H   -10.77102000   -1.54574000   -4.64911000
H   -8.23271000   -1.56378000   -4.58028000
H   -11.95201000   -0.76043000   -7.40032000
H   -9.42058000   -0.77330000   -7.32756000
C   -13.28154000   -1.50438000   -5.83918000
C   -13.28035000   -2.96708000   -6.34914000
C   -13.30696000   -5.91611000   -5.89479000
C   -14.50950000   -0.73312000   -6.36105000
C   -14.54949000   -3.71341000   -5.89659000
C   -14.54442000   -5.15674000   -6.40926000
H   -14.52300000   -0.73202000   -7.47321000
H   -13.32321000   -1.51667000   -4.72567000
H   -13.26029000   -2.95466000   -7.46326000
H   -14.62531000   -3.71485000   -4.78701000
H   -14.56549000   -5.15487000   -7.52121000
H   -13.34173000   -5.92820000   -4.78109000
C   -14.50180000   0.71203000   -5.85049000
C   -13.21998000   1.43232000   -6.28203000
C   -11.98186000   0.68386000   -5.76645000
C   -10.69787000   1.40854000   -6.20554000
C   -9.45440000   0.66558000   -5.69034000
C   -8.17070000   1.39436000   -6.12754000
H   -14.58326000   0.71955000   -4.74229000
H   -12.01594000   0.67959000   -4.65350000
H   -9.48783000   0.65871000   -4.57747000
H   -13.19639000   1.50307000   -7.39194000
H   -10.66368000   1.47733000   -7.31636000
H   -8.13749000   1.46703000   -7.23808000
C   -8.21987000   5.86396000   -6.30503000
C   -9.49888000   5.12799000   -5.84539000
C   -10.75572000   5.87559000   -6.35513000
H   -8.19929000   5.88483000   -7.42016000
C   -9.49207000   3.66903000   -6.36619000
H   -9.51996000   5.10935000   -4.73015000
C   -10.76631000   2.93966000   -5.91059000
C   -12.01977000   3.67717000   -6.41224000
C   -12.03403000   5.13856000   -5.89489000
H   -9.47310000   3.67495000   -7.47944000
H   -10.73372000   5.89331000   -7.47024000
H   -12.05464000   5.12248000   -4.77945000
H   -11.99932000   3.68077000   -7.52556000
H   -10.78642000   2.87195000   -4.79938000
C   -8.23763000   2.92772000   -5.86909000
H   -8.25531000   2.85689000   -4.75813000
C   -13.29844000   5.87899000   -6.40415000
C   -13.28945000   2.94211000   -5.95799000
C   -14.55860000   5.12091000   -5.94332000
C   -14.54081000   3.67537000   -6.45253000
H   -13.28522000   5.89099000   -7.51840000
H   -14.62693000   5.12077000   -4.83321000
H   -14.56756000   3.66781000   -7.56341000
H   -13.32128000   2.87210000   -4.84823000
C   -3.16440000   -5.92505000   -5.83460000
C   -0.62589000   -5.93797000   -5.78046000
C   -1.88129000   -5.18988000   -6.29076000
H   -0.64890000   -5.95901000   -4.66543000
H   -0.57353000   -2.97647000   -7.33552000
C   -0.60069000   -2.99808000   -6.22055000
C   -1.88585000   -3.73312000   -5.76890000
H   -1.85654000   -5.17042000   -7.40580000
C   -3.13819000   -2.98466000   -6.28521000
C   -4.42532000   -3.71671000   -5.83284000
C   -4.42041000   -5.17984000   -6.34886000
H   -4.39306000   -5.16405000   -7.46391000
H   -3.18947000   -5.94267000   -4.71963000
H   -1.91334000   -3.75262000   -4.65397000
H   -3.10959000   -2.96668000   -7.40012000
H   -4.45247000   -3.73259000   -4.71781000
C   -3.14026000   -1.52755000   -5.76395000
C   -0.60402000   -1.54231000   -5.69515000
C   -1.85291000   -0.79287000   -6.21250000
C   -4.38702000   -0.77710000   -6.28522000
H   -3.17202000   -1.54574000   -4.64911000
H   -0.63371000   -1.56378000   -4.58028000
H   -4.35301000   -0.76043000   -7.40032000
H   -1.82158000   -0.77330000   -7.32756000
C   -5.68254000   -1.50438000   -5.83918000
C   -5.68135000   -2.96708000   -6.34914000
C   -5.70796000   -5.91611000   -5.89479000
C   -6.91050000   -0.73312000   -6.36105000
C   -6.95049000   -3.71341000   -5.89659000
C   -6.94542000   -5.15674000   -6.40926000
H   -6.92400000   -0.73202000   -7.47321000
H   -5.72421000   -1.51667000   -4.72567000
H   -5.66129000   -2.95466000   -7.46326000
H   -7.02631000   -3.71485000   -4.78701000
H   -6.96649000   -5.15487000   -7.52121000
H   -5.74273000   -5.92820000   -4.78109000
C   -6.90280000   0.71203000   -5.85049000
C   -5.62098000   1.43232000   -6.28203000
C   -4.38286000   0.68386000   -5.76645000
C   -3.09887000   1.40854000   -6.20554000
C   -1.85540000   0.66558000   -5.69034000
C   -0.57170000   1.39436000   -6.12754000
H   -6.98426000   0.71955000   -4.74229000
H   -4.41694000   0.67959000   -4.65350000
H   -1.88883000   0.65871000   -4.57747000
H   -5.59739000   1.50307000   -7.39194000
H   -3.06468000   1.47733000   -7.31636000
H   -0.53849000   1.46703000   -7.23808000
C   -0.62087000   5.86396000   -6.30503000
C   -1.89988000   5.12799000   -5.84539000
C   -3.15672000   5.87559000   -6.35513000
H   -0.60029000   5.88483000   -7.42016000
C   -1.89307000   3.66903000   -6.36619000
H   -1.92096000   5.10935000   -4.73015000
C   -3.16731000   2.93966000   -5.91059000
C   -4.42077000   3.67717000   -6.41224000
C   -4.43503000   5.13856000   -5.89489000
H   -1.87410000   3.67495000   -7.47944000
H   -3.13472000   5.89331000   -7.47024000
H   -4.45564000   5.12248000   -4.77945000
H   -4.40032000   3.68077000   -7.52556000
H   -3.18742000   2.87195000   -4.79938000
C   -0.63863000   2.92772000   -5.86909000
H   -0.65631000   2.85689000   -4.75813000
C   -5.69944000   5.87899000   -6.40415000
C   -5.69045000   2.94211000   -5.95799000
C   -6.95960000   5.12091000   -5.94332000
C   -6.94181000   3.67537000   -6.45253000
H   -5.68622000   5.89099000   -7.51840000
H   -7.02793000   5.12077000   -4.83321000
H   -6.96856000   3.66781000   -7.56341000
H   -5.72228000   2.87210000   -4.84823000
C   4.43460000   -5.92505000   -5.83460000
C   6.97311000   -5.93797000   -5.78046000
C   5.71771000   -5.18988000   -6.29076000
H   6.95010000   -5.95901000   -4.66543000
H   7.02547000   -2.97647000   -7.33552000
C   6.99831000   -2.99808000   -6.22055000
C   5.71315000   -3.73312000   -5.76890000
H   5.74246000   -5.17042000   -7.40580000
C   4.46081000   -2.98466000   -6.28521000
C   3.17368000   -3.71671000   -5.83284000
C   3.17859000   -5.17984000   -6.34886000
H   3.20594000   -5.16405000   -7.46391000
H   4.40953000   -5.94267000   -4.71963000
H   5.68566000   -3.75262000   -4.65397000
H   4.48941000   -2.96668000   -7.40012000
H   3.14653000   -3.73259000   -4.71781000
C   4.45874000   -1.52755000   -5.76395000
C   6.99498000   -1.54231000   -5.69515000
C   5.74609000   -0.79287000   -6.21250000
C   3.21198000   -0.77710000   -6.28522000
H   4.42698000   -1.54574000   -4.64911000
H   6.96529000   -1.56378000   -4.58028000
H   3.24599000   -0.76043000   -7.40032000
H   5.77742000   -0.77330000   -7.32756000
C   1.91646000   -1.50438000   -5.83918000
C   1.91765000   -2.96708000   -6.34914000
C   1.89104000   -5.91611000   -5.89479000
C   0.68850000   -0.73312000   -6.36105000
C   0.64851000   -3.71341000   -5.89659000
C   0.65358000   -5.15674000   -6.40926000
H   0.67500000   -0.73202000   -7.47321000
H   1.87479000   -1.51667000   -4.72567000
H   1.93771000   -2.95466000   -7.46326000
H   0.57269000   -3.71485000   -4.78701000
H   0.63251000   -5.15487000   -7.52121000
H   1.85627000   -5.92820000   -4.78109000
C   0.69620000   0.71203000   -5.85049000
C   1.97802000   1.43232000   -6.28203000
C   3.21614000   0.68386000   -5.76645000
C   4.50013000   1.40854000   -6.20554000
C   5.74360000   0.66558000   -5.69034000
C   7.02730000   1.39436000   -6.12754000
H   0.61474000   0.71955000   -4.74229000
H   3.18206000   0.67959000   -4.65350000
H   5.71017000   0.65871000   -4.57747000
H   2.00161000   1.50307000   -7.39194000
H   4.53432000   1.47733000   -7.31636000
H   7.06051000   1.46703000   -7.23808000
C   6.97813000   5.86396000   -6.30503000
C   5.69912000   5.12799000   -5.84539000
C   4.44228000   5.87559000   -6.35513000
H   6.99871000   5.88483000   -7.42016000
C   5.70593000   3.66903000   -6.36619000
H   5.67804000   5.10935000   -4.73015000
C   4.43169000   2.93966000   -5.91059000
C   3.17823000   3.67717000   -6.41224000
C   3.16397000   5.13856000   -5.89489000
H   5.72490000   3.67495000   -7.47944000
H   4.46428000   5.89331000   -7.47024000
H   3.14336000   5.12248000   -4.77945000
H   3.19868000   3.68077000   -7.52556000
H   4.41158000   2.87195000   -4.79938000
C   6.96037000   2.92772000   -5.86909000
H   6.94269000   2.85689000   -4.75813000
C   1.89956000   5.87899000   -6.40415000
C   1.90855000   2.94211000   -5.95799000
C   0.63940000   5.12091000   -5.94332000
C   0.65719000   3.67537000   -6.45253000
H   1.91278000   5.89099000   -7.51840000
H   0.57107000   5.12077000   -4.83321000
H   0.63044000   3.66781000   -7.56341000
H   1.87672000   2.87210000   -4.84823000
C   12.03360000   -5.92505000   -5.83460000
C   14.57211000   -5.93797000   -5.78046000
C   13.31671000   -5.18988000   -6.29076000
H   14.54910000   -5.95901000   -4.66543000
H   14.62447000   -2.97647000   -7.33552000
C   14.59731000   -2.99808000   -6.22055000
C   13.31215000   -3.73312000   -5.76890000
H   13.34146000   -5.17042000   -7.40580000
C   12.05981000   -2.98466000   -6.28521000
C   10.77268000   -3.71671000   -5.83284000
C   10.77759000   -5.17984000   -6.34886000
H   10.80494000   -5.16405000   -7.46391000
H   12.00853000   -5.94267000   -4.71963000
H   13.28466000   -3.75262000   -4.65397000
H   12.08841000   -2.96668000   -7.40012000
H   10.74553000   -3.73259000   -4.71781000
C   12.05774000   -1.52755000   -5.76395000
C   14.59398000   -1.54231000   -5.69515000
C   13.34509000   -0.79287000   -6.21250000
C   10.81098000   -0.77710000   -6.28522000
H   12.02598000   -1.54574000   -4.64911000
H   14.56429000   -1.56378000   -4.58028000
H   10.84499000   -0.76043000   -7.40032000
H   13.37642000   -0.77330000   -7.32756000
C   9.51546000   -1.50438000   -5.83918000
C   9.51665000   -2.96708000   -6.34914000
C   9.49004000   -5.91611000   -5.89479000
C   8.28750000   -0.73312000   -6.36105000
C   8.24751000   -3.71341000   -5.89659000
C   8.25258000   -5.15674000   -6.40926000
H   8.27400000   -0.73202000   -7.47321000
H   9.47379000   -1.51667000   -4.72567000
H   9.53671000   -2.95466000   -7.46326000
H   8.17169000   -3.71485000   -4.78701000
H   8.23151000   -5.15487000   -7.52121000
H   9.45527000   -5.92820000   -4.78109000
C   8.29520000   0.71203000   -5.85049000
C   9.57702000   1.43232000   -6.28203000
C   10.81514000   0.68386000   -5.76645000
C   12.09913000   1.40854000   -6.20554000
C   13.34260000   0.66558000   -5.69034000
C   14.62630000   1.39436000   -6.12754000
H   8.21374000   0.71955000   -4.74229000
H   10.78106000   0.67959000   -4.65350000
H   13.30917000   0.65871000   -4.57747000
H   9.60061000   1.50307000   -7.39194000
H   12.13332000   1.47733000   -7.31636000
H   14.65951000   1.46703000   -7.23808000
C   14.57713000   5.86396000   -6.30503000
C   13.29812000   5.12799000   -5.84539000
C   12.04128000   5.87559000   -6.35513000
H   14.59771000   5.88483000   -7.42016000
C   13.30493000   3.66903000   -6.36619000
H   13.27704000   5.10935000   -4.73015000
C   12.03069000   2.93966000   -5.91059000
C   10.77723000   3.67717000   -6.41224000
C   10.76297000   5.13856000   -5.89489000
H   13.32390000   3.67495000   -7.47944000
H   12.06328000   5.89331000   -7.47024000
H   10.74236000   5.12248000   -4.77945000
H   10.79768000   3.68077000   -7.52556000
H   12.01058000   2.87195000   -4.79938000
C   14.55937000   2.92772000   -5.86909000
H   14.54169000   2.85689000   -4.75813000
C   9.49856000   5.87899000   -6.40415000
C   9.50755000   2.94211000   -5.95799000
C   8.23840000   5.12091000   -5.94332000
C   8.25619000   3.67537000   -6.45253000
H   9.51178000   5.89099000   -7.51840000
H   8.17007000   5.12077000   -4.83321000
H   8.22944000   3.66781000   -7.56341000
H   9.47572000   2.87210000   -4.84823000
C   -10.76340000   -5.92505000   6.16540000
C   -8.22489000   -5.93797000   6.21954000
C   -9.48029000   -5.18988000   5.70924000
H   -8.24790000   -5.95901000   7.33457000
H   -8.17253000   -2.97647000   4.66448000
C   -8.19969000   -2.99808000   5.77945000
C   -9.48485000   -3.73312000   6.23110000
H   -9.45554000   -5.17042000   4.59420000
C   -10.73719000   -2.98466000   5.71479000
C   -12.02432000   -3.71671000   6.16716000
C   -12.01941000   -5.17984000   5.65114000
H   -11.99206000   -5.16405000   4.53609000
H   -10.78847000   -5.94267000   7.28037000
H   -9.51234000   -3.75262000   7.34603000
H   -10.70859000   -2.96668000   4.59988000
H   -12.05147000   -3.73259000   7.28219000
C   -10.73926000   -1.52755000   6.23605000
C   -8.20302000   -1.54231000   6.30485000
C   -9.45191000   -0.79287000   5.78750000
C   -11.98602000   -0.77710000   5.71478000
H   -10.77102000   -1.54574000   7.35089000
H   -8.23271000   -1.56378000   7.41972000
H   -11.95201000   -0.76043000   4.59968000
H   -9.42058000   -0.77330000   4.67244000
C   -13.28154000   -1.50438000   6.16082000
C   -13.28035000   -2.96708000   5.65086000
C   -13.30696000   -5.91611000   6.10521000
C   -14.50950000   -0.73312000   5.63895000
C   -14.54949000   -3.71341000   6.10341000
C   -14.54442000   -5.15674000   5.59074000
H   -14.52300000   -0.73202000   4.52679000
H   -13.32321000   -1.51667000   7.27433000
H   -13.26029000   -2.95466000   4.53674000
H   -14.62531000   -3.71485000   7.21299000
H   -14.56549000   -5.15487000   4.47879000
H   -13.34173000   -5.92820000   7.21891000
C   -14.50180000   0.71203000   6.14951000
C   -13.21998000   1.43232000   5.71797000
C   -11.98186000   0.68386000   6.23355000
C   -10.69787000   1.40854000   5.79446000
C   -9.45440000   0.66558000   6.30966000
C   -8.17070000   1.39436000   5.87246000
H   -14.58326000   0.71955000   7.25771000
H   -12.01594000   0.67959000   7.34650000
H   -9.48783000   0.65871000   7.42253000
H   -13.19639000   1.50307000   4.60806000
H   -10.66368000   1.47733000   4.68364000
H   -8.13749000   1.46703000   4.76192000
C   -8.21987000   5.86396000   5.69497000
C   -9.49888000   5.12799000   6.15461000
C   -10.75572000   5.87559000   5.64487000
H   -8.19929000   5.88483000   4.57984000
C   -9.49207000   3.66903000   5.63381000
H   -9.51996000   5.10935000   7.26985000
C   -10.76631000   2.93966000   6.08941000
C   -12.01977000   3.67717000   5.58776000
C   -12.03403000   5.13856000   6.10511000
H   -9.47310000   3.67495000   4.52056000
H   -10.73372000   5.89331000   4.52976000
H   -12.05464000   5.12248000   7.22055000
H   -11.99932000   3.68077000   4.47444000
H   -10.78642000   2.87195000   7.20062000
C   -8.23763000   2.92772000   6.13091000
H   -8.25531000   2.85689000   7.24187000
C   -13.29844000   5.87899000   5.59585000
C   -13.28945000   2.94211000   6.04201000
C   -14.55860000   5.12091000   6.05668000
C   -14.54081000   3.67537000   5.54747000
H   -13.28522000   5.89099000   4.48160000
H   -14.62693000   5.12077000   7.16679000
H   -14.56756000   3.66781000   4.43659000
H   -13.32128000   2.87210000   7.15177000
C   -3.16440000   -5.92505000   6.16540000
C   -0.62589000   -5.93797000   6.21954000
C   -1.88129000   -5.18988000   5.70924000
H   -0.64890000   -5.95901000   7.33457000
H   -0.57353000   -2.97647000   4.66448000
C   -0.60069000   -2.99808000   5.77945000
C   -1.88585000   -3.73312000   6.23110000
H   -1.85654000   -5.17042000   4.59420000
C   -3.13819000   -2.98466000   5.71479000
C   -4.42532000   -3.71671000   6.16716000
C   -4.42041000   -5.17984000   5.65114000
H   -4.39306000   -5.16405000   4.53609000
H   -3.18947000   -5.94267000   7.28037000
H   -1.91334000   -3.75262000   7.34603000
H   -3.10959000   -2.96668000   4.59988000
H   -4.45247000   -3.73259000   7.28219000
C   -3.14026000   -1.52755000   6.23605000
C   -0.60402000   -1.54231000   6.30485000
C   -1.85291000   -0.79287000   5.78750000
C   -4.38702000   -0.77710000   5.71478000
H   -3.17202000   -1.54574000   7.35089000
H   -0.63371000   -1.56378000   7.41972000
H   -1.82158000   -0.77330000   4.67244000
C   -5.68254000   -1.50438000   6.16082000
C   -5.68135000   -2.96708000   5.65086000
C   -5.70796000   -5.91611000   6.10521000
C   -6.91050000   -0.73312000   5.63895000
C   -6.95049000   -3.71341000   6.10341000
C   -6.94542000   -5.15674000   5.59074000
H   -6.92400000   -0.73202000   4.52679000
H   -5.72421000   -1.51667000   7.27433000
H   -5.66129000   -2.95466000   4.53674000
H   -7.02631000   -3.71485000   7.21299000
H   -6.96649000   -5.15487000   4.47879000
H   -5.74273000   -5.92820000   7.21891000
C   -6.90280000   0.71203000   6.14951000
C   -5.62098000   1.43232000   5.71797000
C   -4.38286000   0.68386000   6.23355000
C   -3.09887000   1.40854000   5.79446000
C   -1.85540000   0.66558000   6.30966000
C   -0.57170000   1.39436000   5.87246000
H   -6.98426000   0.71955000   7.25771000
H   -4.41694000   0.67959000   7.34650000
H   -1.88883000   0.65871000   7.42253000
H   -5.59739000   1.50307000   4.60806000
H   -3.06468000   1.47733000   4.68364000
H   -0.53849000   1.46703000   4.76192000
C   -0.62087000   5.86396000   5.69497000
C   -1.89988000   5.12799000   6.15461000
C   -3.15672000   5.87559000   5.64487000
H   -0.60029000   5.88483000   4.57984000
C   -1.89307000   3.66903000   5.63381000
H   -1.92096000   5.10935000   7.26985000
C   -3.16731000   2.93966000   6.08941000
C   -4.42077000   3.67717000   5.58776000
C   -4.43503000   5.13856000   6.10511000
H   -1.87410000   3.67495000   4.52056000
H   -3.13472000   5.89331000   4.52976000
H   -4.45564000   5.12248000   7.22055000
H   -4.40032000   3.68077000   4.47444000
H   -3.18742000   2.87195000   7.20062000
C   -0.63863000   2.92772000   6.13091000
H   -0.65631000   2.85689000   7.24187000
C   -5.69944000   5.87899000   5.59585000
C   -5.69045000   2.94211000   6.04201000
C   -6.95960000   5.12091000   6.05668000
C   -6.94181000   3.67537000   5.54747000
H   -5.68622000   5.89099000   4.48160000
H   -7.02793000   5.12077000   7.16679000
H   -6.96856000   3.66781000   4.43659000
H   -5.72228000   2.87210000   7.15177000
C   4.43460000   -5.92505000   6.16540000
C   6.97311000   -5.93797000   6.21954000
C   5.71771000   -5.18988000   5.70924000
H   6.95010000   -5.95901000   7.33457000
H   7.02547000   -2.97647000   4.66448000
C   6.99831000   -2.99808000   5.77945000
C   5.71315000   -3.73312000   6.23110000
H   5.74246000   -5.17042000   4.59420000
C   4.46081000   -2.98466000   5.71479000
C   3.17368000   -3.71671000   6.16716000
C   3.17859000   -5.17984000   5.65114000
H   3.20594000   -5.16405000   4.53609000
H   4.40953000   -5.94267000   7.28037000
H   5.68566000   -3.75262000   7.34603000
H   4.48941000   -2.96668000   4.59988000
H   3.14653000   -3.73259000   7.28219000
C   4.45874000   -1.52755000   6.23605000
C   6.99498000   -1.54231000   6.30485000
C   5.74609000   -0.79287000   5.78750000
C   3.21198000   -0.77710000   5.71478000
H   4.42698000   -1.54574000   7.35089000
H   6.96529000   -1.56378000   7.41972000
H   3.24599000   -0.76043000   4.59968000
C   1.91646000   -1.50438000   6.16082000
C   1.91765000   -2.96708000   5.65086000
C   1.89104000   -5.91611000   6.10521000
C   0.68850000   -0.73312000   5.63895000
C   0.64851000   -3.71341000   6.10341000
C   0.65358000   -5.15674000   5.59074000
H   0.67500000   -0.73202000   4.52679000
H   1.87479000   -1.51667000   7.27433000
H   1.93771000   -2.95466000   4.53674000
H   0.57269000   -3.71485000   7.21299000
H   0.63251000   -5.15487000   4.47879000
H   1.85627000   -5.92820000   7.21891000
C   0.69620000   0.71203000   6.14951000
C   1.97802000   1.43232000   5.71797000
C   3.21614000   0.68386000   6.23355000
C   4.50013000   1.40854000   5.79446000
C   5.74360000   0.66558000   6.30966000
C   7.02730000   1.39436000   5.87246000
H   0.61474000   0.71955000   7.25771000
H   3.18206000   0.67959000   7.34650000
H   5.71017000   0.65871000   7.42253000
H   2.00161000   1.50307000   4.60806000
H   4.53432000   1.47733000   4.68364000
H   7.06051000   1.46703000   4.76192000
C   6.97813000   5.86396000   5.69497000
C   5.69912000   5.12799000   6.15461000
C   4.44228000   5.87559000   5.64487000
H   6.99871000   5.88483000   4.57984000
C   5.70593000   3.66903000   5.63381000
H   5.67804000   5.10935000   7.26985000
C   4.43169000   2.93966000   6.08941000
C   3.17823000   3.67717000   5.58776000
C   3.16397000   5.13856000   6.10511000
H   5.72490000   3.67495000   4.52056000
H   4.46428000   5.89331000   4.52976000
H   3.14336000   5.12248000   7.22055000
H   3.19868000   3.68077000   4.47444000
H   4.41158000   2.87195000   7.20062000
C   6.96037000   2.92772000   6.13091000
H   6.94269000   2.85689000   7.24187000
C   1.89956000   5.87899000   5.59585000
C   1.90855000   2.94211000   6.04201000
C   0.63940000   5.12091000   6.05668000
C   0.65719000   3.67537000   5.54747000
H   1.91278000   5.89099000   4.48160000
H   0.57107000   5.12077000   7.16679000
H   0.63044000   3.66781000   4.43659000
H   1.87672000   2.87210000   7.15177000
C   12.03360000   -5.92505000   6.16540000
C   14.57211000   -5.93797000   6.21954000
C   13.31671000   -5.18988000   5.70924000
H   14.54910000   -5.95901000   7.33457000
H   14.62447000   -2.97647000   4.66448000
C   14.59731000   -2.99808000   5.77945000
C   13.31215000   -3.73312000   6.23110000
H   13.34146000   -5.17042000   4.59420000
C   12.05981000   -2.98466000   5.71479000
C   10.77268000   -3.71671000   6.16716000
C   10.77759000   -5.17984000   5.65114000
H   10.80494000   -5.16405000   4.53609000
H   12.00853000   -5.94267000   7.28037000
H   13.28466000   -3.75262000   7.34603000
H   12.08841000   -2.96668000   4.59988000
H   10.74553000   -3.73259000   7.28219000
C   12.05774000   -1.52755000   6.23605000
C   14.59398000   -1.54231000   6.30485000
C   13.34509000   -0.79287000   5.78750000
C   10.81098000   -0.77710000   5.71478000
H   12.02598000   -1.54574000   7.35089000
H   14.56429000   -1.56378000   7.41972000
H   10.84499000   -0.76043000   4.59968000
H   13.37642000   -0.77330000   4.67244000
C   9.51546000   -1.50438000   6.16082000
C   9.51665000   -2.96708000   5.65086000
C   9.49004000   -5.91611000   6.10521000
C   8.28750000   -0.73312000   5.63895000
C   8.24751000   -3.71341000   6.10341000
C   8.25258000   -5.15674000   5.59074000
H   8.27400000   -0.73202000   4.52679000
H   9.47379000   -1.51667000   7.27433000
H   9.53671000   -2.95466000   4.53674000
H   8.17169000   -3.71485000   7.21299000
H   8.23151000   -5.15487000   4.47879000
H   9.45527000   -5.92820000   7.21891000
C   8.29520000   0.71203000   6.14951000
C   9.57702000   1.43232000   5.71797000
C   10.81514000   0.68386000   6.23355000
C   12.09913000   1.40854000   5.79446000
C   13.34260000   0.66558000   6.30966000
C   14.62630000   1.39436000   5.87246000
H   8.21374000   0.71955000   7.25771000
H   10.78106000   0.67959000   7.34650000
H   13.30917000   0.65871000   7.42253000
H   9.60061000   1.50307000   4.60806000
H   12.13332000   1.47733000   4.68364000
H   14.65951000   1.46703000   4.76192000
C   14.57713000   5.86396000   5.69497000
C   13.29812000   5.12799000   6.15461000
C   12.04128000   5.87559000   5.64487000
H   14.59771000   5.88483000   4.57984000
C   13.30493000   3.66903000   5.63381000
H   13.27704000   5.10935000   7.26985000
C   12.03069000   2.93966000   6.08941000
C   10.77723000   3.67717000   5.58776000
C   10.76297000   5.13856000   6.10511000
H   13.32390000   3.67495000   4.52056000
H   12.06328000   5.89331000   4.52976000
H   10.74236000   5.12248000   7.22055000
H   10.79768000   3.68077000   4.47444000
H   12.01058000   2.87195000   7.20062000
C   14.55937000   2.92772000   6.13091000
H   14.54169000   2.85689000   7.24187000
C   9.49856000   5.87899000   5.59585000
C   9.50755000   2.94211000   6.04201000
C   8.23840000   5.12091000   6.05668000
C   8.25619000   3.67537000   5.54747000
H   9.51178000   5.89099000   4.48160000
H   8.17007000   5.12077000   7.16679000
H   8.22944000   3.66781000   4.43659000
H   9.47572000   2.87210000   7.15177000
N   -7.81266210   1.91725233   0.05701788
C   -4.28285212   0.30061515   3.30655190
H   -4.29280043   -0.10383466   2.24692035
H   -4.06101865   1.31853064   3.46583462
C   -4.40036842   -0.72164066   4.19075625
H   -7.17887558   3.30992764   1.50173215
H   -4.66545163   -1.75517902   3.79454458
C   -9.08433396   2.00025375   -0.63233887
H   -9.15103704   2.83296811   -1.46530067
H   -9.52930950   1.03753125   -0.95705630
H   -9.82109212   2.40539953   0.06238070
C   -6.63672012   1.94829122   -0.72561951
H   -5.71249305   1.53987930   -0.12658221
H   -6.71388000   1.27470861   -1.66464288
H   -6.48023113   2.92874538   -1.27762808
C   -7.58857645   2.32401437   1.52916511
H   -10.36376261   -0.68278677   2.05482938
H   -7.07861093   1.54949912   2.20494774
H   -8.67418824   2.42166267   1.84193964
N   5.17979400   -0.83453746   1.60883407
C   4.71946771   -1.08597811   3.16874047
H   3.85132151   -0.25336897   3.16734489
H   4.27554907   -2.05137673   3.09539829
C   5.86080411   -0.65314365   4.18152246
H   6.67238329   -1.23391012   3.75954958
H   6.15615154   0.39545296   3.92009659
C   3.84884912   -1.18490120   0.65403055
H   3.71495408   -2.27981184   0.62603561
H   3.11193785   -0.70032152   1.11878376
H   4.08644942   -0.87212133   -0.38811858
C   6.40213762   -1.77263679   1.29230731
H   6.49872298   -1.65129096   0.29296441
H   10.20513463   6.38155859   -0.83859911
H   5.95491034   -2.78985037   1.14797655
C   5.34405987   0.68748205   1.43658197
H   5.59190326   0.85221231   0.40294641
H   4.43053205   1.09479736   1.77148218
H   6.18594509   1.03597226   1.98564754
O   9.60932425   2.50683534   -1.31503528
H   3.63080971   0.80641696   -1.41438918
H   -1.59538400   -0.01823740   -1.34736921
O   1.32896099   -0.56433902   -2.00514305
H   0.65573383   -0.75210100   -2.53856790
H   1.89109985   -1.31654287   -2.38562457
O   -9.71279043   5.63113229   2.46162461
H   10.25875264   2.52980616   -0.35245981
H   -2.63694713   -1.34103645   -1.04767812
O   9.72751033   5.67580525   -0.51148588
H   11.91791301   -2.17151223   -1.08800911
H   -8.93791486   6.36289550   2.38240035
O   10.47866787   -0.25057766   -2.25196728
H   -13.63408897   -5.42427962   -2.42199516
H   10.06055805   -0.67153174   -3.01400140
O   -4.35584158   -3.83963211   2.33244883
H   9.65152976   -0.22605562   -1.53454837
H   -4.53914029   -4.77521887   2.36514568
O   7.74957754   -5.14738985   -0.89623802
H   7.31734856   -4.50280060   -1.41018781
H   1.91833764   -6.11945337   0.24661147
O   12.04814848   0.85276762   -0.60311400
H   12.55176189   0.98347049   -1.45270872
H   -0.54445370   -5.11164461   -2.00310071
O   -8.07160340   4.82637418   -2.59689948
H   -7.75911594   5.27029042   -3.37332128
H   -7.54007501   3.95125392   -2.37391507
O   1.03751433   3.67728518   -0.26162459
H   2.00882418   3.48940922   -0.36267665
H   0.62747043   3.08252282   -0.99335366
O   6.74873534   -0.89231034   -2.93202852
H   7.41198681   -1.65361254   -2.63079550
H   6.12606173   -0.87331695   -2.10092210
O   9.97162742   -0.17121212   2.28117167
H   -9.17991467   -5.37664568   0.13764048
H   10.46377773   -0.33634273   3.12238748
O   2.21725353   -4.79647990   2.42665649
H   2.60288182   -4.66912788   1.52933369
H   1.27961814   -5.27839749   2.47500286
O   12.31892433   6.35156779   -0.15438096
H   -5.43169635   4.99309561   -1.31336839
H   -9.36676183   5.13723048   3.33930842
O   -1.02818302   -4.49959428   1.84390430
H   -1.31554031   -3.62909834   1.74256923
H   9.66525161   -2.78915577   -2.44337310
O   -1.88921646   1.77514225   -0.93437386
H   -0.23918134   5.35919776   1.85506242
H   -1.10757341   4.38311752   1.30374062
O   -14.27137710   -1.80368320   -1.60606643
H   -8.30772082   0.16787726   -2.65997626
H   -13.45654976   -2.01830616   -2.22787491
O   -8.54719674   -0.88960477   -2.55247333
H   -14.77963770   3.14637890   0.05834359
H   -7.91409558   -1.15232689   -1.84799299
O   0.76391672   5.24042118   -2.59605680
H   -0.10663270   5.41047023   -2.22879777
H   1.32433033   4.78406977   -1.92837840
O   -5.77138977   -0.97268033   0.92380203
H   2.29916415   0.99476082   -1.90464231
H   -0.24046716   -5.19521912   -3.44305825
O   2.55153516   5.70172057   1.07805519
H   3.03788756   4.85542571   0.94778887
H   12.46881555   5.38052885   0.46490012
O   -7.16908719   -3.36477433   -1.69114200
H   -7.04523441   -2.61097371   -2.18169834
H   -8.30395229   -3.32960503   -1.85320504
O   -11.76535623   5.74730542   -1.68576139
H   -12.25149162   6.02204465   -0.88213726
H   -11.55739348   4.66249909   -1.84130545
O   8.83302031   -2.60473930   -1.88471789
H   -0.28701295   -4.38853788   1.25767168
H   9.93668343   -1.21570238   2.25301106
O   11.70051299   2.61983178   1.46300022
H   11.67053958   1.71631846   1.25029546
H   10.85148638   3.03485600   1.96281715
O   -10.01947600   0.22877469   2.04522528
H   -10.04969923   0.40502765   1.03510327
H   12.02950952   -6.36466753   0.54067291
O   -1.88447930   -1.07440424   -1.68923971
H   2.09203366   6.10951387   1.81486405
H   -14.09663476   1.01345547   1.77028082
O   -8.98192823   -5.51667880   1.10523192
H   -8.33734223   -4.77422177   1.45550917
H   9.52473079   1.63254604   -1.37765358
O   11.83927513   -2.63617672   -1.93014407
H   6.00741965   3.62434493   -0.79773025
H   12.63609599   -3.14636486   -2.01108771
O   -5.19131088   4.39304092   -0.49721234
H   9.14794253   -2.45904209   -0.97221460
H   -4.56256517   3.61996829   -0.59519373
O   -14.50095994   -5.58268806   -2.12967234
H   -14.98624435   -4.94307313   -2.69264511
H   10.41946582   5.32683586   0.00942567
O   1.38972844   -5.47034330   0.09186228
H   1.20989137   -5.39974245   -0.82724324
H   11.37447368   0.69759150   -1.23178154
O   -0.61998600   -0.25808983   0.83041290
H   -0.02461436   -0.53959900   0.06832757
H   -1.54680756   0.29403831   0.67218137
O   6.47722425   1.79036149   -1.74128639
H   6.57707124   1.77435106   -2.64877965
H   7.35123018   2.34471010   -1.66746272
O   -14.03531682   -4.01183448   1.03083252
H   -14.96583876   -4.02917859   0.77580067
H   -13.58200498   -3.23804224   0.59958972
O   -0.85702512   4.71709786   2.10831287
H   -2.50617309   1.20648657   -0.41855361
H   -12.57394158   0.72352897   -1.39439019
O   -14.24351834   2.96343791   0.85089080
H   -1.23851566   1.86603659   -0.38034833
H   -13.52112674   3.51140445   0.98624417
O   6.28258660   3.55674827   0.26336779
H   -13.81835911   -1.53405994   -0.81626469
H   7.16898047   3.33739078   0.26089274
O   5.28160910   6.38855054   -1.91162776
H   4.98914113   5.82021297   -2.73536310
H   6.26528808   -6.48560862   -2.08347678
O   0.13210588   -4.92486186   -2.48782905
H   -4.59916730   -3.28665553   3.24227696
H   7.27741738   -5.07582671   -0.14729153
O   3.28618130   1.62231111   -1.76351304
H   -6.31712025   -1.05047621   1.65186049
H   -5.05120560   -1.56613975   0.83805522
O   -14.63763229   0.24320165   1.90567092
H   15.02621693   0.74300653   2.25612190
O   -12.62710579   1.61257740   -1.62490845
H   -13.29140897   1.91402045   -0.98819385
