739

C   -10.76340000   -5.92505000   -5.83460000
C   -8.22489000   -5.93797000   -5.78046000
C   -9.48029000   -5.18988000   -6.29076000
H   -8.24790000   -5.95901000   -4.66543000
H   -8.17253000   -2.97647000   -7.33552000
C   -8.19969000   -2.99808000   -6.22055000
C   -9.48485000   -3.73312000   -5.76890000
H   -9.45554000   -5.17042000   -7.40580000
C   -10.73719000   -2.98466000   -6.28521000
C   -12.02432000   -3.71671000   -5.83284000
C   -12.01941000   -5.17984000   -6.34886000
H   -11.99206000   -5.16405000   -7.46391000
H   -10.78847000   -5.94267000   -4.71963000
H   -9.51234000   -3.75262000   -4.65397000
H   -10.70859000   -2.96668000   -7.40012000
H   -12.05147000   -3.73259000   -4.71781000
C   -10.73926000   -1.52755000   -5.76395000
C   -8.20302000   -1.54231000   -5.69515000
C   -9.45191000   -0.79287000   -6.21250000
C   -11.98602000   -0.77710000   -6.28522000
H   -10.77102000   -1.54574000   -4.64911000
H   -8.23271000   -1.56378000   -4.58028000
H   -11.95201000   -0.76043000   -7.40032000
H   -9.42058000   -0.77330000   -7.32756000
C   -13.28154000   -1.50438000   -5.83918000
C   -13.28035000   -2.96708000   -6.34914000
C   -13.30696000   -5.91611000   -5.89479000
C   -14.50950000   -0.73312000   -6.36105000
C   -14.54949000   -3.71341000   -5.89659000
C   -14.54442000   -5.15674000   -6.40926000
H   -14.52300000   -0.73202000   -7.47321000
H   -13.32321000   -1.51667000   -4.72567000
H   -13.26029000   -2.95466000   -7.46326000
H   -14.62531000   -3.71485000   -4.78701000
H   -14.56549000   -5.15487000   -7.52121000
H   -13.34173000   -5.92820000   -4.78109000
C   -14.50180000   0.71203000   -5.85049000
C   -13.21998000   1.43232000   -6.28203000
C   -11.98186000   0.68386000   -5.76645000
C   -10.69787000   1.40854000   -6.20554000
C   -9.45440000   0.66558000   -5.69034000
C   -8.17070000   1.39436000   -6.12754000
H   -14.58326000   0.71955000   -4.74229000
H   -12.01594000   0.67959000   -4.65350000
H   -9.48783000   0.65871000   -4.57747000
H   -13.19639000   1.50307000   -7.39194000
H   -10.66368000   1.47733000   -7.31636000
H   -8.13749000   1.46703000   -7.23808000
C   -8.21987000   5.86396000   -6.30503000
C   -9.49888000   5.12799000   -5.84539000
C   -10.75572000   5.87559000   -6.35513000
H   -8.19929000   5.88483000   -7.42016000
C   -9.49207000   3.66903000   -6.36619000
H   -9.51996000   5.10935000   -4.73015000
C   -10.76631000   2.93966000   -5.91059000
C   -12.01977000   3.67717000   -6.41224000
C   -12.03403000   5.13856000   -5.89489000
H   -9.47310000   3.67495000   -7.47944000
H   -10.73372000   5.89331000   -7.47024000
H   -12.05464000   5.12248000   -4.77945000
H   -11.99932000   3.68077000   -7.52556000
H   -10.78642000   2.87195000   -4.79938000
C   -8.23763000   2.92772000   -5.86909000
H   -8.25531000   2.85689000   -4.75813000
C   -13.29844000   5.87899000   -6.40415000
C   -13.28945000   2.94211000   -5.95799000
C   -14.55860000   5.12091000   -5.94332000
C   -14.54081000   3.67537000   -6.45253000
H   -13.28522000   5.89099000   -7.51840000
H   -14.62693000   5.12077000   -4.83321000
H   -14.56756000   3.66781000   -7.56341000
H   -13.32128000   2.87210000   -4.84823000
C   -3.16440000   -5.92505000   -5.83460000
C   -0.62589000   -5.93797000   -5.78046000
C   -1.88129000   -5.18988000   -6.29076000
H   -0.64890000   -5.95901000   -4.66543000
H   -0.57353000   -2.97647000   -7.33552000
C   -0.60069000   -2.99808000   -6.22055000
C   -1.88585000   -3.73312000   -5.76890000
H   -1.85654000   -5.17042000   -7.40580000
C   -3.13819000   -2.98466000   -6.28521000
C   -4.42532000   -3.71671000   -5.83284000
C   -4.42041000   -5.17984000   -6.34886000
H   -4.39306000   -5.16405000   -7.46391000
H   -3.18947000   -5.94267000   -4.71963000
H   -1.91334000   -3.75262000   -4.65397000
H   -3.10959000   -2.96668000   -7.40012000
H   -4.45247000   -3.73259000   -4.71781000
C   -3.14026000   -1.52755000   -5.76395000
C   -0.60402000   -1.54231000   -5.69515000
C   -1.85291000   -0.79287000   -6.21250000
C   -4.38702000   -0.77710000   -6.28522000
H   -3.17202000   -1.54574000   -4.64911000
H   -0.63371000   -1.56378000   -4.58028000
H   -4.35301000   -0.76043000   -7.40032000
H   -1.82158000   -0.77330000   -7.32756000
C   -5.68254000   -1.50438000   -5.83918000
C   -5.68135000   -2.96708000   -6.34914000
C   -5.70796000   -5.91611000   -5.89479000
C   -6.91050000   -0.73312000   -6.36105000
C   -6.95049000   -3.71341000   -5.89659000
C   -6.94542000   -5.15674000   -6.40926000
H   -6.92400000   -0.73202000   -7.47321000
H   -5.72421000   -1.51667000   -4.72567000
H   -5.66129000   -2.95466000   -7.46326000
H   -7.02631000   -3.71485000   -4.78701000
H   -6.96649000   -5.15487000   -7.52121000
H   -5.74273000   -5.92820000   -4.78109000
C   -6.90280000   0.71203000   -5.85049000
C   -5.62098000   1.43232000   -6.28203000
C   -4.38286000   0.68386000   -5.76645000
C   -3.09887000   1.40854000   -6.20554000
C   -1.85540000   0.66558000   -5.69034000
C   -0.57170000   1.39436000   -6.12754000
H   -6.98426000   0.71955000   -4.74229000
H   -4.41694000   0.67959000   -4.65350000
H   -1.88883000   0.65871000   -4.57747000
H   -5.59739000   1.50307000   -7.39194000
H   -3.06468000   1.47733000   -7.31636000
H   -0.53849000   1.46703000   -7.23808000
C   -0.62087000   5.86396000   -6.30503000
C   -1.89988000   5.12799000   -5.84539000
C   -3.15672000   5.87559000   -6.35513000
H   -0.60029000   5.88483000   -7.42016000
C   -1.89307000   3.66903000   -6.36619000
H   -1.92096000   5.10935000   -4.73015000
C   -3.16731000   2.93966000   -5.91059000
C   -4.42077000   3.67717000   -6.41224000
C   -4.43503000   5.13856000   -5.89489000
H   -1.87410000   3.67495000   -7.47944000
H   -3.13472000   5.89331000   -7.47024000
H   -4.45564000   5.12248000   -4.77945000
H   -4.40032000   3.68077000   -7.52556000
H   -3.18742000   2.87195000   -4.79938000
C   -0.63863000   2.92772000   -5.86909000
H   -0.65631000   2.85689000   -4.75813000
C   -5.69944000   5.87899000   -6.40415000
C   -5.69045000   2.94211000   -5.95799000
C   -6.95960000   5.12091000   -5.94332000
C   -6.94181000   3.67537000   -6.45253000
H   -5.68622000   5.89099000   -7.51840000
H   -7.02793000   5.12077000   -4.83321000
H   -6.96856000   3.66781000   -7.56341000
H   -5.72228000   2.87210000   -4.84823000
C   4.43460000   -5.92505000   -5.83460000
C   6.97311000   -5.93797000   -5.78046000
C   5.71771000   -5.18988000   -6.29076000
H   6.95010000   -5.95901000   -4.66543000
H   7.02547000   -2.97647000   -7.33552000
C   6.99831000   -2.99808000   -6.22055000
C   5.71315000   -3.73312000   -5.76890000
H   5.74246000   -5.17042000   -7.40580000
C   4.46081000   -2.98466000   -6.28521000
C   3.17368000   -3.71671000   -5.83284000
C   3.17859000   -5.17984000   -6.34886000
H   3.20594000   -5.16405000   -7.46391000
H   4.40953000   -5.94267000   -4.71963000
H   5.68566000   -3.75262000   -4.65397000
H   4.48941000   -2.96668000   -7.40012000
H   3.14653000   -3.73259000   -4.71781000
C   4.45874000   -1.52755000   -5.76395000
C   6.99498000   -1.54231000   -5.69515000
C   5.74609000   -0.79287000   -6.21250000
C   3.21198000   -0.77710000   -6.28522000
H   4.42698000   -1.54574000   -4.64911000
H   6.96529000   -1.56378000   -4.58028000
H   3.24599000   -0.76043000   -7.40032000
H   5.77742000   -0.77330000   -7.32756000
C   1.91646000   -1.50438000   -5.83918000
C   1.91765000   -2.96708000   -6.34914000
C   1.89104000   -5.91611000   -5.89479000
C   0.68850000   -0.73312000   -6.36105000
C   0.64851000   -3.71341000   -5.89659000
C   0.65358000   -5.15674000   -6.40926000
H   0.67500000   -0.73202000   -7.47321000
H   1.87479000   -1.51667000   -4.72567000
H   1.93771000   -2.95466000   -7.46326000
H   0.57269000   -3.71485000   -4.78701000
H   0.63251000   -5.15487000   -7.52121000
H   1.85627000   -5.92820000   -4.78109000
C   0.69620000   0.71203000   -5.85049000
C   1.97802000   1.43232000   -6.28203000
C   3.21614000   0.68386000   -5.76645000
C   4.50013000   1.40854000   -6.20554000
C   5.74360000   0.66558000   -5.69034000
C   7.02730000   1.39436000   -6.12754000
H   0.61474000   0.71955000   -4.74229000
H   3.18206000   0.67959000   -4.65350000
H   5.71017000   0.65871000   -4.57747000
H   2.00161000   1.50307000   -7.39194000
H   4.53432000   1.47733000   -7.31636000
H   7.06051000   1.46703000   -7.23808000
C   6.97813000   5.86396000   -6.30503000
C   5.69912000   5.12799000   -5.84539000
C   4.44228000   5.87559000   -6.35513000
H   6.99871000   5.88483000   -7.42016000
C   5.70593000   3.66903000   -6.36619000
H   5.67804000   5.10935000   -4.73015000
C   4.43169000   2.93966000   -5.91059000
C   3.17823000   3.67717000   -6.41224000
C   3.16397000   5.13856000   -5.89489000
H   5.72490000   3.67495000   -7.47944000
H   4.46428000   5.89331000   -7.47024000
H   3.14336000   5.12248000   -4.77945000
H   3.19868000   3.68077000   -7.52556000
H   4.41158000   2.87195000   -4.79938000
C   6.96037000   2.92772000   -5.86909000
H   6.94269000   2.85689000   -4.75813000
C   1.89956000   5.87899000   -6.40415000
C   1.90855000   2.94211000   -5.95799000
C   0.63940000   5.12091000   -5.94332000
C   0.65719000   3.67537000   -6.45253000
H   1.91278000   5.89099000   -7.51840000
H   0.57107000   5.12077000   -4.83321000
H   0.63044000   3.66781000   -7.56341000
H   1.87672000   2.87210000   -4.84823000
C   12.03360000   -5.92505000   -5.83460000
C   14.57211000   -5.93797000   -5.78046000
C   13.31671000   -5.18988000   -6.29076000
H   14.54910000   -5.95901000   -4.66543000
H   14.62447000   -2.97647000   -7.33552000
C   14.59731000   -2.99808000   -6.22055000
C   13.31215000   -3.73312000   -5.76890000
H   13.34146000   -5.17042000   -7.40580000
C   12.05981000   -2.98466000   -6.28521000
C   10.77268000   -3.71671000   -5.83284000
C   10.77759000   -5.17984000   -6.34886000
H   10.80494000   -5.16405000   -7.46391000
H   12.00853000   -5.94267000   -4.71963000
H   13.28466000   -3.75262000   -4.65397000
H   12.08841000   -2.96668000   -7.40012000
H   10.74553000   -3.73259000   -4.71781000
C   12.05774000   -1.52755000   -5.76395000
C   14.59398000   -1.54231000   -5.69515000
C   13.34509000   -0.79287000   -6.21250000
C   10.81098000   -0.77710000   -6.28522000
H   12.02598000   -1.54574000   -4.64911000
H   14.56429000   -1.56378000   -4.58028000
H   10.84499000   -0.76043000   -7.40032000
H   13.37642000   -0.77330000   -7.32756000
C   9.51546000   -1.50438000   -5.83918000
C   9.51665000   -2.96708000   -6.34914000
C   9.49004000   -5.91611000   -5.89479000
C   8.28750000   -0.73312000   -6.36105000
C   8.24751000   -3.71341000   -5.89659000
C   8.25258000   -5.15674000   -6.40926000
H   8.27400000   -0.73202000   -7.47321000
H   9.47379000   -1.51667000   -4.72567000
H   9.53671000   -2.95466000   -7.46326000
H   8.17169000   -3.71485000   -4.78701000
H   8.23151000   -5.15487000   -7.52121000
H   9.45527000   -5.92820000   -4.78109000
C   8.29520000   0.71203000   -5.85049000
C   9.57702000   1.43232000   -6.28203000
C   10.81514000   0.68386000   -5.76645000
C   12.09913000   1.40854000   -6.20554000
C   13.34260000   0.66558000   -5.69034000
C   14.62630000   1.39436000   -6.12754000
H   8.21374000   0.71955000   -4.74229000
H   10.78106000   0.67959000   -4.65350000
H   13.30917000   0.65871000   -4.57747000
H   9.60061000   1.50307000   -7.39194000
H   12.13332000   1.47733000   -7.31636000
H   14.65951000   1.46703000   -7.23808000
C   14.57713000   5.86396000   -6.30503000
C   13.29812000   5.12799000   -5.84539000
C   12.04128000   5.87559000   -6.35513000
H   14.59771000   5.88483000   -7.42016000
C   13.30493000   3.66903000   -6.36619000
H   13.27704000   5.10935000   -4.73015000
C   12.03069000   2.93966000   -5.91059000
C   10.77723000   3.67717000   -6.41224000
C   10.76297000   5.13856000   -5.89489000
H   13.32390000   3.67495000   -7.47944000
H   12.06328000   5.89331000   -7.47024000
H   10.74236000   5.12248000   -4.77945000
H   10.79768000   3.68077000   -7.52556000
H   12.01058000   2.87195000   -4.79938000
C   14.55937000   2.92772000   -5.86909000
H   14.54169000   2.85689000   -4.75813000
C   9.49856000   5.87899000   -6.40415000
C   9.50755000   2.94211000   -5.95799000
C   8.23840000   5.12091000   -5.94332000
C   8.25619000   3.67537000   -6.45253000
H   9.51178000   5.89099000   -7.51840000
H   8.17007000   5.12077000   -4.83321000
H   8.22944000   3.66781000   -7.56341000
H   9.47572000   2.87210000   -4.84823000
C   -10.76340000   -5.92505000   6.16540000
C   -8.22489000   -5.93797000   6.21954000
C   -9.48029000   -5.18988000   5.70924000
H   -8.24790000   -5.95901000   7.33457000
H   -8.17253000   -2.97647000   4.66448000
C   -8.19969000   -2.99808000   5.77945000
C   -9.48485000   -3.73312000   6.23110000
H   -9.45554000   -5.17042000   4.59420000
C   -10.73719000   -2.98466000   5.71479000
C   -12.02432000   -3.71671000   6.16716000
C   -12.01941000   -5.17984000   5.65114000
H   -11.99206000   -5.16405000   4.53609000
H   -10.78847000   -5.94267000   7.28037000
H   -9.51234000   -3.75262000   7.34603000
H   -10.70859000   -2.96668000   4.59988000
H   -12.05147000   -3.73259000   7.28219000
C   -10.73926000   -1.52755000   6.23605000
C   -8.20302000   -1.54231000   6.30485000
C   -9.45191000   -0.79287000   5.78750000
C   -11.98602000   -0.77710000   5.71478000
H   -10.77102000   -1.54574000   7.35089000
H   -8.23271000   -1.56378000   7.41972000
H   -11.95201000   -0.76043000   4.59968000
H   -9.42058000   -0.77330000   4.67244000
C   -13.28154000   -1.50438000   6.16082000
C   -13.28035000   -2.96708000   5.65086000
C   -13.30696000   -5.91611000   6.10521000
C   -14.50950000   -0.73312000   5.63895000
C   -14.54949000   -3.71341000   6.10341000
C   -14.54442000   -5.15674000   5.59074000
H   -14.52300000   -0.73202000   4.52679000
H   -13.32321000   -1.51667000   7.27433000
H   -13.26029000   -2.95466000   4.53674000
H   -14.62531000   -3.71485000   7.21299000
H   -14.56549000   -5.15487000   4.47879000
H   -13.34173000   -5.92820000   7.21891000
C   -14.50180000   0.71203000   6.14951000
C   -13.21998000   1.43232000   5.71797000
C   -11.98186000   0.68386000   6.23355000
C   -10.69787000   1.40854000   5.79446000
C   -9.45440000   0.66558000   6.30966000
C   -8.17070000   1.39436000   5.87246000
H   -14.58326000   0.71955000   7.25771000
H   -12.01594000   0.67959000   7.34650000
H   -9.48783000   0.65871000   7.42253000
H   -13.19639000   1.50307000   4.60806000
H   -10.66368000   1.47733000   4.68364000
H   -8.13749000   1.46703000   4.76192000
C   -8.21987000   5.86396000   5.69497000
C   -9.49888000   5.12799000   6.15461000
C   -10.75572000   5.87559000   5.64487000
H   -8.19929000   5.88483000   4.57984000
C   -9.49207000   3.66903000   5.63381000
H   -9.51996000   5.10935000   7.26985000
C   -10.76631000   2.93966000   6.08941000
C   -12.01977000   3.67717000   5.58776000
C   -12.03403000   5.13856000   6.10511000
H   -9.47310000   3.67495000   4.52056000
H   -10.73372000   5.89331000   4.52976000
H   -12.05464000   5.12248000   7.22055000
H   -11.99932000   3.68077000   4.47444000
H   -10.78642000   2.87195000   7.20062000
C   -8.23763000   2.92772000   6.13091000
H   -8.25531000   2.85689000   7.24187000
C   -13.29844000   5.87899000   5.59585000
C   -13.28945000   2.94211000   6.04201000
C   -14.55860000   5.12091000   6.05668000
C   -14.54081000   3.67537000   5.54747000
H   -13.28522000   5.89099000   4.48160000
H   -14.62693000   5.12077000   7.16679000
H   -14.56756000   3.66781000   4.43659000
H   -13.32128000   2.87210000   7.15177000
C   -3.16440000   -5.92505000   6.16540000
C   -0.62589000   -5.93797000   6.21954000
C   -1.88129000   -5.18988000   5.70924000
H   -0.64890000   -5.95901000   7.33457000
H   -0.57353000   -2.97647000   4.66448000
C   -0.60069000   -2.99808000   5.77945000
C   -1.88585000   -3.73312000   6.23110000
H   -1.85654000   -5.17042000   4.59420000
C   -3.13819000   -2.98466000   5.71479000
C   -4.42532000   -3.71671000   6.16716000
C   -4.42041000   -5.17984000   5.65114000
H   -4.39306000   -5.16405000   4.53609000
H   -3.18947000   -5.94267000   7.28037000
H   -1.91334000   -3.75262000   7.34603000
H   -3.10959000   -2.96668000   4.59988000
H   -4.45247000   -3.73259000   7.28219000
C   -3.14026000   -1.52755000   6.23605000
C   -0.60402000   -1.54231000   6.30485000
C   -1.85291000   -0.79287000   5.78750000
C   -4.38702000   -0.77710000   5.71478000
H   -3.17202000   -1.54574000   7.35089000
H   -0.63371000   -1.56378000   7.41972000
H   -1.82158000   -0.77330000   4.67244000
C   -5.68254000   -1.50438000   6.16082000
C   -5.68135000   -2.96708000   5.65086000
C   -5.70796000   -5.91611000   6.10521000
C   -6.91050000   -0.73312000   5.63895000
C   -6.95049000   -3.71341000   6.10341000
C   -6.94542000   -5.15674000   5.59074000
H   -6.92400000   -0.73202000   4.52679000
H   -5.72421000   -1.51667000   7.27433000
H   -5.66129000   -2.95466000   4.53674000
H   -7.02631000   -3.71485000   7.21299000
H   -6.96649000   -5.15487000   4.47879000
H   -5.74273000   -5.92820000   7.21891000
C   -6.90280000   0.71203000   6.14951000
C   -5.62098000   1.43232000   5.71797000
C   -4.38286000   0.68386000   6.23355000
C   -3.09887000   1.40854000   5.79446000
C   -1.85540000   0.66558000   6.30966000
C   -0.57170000   1.39436000   5.87246000
H   -6.98426000   0.71955000   7.25771000
H   -4.41694000   0.67959000   7.34650000
H   -1.88883000   0.65871000   7.42253000
H   -5.59739000   1.50307000   4.60806000
H   -3.06468000   1.47733000   4.68364000
H   -0.53849000   1.46703000   4.76192000
C   -0.62087000   5.86396000   5.69497000
C   -1.89988000   5.12799000   6.15461000
C   -3.15672000   5.87559000   5.64487000
H   -0.60029000   5.88483000   4.57984000
C   -1.89307000   3.66903000   5.63381000
H   -1.92096000   5.10935000   7.26985000
C   -3.16731000   2.93966000   6.08941000
C   -4.42077000   3.67717000   5.58776000
C   -4.43503000   5.13856000   6.10511000
H   -1.87410000   3.67495000   4.52056000
H   -3.13472000   5.89331000   4.52976000
H   -4.45564000   5.12248000   7.22055000
H   -4.40032000   3.68077000   4.47444000
H   -3.18742000   2.87195000   7.20062000
C   -0.63863000   2.92772000   6.13091000
H   -0.65631000   2.85689000   7.24187000
C   -5.69944000   5.87899000   5.59585000
C   -5.69045000   2.94211000   6.04201000
C   -6.95960000   5.12091000   6.05668000
C   -6.94181000   3.67537000   5.54747000
H   -5.68622000   5.89099000   4.48160000
H   -7.02793000   5.12077000   7.16679000
H   -6.96856000   3.66781000   4.43659000
H   -5.72228000   2.87210000   7.15177000
C   4.43460000   -5.92505000   6.16540000
C   6.97311000   -5.93797000   6.21954000
C   5.71771000   -5.18988000   5.70924000
H   6.95010000   -5.95901000   7.33457000
H   7.02547000   -2.97647000   4.66448000
C   6.99831000   -2.99808000   5.77945000
C   5.71315000   -3.73312000   6.23110000
H   5.74246000   -5.17042000   4.59420000
C   4.46081000   -2.98466000   5.71479000
C   3.17368000   -3.71671000   6.16716000
C   3.17859000   -5.17984000   5.65114000
H   3.20594000   -5.16405000   4.53609000
H   4.40953000   -5.94267000   7.28037000
H   5.68566000   -3.75262000   7.34603000
H   4.48941000   -2.96668000   4.59988000
H   3.14653000   -3.73259000   7.28219000
C   4.45874000   -1.52755000   6.23605000
C   6.99498000   -1.54231000   6.30485000
C   5.74609000   -0.79287000   5.78750000
C   3.21198000   -0.77710000   5.71478000
H   4.42698000   -1.54574000   7.35089000
H   6.96529000   -1.56378000   7.41972000
H   3.24599000   -0.76043000   4.59968000
C   1.91646000   -1.50438000   6.16082000
C   1.91765000   -2.96708000   5.65086000
C   1.89104000   -5.91611000   6.10521000
C   0.68850000   -0.73312000   5.63895000
C   0.64851000   -3.71341000   6.10341000
C   0.65358000   -5.15674000   5.59074000
H   0.67500000   -0.73202000   4.52679000
H   1.87479000   -1.51667000   7.27433000
H   1.93771000   -2.95466000   4.53674000
H   0.57269000   -3.71485000   7.21299000
H   0.63251000   -5.15487000   4.47879000
H   1.85627000   -5.92820000   7.21891000
C   0.69620000   0.71203000   6.14951000
C   1.97802000   1.43232000   5.71797000
C   3.21614000   0.68386000   6.23355000
C   4.50013000   1.40854000   5.79446000
C   5.74360000   0.66558000   6.30966000
C   7.02730000   1.39436000   5.87246000
H   0.61474000   0.71955000   7.25771000
H   3.18206000   0.67959000   7.34650000
H   5.71017000   0.65871000   7.42253000
H   2.00161000   1.50307000   4.60806000
H   4.53432000   1.47733000   4.68364000
H   7.06051000   1.46703000   4.76192000
C   6.97813000   5.86396000   5.69497000
C   5.69912000   5.12799000   6.15461000
C   4.44228000   5.87559000   5.64487000
H   6.99871000   5.88483000   4.57984000
C   5.70593000   3.66903000   5.63381000
H   5.67804000   5.10935000   7.26985000
C   4.43169000   2.93966000   6.08941000
C   3.17823000   3.67717000   5.58776000
C   3.16397000   5.13856000   6.10511000
H   5.72490000   3.67495000   4.52056000
H   4.46428000   5.89331000   4.52976000
H   3.14336000   5.12248000   7.22055000
H   3.19868000   3.68077000   4.47444000
H   4.41158000   2.87195000   7.20062000
C   6.96037000   2.92772000   6.13091000
H   6.94269000   2.85689000   7.24187000
C   1.89956000   5.87899000   5.59585000
C   1.90855000   2.94211000   6.04201000
C   0.63940000   5.12091000   6.05668000
C   0.65719000   3.67537000   5.54747000
H   1.91278000   5.89099000   4.48160000
H   0.57107000   5.12077000   7.16679000
H   0.63044000   3.66781000   4.43659000
H   1.87672000   2.87210000   7.15177000
C   12.03360000   -5.92505000   6.16540000
C   14.57211000   -5.93797000   6.21954000
C   13.31671000   -5.18988000   5.70924000
H   14.54910000   -5.95901000   7.33457000
H   14.62447000   -2.97647000   4.66448000
C   14.59731000   -2.99808000   5.77945000
C   13.31215000   -3.73312000   6.23110000
H   13.34146000   -5.17042000   4.59420000
C   12.05981000   -2.98466000   5.71479000
C   10.77268000   -3.71671000   6.16716000
C   10.77759000   -5.17984000   5.65114000
H   10.80494000   -5.16405000   4.53609000
H   12.00853000   -5.94267000   7.28037000
H   13.28466000   -3.75262000   7.34603000
H   12.08841000   -2.96668000   4.59988000
H   10.74553000   -3.73259000   7.28219000
C   12.05774000   -1.52755000   6.23605000
C   14.59398000   -1.54231000   6.30485000
C   13.34509000   -0.79287000   5.78750000
C   10.81098000   -0.77710000   5.71478000
H   12.02598000   -1.54574000   7.35089000
H   14.56429000   -1.56378000   7.41972000
H   10.84499000   -0.76043000   4.59968000
H   13.37642000   -0.77330000   4.67244000
C   9.51546000   -1.50438000   6.16082000
C   9.51665000   -2.96708000   5.65086000
C   9.49004000   -5.91611000   6.10521000
C   8.28750000   -0.73312000   5.63895000
C   8.24751000   -3.71341000   6.10341000
C   8.25258000   -5.15674000   5.59074000
H   8.27400000   -0.73202000   4.52679000
H   9.47379000   -1.51667000   7.27433000
H   9.53671000   -2.95466000   4.53674000
H   8.17169000   -3.71485000   7.21299000
H   8.23151000   -5.15487000   4.47879000
H   9.45527000   -5.92820000   7.21891000
C   8.29520000   0.71203000   6.14951000
C   9.57702000   1.43232000   5.71797000
C   10.81514000   0.68386000   6.23355000
C   12.09913000   1.40854000   5.79446000
C   13.34260000   0.66558000   6.30966000
C   14.62630000   1.39436000   5.87246000
H   8.21374000   0.71955000   7.25771000
H   10.78106000   0.67959000   7.34650000
H   13.30917000   0.65871000   7.42253000
H   9.60061000   1.50307000   4.60806000
H   12.13332000   1.47733000   4.68364000
H   14.65951000   1.46703000   4.76192000
C   14.57713000   5.86396000   5.69497000
C   13.29812000   5.12799000   6.15461000
C   12.04128000   5.87559000   5.64487000
H   14.59771000   5.88483000   4.57984000
C   13.30493000   3.66903000   5.63381000
H   13.27704000   5.10935000   7.26985000
C   12.03069000   2.93966000   6.08941000
C   10.77723000   3.67717000   5.58776000
C   10.76297000   5.13856000   6.10511000
H   13.32390000   3.67495000   4.52056000
H   12.06328000   5.89331000   4.52976000
H   10.74236000   5.12248000   7.22055000
H   10.79768000   3.68077000   4.47444000
H   12.01058000   2.87195000   7.20062000
C   14.55937000   2.92772000   6.13091000
H   14.54169000   2.85689000   7.24187000
C   9.49856000   5.87899000   5.59585000
C   9.50755000   2.94211000   6.04201000
C   8.23840000   5.12091000   6.05668000
C   8.25619000   3.67537000   5.54747000
H   9.51178000   5.89099000   4.48160000
H   8.17007000   5.12077000   7.16679000
H   8.22944000   3.66781000   4.43659000
H   9.47572000   2.87210000   7.15177000
N   -5.10122135   0.03881940   1.49293389
C   -5.53329660   -0.32534288   3.08776104
H   -6.08358308   0.54455578   3.36848898
H   -6.08843655   -1.24953797   2.98836108
C   -4.36524765   -0.70319052   4.07368983
H   -4.21380265   -1.71521916   3.79799258
H   -3.54429434   0.08597079   3.86337485
C   -4.00595985   -0.78177507   1.14402876
H   -4.35873082   -1.92875719   1.28324907
H   -3.48100944   -0.48738560   0.19784254
H   -6.64186150   3.60646376   -3.07089662
C   -4.55844579   1.55836698   1.65166398
H   -3.77556026   1.48805857   0.93550186
H   -5.20030025   2.16336312   0.93098870
H   1.65800606   3.64393614   1.05370471
C   -6.22072381   -0.00388151   0.57372996
H   -6.73220759   -0.95647031   0.51762459
H   -6.94182464   0.80131977   0.80594698
H   -5.78126673   0.32401949   -0.32186104
N   6.01028304   -0.60147688   1.67044976
C   5.15908855   -1.16475610   2.92013751
H   4.37361789   -0.48496253   2.93125921
H   4.84834015   -2.21189976   2.79947509
C   5.77240506   -0.63048589   4.20439916
H   6.73926383   -0.42334821   3.73245893
H   5.48524049   0.35697661   4.14041365
C   5.02412163   -0.61104655   0.51434792
H   -14.24877355   -3.24296870   -2.55238352
H   4.15544309   0.05208540   0.73093751
H   5.57913870   -0.16925792   -0.21639092
C   7.11862795   -1.63784527   1.23309091
H   7.74797795   -1.84455037   2.21377589
H   6.78459368   -2.71436502   1.25753601
H   7.82470713   -1.35037136   0.38857884
C   6.66105118   0.73192973   1.79621395
H   6.08806976   1.50512007   2.23012368
H   7.66171786   0.63336930   2.32472257
H   6.77518325   1.18627679   0.80865601
O   0.92586847   -4.21319233   2.85046560
H   -10.33789569   -2.23818314   0.15278481
H   0.97830897   -3.16297520   2.61738678
O   8.11877148   1.56648108   -1.62411375
H   6.51063446   5.18711645   -2.49528816
H   7.59807053   2.49513609   -1.81597057
O   1.89372162   5.99304309   1.57419714
H   0.28796288   -4.68453661   2.10481235
H   1.72211670   5.60393939   2.44002068
O   -13.33203845   -3.60521399   -2.55935683
H   12.14813859   1.80249003   0.84953337
H   -13.08482824   -3.52855537   -3.44517738
O   5.78402689   5.00611541   -1.82100783
H   6.36556878   5.13412167   -0.92961234
H   9.25365565   3.41116945   -1.95038560
O   10.76875615   2.84455489   1.87998678
H   -12.27815334   -0.77759127   0.69578752
H   -12.10892590   0.71535082   1.04343327
O   -8.76050504   5.96416293   -2.55371370
H   -14.40310999   -1.89103816   0.92490582
H   -8.44842826   -6.58406864   -2.62913078
O   -1.64506976   0.88381482   2.52294122
H   -1.14362829   1.63396146   2.48273856
H   -0.81939862   5.48166182   1.67798867
O   8.00858605   4.10170684   1.19347610
H   -10.32934914   -1.28997896   1.56783642
H   7.23230819   3.48646519   1.53909438
O   -1.26843007   6.33811184   2.17277822
H   5.84369178   -5.36596431   0.15080143
H   -1.56163373   -6.59805335   1.44963034
O   -10.18448781   -5.65748456   -1.34898494
H   -9.77530890   -6.45375148   -0.91942622
H   -11.09993653   -5.13257371   -1.20317149
O   -9.74100790   -1.95132278   0.92252428
H   2.35429619   -6.61621592   1.81260723
H   -9.62597276   6.00898622   -2.92714424
O   3.59823909   -5.95320946   -1.58382450
H   3.43603339   6.54706939   -2.05958077
H   4.34840640   -6.29862814   -0.98936777
O   14.75323562   -4.38984778   -0.94857005
H   -14.96428325   -3.73300972   -1.02163100
H   13.92331456   -4.08623042   -0.74345928
O   -5.87595933   5.58493791   -2.82647790
H   -5.92987665   5.14274903   -1.85990897
H   -2.48810399   1.37679998   2.70828446
O   -8.66131256   2.21523084   -0.32989906
H   -2.55815381   -4.81822742   0.37368669
H   -1.40803069   -4.09494078   -0.14686096
O   5.58302903   -4.75615305   0.93199914
H   4.90015570   -5.02015152   1.51704859
H   12.69320637   -2.31891804   1.78375107
O   -8.19641003   2.06214298   2.59879481
H   6.16236303   -0.64410943   -2.11250170
H   -7.39514861   1.66161990   2.35969627
O   -14.60546884   -2.03060458   1.90892482
H   -6.00514051   6.51284810   -2.68297545
H   -3.24739905   -0.49227048   1.92471226
O   -3.79472411   1.77278571   -2.56823028
H   -2.85995290   1.77303663   -2.78323309
H   -6.80473858   -4.76656372   -0.37398107
O   -1.92662635   3.75853451   -0.78472168
H   -1.60559639   4.17679320   -1.65730927
H   13.53793024   0.33491886   0.24607518
O   -8.97362354   5.49593699   1.79138648
H   -8.13119789   4.75148180   1.80130879
H   -8.96221325   5.86956451   0.92287027
O   -15.08986579   2.19878911   0.58013920
H   10.92336175   -1.47605727   -0.39635185
H   -14.70223791   1.46424176   -0.00336349
O   11.48425007   -4.75393030   -0.46037753
H   11.77750878   -5.11544045   0.41857154
H   10.70981266   -4.14705846   -0.27385305
O   10.92064015   -0.78114860   -1.08463071
H   11.74134814   -1.00295974   -1.56515989
H   -8.08029609   2.89672578   3.09443273
O   1.74089547   -1.24350209   -2.02998543
H   2.32197522   -0.46182050   -1.78177559
H   1.06913336   -0.86660797   -2.45116625
O   14.29011041   -0.39099760   0.05012264
H   0.10355235   0.30279047   -0.33236848
H   -2.28853204   4.09071073   0.15890867
O   -7.10257996   2.75657177   -2.97560064
H   -7.97028133   3.04350003   -2.62067266
H   -14.24839803   -1.40720246   2.46652091
O   8.97759882   -2.72822059   -1.60279561
H   -8.53536796   1.44575948   -1.18910984
H   9.50278192   -2.51969179   -2.54806466
O   1.28893021   -4.19111634   -1.97095988
H   2.17156884   -4.24612359   -1.67650063
H   1.43343523   -3.17572729   -1.77954791
O   -12.54099345   2.93613384   1.32302277
H   -11.77733687   2.47289716   1.56273069
H   -13.18171093   2.30015401   1.55391709
O   1.36392641   3.07605211   1.95111710
H   7.91747350   4.94100989   1.61785780
H   1.34163540   2.13761939   1.56212001
O   8.87081944   -6.40490091   -0.50028871
H   8.92584135   -5.65899146   -0.86678559
H   9.70858190   6.48650236   -0.39004267
O   -12.51178728   -0.12191396   1.25525688
H   7.93709274   -2.69625990   -1.77152960
H   7.77401278   0.89140175   -2.39475277
O   1.11766624   3.85612478   -2.33189721
H   0.46318662   3.56163865   -3.05928458
H   0.69624696   4.76007046   -1.97231103
O   -1.65005581   -4.78014896   0.46151254
H   -8.61678342   1.80505273   0.55902262
H   -14.81942792   3.13814563   0.50374063
O   6.50117944   -0.39901627   -2.92297897
H   14.06521343   -0.79458593   0.89996240
H   5.83113986   -0.69122018   -3.60276931
O   12.47620769   -2.43012379   0.85621656
H   11.01192459   2.78242498   2.80570007
H   13.13412622   -2.05456758   0.41271348
O   -4.00744708   -1.96658511   -1.86970156
H   -4.10188696   -0.88952508   -1.87832313
H   -3.20115938   -2.16116976   -2.27738538
O   -6.46227787   -5.71944421   -0.27218675
H   -6.62530888   -6.01974038   0.69857072
H   10.11468425   3.49575579   1.88982974
O   9.28154124   4.29961236   -2.37681260
H   -3.96670592   2.25258421   -1.74811665
H   10.20063743   4.66285214   -2.60514003
O   -0.80695741   0.72801580   -0.52230085
H   -0.78878096   1.64102100   -0.29753238
O   12.57163437   1.90491527   -0.00181090
H   12.25100847   2.72821811   -0.51963993
