859

C   -10.69779000   -5.86175000   -7.33858000
C   -8.15928000   -5.87467000   -7.28444000
C   -9.41468000   -5.12658000   -7.79474000
H   -8.18229000   -5.89571000   -6.16941000
H   -8.10692000   -2.91317000   -8.83950000
C   -8.13408000   -2.93478000   -7.72453000
C   -9.41924000   -3.66982000   -7.27288000
H   -9.38993000   -5.10712000   -8.90978000
C   -10.67158000   -2.92136000   -7.78919000
C   -11.95871000   -3.65341000   -7.33682000
C   -11.95380000   -5.11654000   -7.85284000
H   -11.92645000   -5.10075000   -8.96789000
H   -10.72286000   -5.87937000   -6.22361000
H   -9.44673000   -3.68932000   -6.15795000
H   -10.64298000   -2.90338000   -8.90410000
H   -11.98586000   -3.66929000   -6.22179000
C   -10.67365000   -1.46425000   -7.26793000
C   -8.13741000   -1.47901000   -7.19913000
C   -9.38630000   -0.72957000   -7.71648000
C   -11.92041000   -0.71380000   -7.78920000
H   -10.70541000   -1.48244000   -6.15309000
H   -8.16710000   -1.50048000   -6.08426000
H   -11.88640000   -0.69713000   -8.90430000
H   -9.35497000   -0.71000000   -8.83154000
C   -13.21593000   -1.44108000   -7.34316000
C   -13.21474000   -2.90378000   -7.85312000
C   -13.24135000   -5.85281000   -7.39877000
C   -14.44389000   -0.66982000   -7.86503000
C   -14.48388000   -3.65011000   -7.40057000
C   -14.47881000   -5.09344000   -7.91324000
H   -14.45739000   -0.66872000   -8.97719000
H   -13.25760000   -1.45337000   -6.22965000
H   -13.19468000   -2.89136000   -8.96724000
H   -14.55970000   -3.65155000   -6.29099000
H   -14.49988000   -5.09157000   -9.02519000
H   -13.27612000   -5.86490000   -6.28507000
C   -14.43619000   0.77533000   -7.35447000
C   -13.15437000   1.49562000   -7.78601000
C   -11.91625000   0.74716000   -7.27043000
C   -10.63226000   1.47184000   -7.70952000
C   -9.38879000   0.72888000   -7.19432000
C   -8.10509000   1.45766000   -7.63152000
H   -14.51765000   0.78285000   -6.24627000
H   -11.95033000   0.74289000   -6.15748000
H   -9.42222000   0.72201000   -6.08145000
H   -13.13078000   1.56637000   -8.89592000
H   -10.59807000   1.54063000   -8.82034000
H   -8.07188000   1.53033000   -8.74206000
C   -8.15426000   5.92726000   -7.80901000
C   -9.43327000   5.19129000   -7.34937000
C   -10.69011000   5.93889000   -7.85911000
H   -8.13368000   5.94813000   -8.92414000
C   -9.42646000   3.73233000   -7.87017000
H   -9.45435000   5.17265000   -6.23413000
C   -10.70070000   3.00296000   -7.41457000
C   -11.95416000   3.74047000   -7.91622000
C   -11.96842000   5.20186000   -7.39887000
H   -9.40749000   3.73825000   -8.98342000
H   -10.66811000   5.95661000   -8.97422000
H   -11.98903000   5.18578000   -6.28343000
H   -11.93371000   3.74407000   -9.02954000
H   -10.72081000   2.93525000   -6.30336000
C   -8.17202000   2.99102000   -7.37307000
H   -8.18970000   2.92019000   -6.26211000
C   -13.23283000   5.94229000   -7.90813000
C   -13.22384000   3.00541000   -7.46197000
C   -14.49299000   5.18421000   -7.44730000
C   -14.47520000   3.73867000   -7.95651000
H   -13.21961000   5.95429000   -9.02238000
H   -14.56132000   5.18407000   -6.33719000
H   -14.50195000   3.73111000   -9.06739000
H   -13.25567000   2.93540000   -6.35221000
C   -3.09879000   -5.86175000   -7.33858000
C   -0.56028000   -5.87467000   -7.28444000
C   -1.81568000   -5.12658000   -7.79474000
H   -0.58329000   -5.89571000   -6.16941000
H   -0.50792000   -2.91317000   -8.83950000
C   -0.53508000   -2.93478000   -7.72453000
C   -1.82024000   -3.66982000   -7.27288000
H   -1.79093000   -5.10712000   -8.90978000
C   -3.07258000   -2.92136000   -7.78919000
C   -4.35971000   -3.65341000   -7.33682000
C   -4.35480000   -5.11654000   -7.85284000
H   -4.32745000   -5.10075000   -8.96789000
H   -3.12386000   -5.87937000   -6.22361000
H   -1.84773000   -3.68932000   -6.15795000
H   -3.04398000   -2.90338000   -8.90410000
H   -4.38686000   -3.66929000   -6.22179000
C   -3.07465000   -1.46425000   -7.26793000
C   -0.53841000   -1.47901000   -7.19913000
C   -1.78730000   -0.72957000   -7.71648000
C   -4.32141000   -0.71380000   -7.78920000
H   -3.10641000   -1.48244000   -6.15309000
H   -0.56810000   -1.50048000   -6.08426000
H   -4.28740000   -0.69713000   -8.90430000
H   -1.75597000   -0.71000000   -8.83154000
C   -5.61693000   -1.44108000   -7.34316000
C   -5.61574000   -2.90378000   -7.85312000
C   -5.64235000   -5.85281000   -7.39877000
C   -6.84489000   -0.66982000   -7.86503000
C   -6.88488000   -3.65011000   -7.40057000
C   -6.87981000   -5.09344000   -7.91324000
H   -6.85839000   -0.66872000   -8.97719000
H   -5.65860000   -1.45337000   -6.22965000
H   -5.59568000   -2.89136000   -8.96724000
H   -6.96070000   -3.65155000   -6.29099000
H   -6.90088000   -5.09157000   -9.02519000
H   -5.67712000   -5.86490000   -6.28507000
C   -6.83719000   0.77533000   -7.35447000
C   -5.55537000   1.49562000   -7.78601000
C   -4.31725000   0.74716000   -7.27043000
C   -3.03326000   1.47184000   -7.70952000
C   -1.78979000   0.72888000   -7.19432000
C   -0.50609000   1.45766000   -7.63152000
H   -6.91865000   0.78285000   -6.24627000
H   -4.35133000   0.74289000   -6.15748000
H   -1.82322000   0.72201000   -6.08145000
H   -5.53178000   1.56637000   -8.89592000
H   -2.99907000   1.54063000   -8.82034000
H   -0.47288000   1.53033000   -8.74206000
C   -0.55526000   5.92726000   -7.80901000
C   -1.83427000   5.19129000   -7.34937000
C   -3.09111000   5.93889000   -7.85911000
H   -0.53468000   5.94813000   -8.92414000
C   -1.82746000   3.73233000   -7.87017000
H   -1.85535000   5.17265000   -6.23413000
C   -3.10170000   3.00296000   -7.41457000
C   -4.35516000   3.74047000   -7.91622000
C   -4.36942000   5.20186000   -7.39887000
H   -1.80849000   3.73825000   -8.98342000
H   -3.06911000   5.95661000   -8.97422000
H   -4.39003000   5.18578000   -6.28343000
H   -4.33471000   3.74407000   -9.02954000
H   -3.12181000   2.93525000   -6.30336000
C   -0.57302000   2.99102000   -7.37307000
H   -0.59070000   2.92019000   -6.26211000
C   -5.63383000   5.94229000   -7.90813000
C   -5.62484000   3.00541000   -7.46197000
C   -6.89399000   5.18421000   -7.44730000
C   -6.87620000   3.73867000   -7.95651000
H   -5.62061000   5.95429000   -9.02238000
H   -6.96232000   5.18407000   -6.33719000
H   -6.90295000   3.73111000   -9.06739000
H   -5.65667000   2.93540000   -6.35221000
C   4.50021000   -5.86175000   -7.33858000
C   7.03872000   -5.87467000   -7.28444000
C   5.78332000   -5.12658000   -7.79474000
H   7.01571000   -5.89571000   -6.16941000
H   7.09108000   -2.91317000   -8.83950000
C   7.06392000   -2.93478000   -7.72453000
C   5.77876000   -3.66982000   -7.27288000
H   5.80807000   -5.10712000   -8.90978000
C   4.52642000   -2.92136000   -7.78919000
C   3.23929000   -3.65341000   -7.33682000
C   3.24420000   -5.11654000   -7.85284000
H   3.27155000   -5.10075000   -8.96789000
H   4.47514000   -5.87937000   -6.22361000
H   5.75127000   -3.68932000   -6.15795000
H   4.55502000   -2.90338000   -8.90410000
H   3.21214000   -3.66929000   -6.22179000
C   4.52435000   -1.46425000   -7.26793000
C   7.06059000   -1.47901000   -7.19913000
C   5.81170000   -0.72957000   -7.71648000
C   3.27759000   -0.71380000   -7.78920000
H   4.49259000   -1.48244000   -6.15309000
H   7.03090000   -1.50048000   -6.08426000
H   3.31160000   -0.69713000   -8.90430000
H   5.84303000   -0.71000000   -8.83154000
C   1.98207000   -1.44108000   -7.34316000
C   1.98326000   -2.90378000   -7.85312000
C   1.95665000   -5.85281000   -7.39877000
C   0.75411000   -0.66982000   -7.86503000
C   0.71412000   -3.65011000   -7.40057000
C   0.71919000   -5.09344000   -7.91324000
H   0.74061000   -0.66872000   -8.97719000
H   1.94040000   -1.45337000   -6.22965000
H   2.00332000   -2.89136000   -8.96724000
H   0.63830000   -3.65155000   -6.29099000
H   0.69812000   -5.09157000   -9.02519000
H   1.92188000   -5.86490000   -6.28507000
C   0.76181000   0.77533000   -7.35447000
C   2.04363000   1.49562000   -7.78601000
C   3.28175000   0.74716000   -7.27043000
C   4.56574000   1.47184000   -7.70952000
C   5.80921000   0.72888000   -7.19432000
C   7.09291000   1.45766000   -7.63152000
H   0.68035000   0.78285000   -6.24627000
H   3.24767000   0.74289000   -6.15748000
H   5.77578000   0.72201000   -6.08145000
H   2.06722000   1.56637000   -8.89592000
H   4.59993000   1.54063000   -8.82034000
H   7.12612000   1.53033000   -8.74206000
C   7.04374000   5.92726000   -7.80901000
C   5.76473000   5.19129000   -7.34937000
C   4.50789000   5.93889000   -7.85911000
H   7.06432000   5.94813000   -8.92414000
C   5.77154000   3.73233000   -7.87017000
H   5.74365000   5.17265000   -6.23413000
C   4.49730000   3.00296000   -7.41457000
C   3.24384000   3.74047000   -7.91622000
C   3.22958000   5.20186000   -7.39887000
H   5.79051000   3.73825000   -8.98342000
H   4.52989000   5.95661000   -8.97422000
H   3.20897000   5.18578000   -6.28343000
H   3.26429000   3.74407000   -9.02954000
H   4.47719000   2.93525000   -6.30336000
C   7.02598000   2.99102000   -7.37307000
H   7.00830000   2.92019000   -6.26211000
C   1.96517000   5.94229000   -7.90813000
C   1.97416000   3.00541000   -7.46197000
C   0.70501000   5.18421000   -7.44730000
C   0.72280000   3.73867000   -7.95651000
H   1.97839000   5.95429000   -9.02238000
H   0.63668000   5.18407000   -6.33719000
H   0.69605000   3.73111000   -9.06739000
H   1.94233000   2.93540000   -6.35221000
C   12.09921000   -5.86175000   -7.33858000
C   14.63772000   -5.87467000   -7.28444000
C   13.38232000   -5.12658000   -7.79474000
H   14.61471000   -5.89571000   -6.16941000
H   14.69008000   -2.91317000   -8.83950000
C   14.66292000   -2.93478000   -7.72453000
C   13.37776000   -3.66982000   -7.27288000
H   13.40707000   -5.10712000   -8.90978000
C   12.12542000   -2.92136000   -7.78919000
C   10.83829000   -3.65341000   -7.33682000
C   10.84320000   -5.11654000   -7.85284000
H   10.87055000   -5.10075000   -8.96789000
H   12.07414000   -5.87937000   -6.22361000
H   13.35027000   -3.68932000   -6.15795000
H   12.15402000   -2.90338000   -8.90410000
H   10.81114000   -3.66929000   -6.22179000
C   12.12335000   -1.46425000   -7.26793000
C   14.65959000   -1.47901000   -7.19913000
C   13.41070000   -0.72957000   -7.71648000
C   10.87659000   -0.71380000   -7.78920000
H   12.09159000   -1.48244000   -6.15309000
H   14.62990000   -1.50048000   -6.08426000
H   10.91060000   -0.69713000   -8.90430000
H   13.44203000   -0.71000000   -8.83154000
C   9.58107000   -1.44108000   -7.34316000
C   9.58226000   -2.90378000   -7.85312000
C   9.55565000   -5.85281000   -7.39877000
C   8.35311000   -0.66982000   -7.86503000
C   8.31312000   -3.65011000   -7.40057000
C   8.31819000   -5.09344000   -7.91324000
H   8.33961000   -0.66872000   -8.97719000
H   9.53940000   -1.45337000   -6.22965000
H   9.60232000   -2.89136000   -8.96724000
H   8.23730000   -3.65155000   -6.29099000
H   8.29712000   -5.09157000   -9.02519000
H   9.52088000   -5.86490000   -6.28507000
C   8.36081000   0.77533000   -7.35447000
C   9.64263000   1.49562000   -7.78601000
C   10.88075000   0.74716000   -7.27043000
C   12.16474000   1.47184000   -7.70952000
C   13.40821000   0.72888000   -7.19432000
C   14.69191000   1.45766000   -7.63152000
H   8.27935000   0.78285000   -6.24627000
H   10.84667000   0.74289000   -6.15748000
H   13.37478000   0.72201000   -6.08145000
H   9.66622000   1.56637000   -8.89592000
H   12.19893000   1.54063000   -8.82034000
H   14.72512000   1.53033000   -8.74206000
C   14.64274000   5.92726000   -7.80901000
C   13.36373000   5.19129000   -7.34937000
C   12.10689000   5.93889000   -7.85911000
H   14.66332000   5.94813000   -8.92414000
C   13.37054000   3.73233000   -7.87017000
H   13.34265000   5.17265000   -6.23413000
C   12.09630000   3.00296000   -7.41457000
C   10.84284000   3.74047000   -7.91622000
C   10.82858000   5.20186000   -7.39887000
H   13.38951000   3.73825000   -8.98342000
H   12.12889000   5.95661000   -8.97422000
H   10.80797000   5.18578000   -6.28343000
H   10.86329000   3.74407000   -9.02954000
H   12.07619000   2.93525000   -6.30336000
C   14.62498000   2.99102000   -7.37307000
H   14.60730000   2.92019000   -6.26211000
C   9.56417000   5.94229000   -7.90813000
C   9.57316000   3.00541000   -7.46197000
C   8.30401000   5.18421000   -7.44730000
C   8.32180000   3.73867000   -7.95651000
H   9.57739000   5.95429000   -9.02238000
H   8.23568000   5.18407000   -6.33719000
H   8.29505000   3.73111000   -9.06739000
H   9.54133000   2.93540000   -6.35221000
C   -10.69779000   -5.86175000   7.66142000
C   -8.15928000   -5.87467000   7.71556000
C   -9.41468000   -5.12658000   7.20526000
H   -8.18229000   -5.89571000   8.83059000
H   -8.10692000   -2.91317000   6.16050000
C   -8.13408000   -2.93478000   7.27547000
C   -9.41924000   -3.66982000   7.72712000
H   -9.38993000   -5.10712000   6.09022000
C   -10.67158000   -2.92136000   7.21081000
C   -11.95871000   -3.65341000   7.66318000
C   -11.95380000   -5.11654000   7.14716000
H   -11.92645000   -5.10075000   6.03211000
H   -10.72286000   -5.87937000   8.77639000
H   -9.44673000   -3.68932000   8.84205000
H   -10.64298000   -2.90338000   6.09590000
H   -11.98586000   -3.66929000   8.77821000
C   -10.67365000   -1.46425000   7.73207000
C   -8.13741000   -1.47901000   7.80087000
C   -9.38630000   -0.72957000   7.28352000
C   -11.92041000   -0.71380000   7.21080000
H   -10.70541000   -1.48244000   8.84691000
H   -8.16710000   -1.50048000   8.91574000
H   -11.88640000   -0.69713000   6.09570000
H   -9.35497000   -0.71000000   6.16846000
C   -13.21593000   -1.44108000   7.65684000
C   -13.21474000   -2.90378000   7.14688000
C   -13.24135000   -5.85281000   7.60123000
C   -14.44389000   -0.66982000   7.13497000
C   -14.48388000   -3.65011000   7.59943000
C   -14.47881000   -5.09344000   7.08676000
H   -14.45739000   -0.66872000   6.02281000
H   -13.25760000   -1.45337000   8.77035000
H   -13.19468000   -2.89136000   6.03276000
H   -14.55970000   -3.65155000   8.70901000
H   -14.49988000   -5.09157000   5.97481000
H   -13.27612000   -5.86490000   8.71493000
C   -14.43619000   0.77533000   7.64553000
C   -13.15437000   1.49562000   7.21399000
C   -11.91625000   0.74716000   7.72957000
C   -10.63226000   1.47184000   7.29048000
C   -9.38879000   0.72888000   7.80568000
C   -8.10509000   1.45766000   7.36848000
H   -14.51765000   0.78285000   8.75373000
H   -11.95033000   0.74289000   8.84252000
H   -9.42222000   0.72201000   8.91855000
H   -13.13078000   1.56637000   6.10408000
H   -10.59807000   1.54063000   6.17966000
H   -8.07188000   1.53033000   6.25794000
C   -8.15426000   5.92726000   7.19099000
C   -9.43327000   5.19129000   7.65063000
C   -10.69011000   5.93889000   7.14089000
H   -8.13368000   5.94813000   6.07586000
C   -9.42646000   3.73233000   7.12983000
H   -9.45435000   5.17265000   8.76587000
C   -10.70070000   3.00296000   7.58543000
C   -11.95416000   3.74047000   7.08378000
C   -11.96842000   5.20186000   7.60113000
H   -9.40749000   3.73825000   6.01658000
H   -10.66811000   5.95661000   6.02578000
H   -11.98903000   5.18578000   8.71657000
H   -11.93371000   3.74407000   5.97046000
H   -10.72081000   2.93525000   8.69664000
C   -8.17202000   2.99102000   7.62693000
H   -8.18970000   2.92019000   8.73789000
C   -13.23283000   5.94229000   7.09187000
C   -13.22384000   3.00541000   7.53803000
C   -14.49299000   5.18421000   7.55270000
C   -14.47520000   3.73867000   7.04349000
H   -13.21961000   5.95429000   5.97762000
H   -14.56132000   5.18407000   8.66281000
H   -14.50195000   3.73111000   5.93261000
H   -13.25567000   2.93540000   8.64779000
C   -3.09879000   -5.86175000   7.66142000
C   -0.56028000   -5.87467000   7.71556000
C   -1.81568000   -5.12658000   7.20526000
H   -0.58329000   -5.89571000   8.83059000
H   -0.50792000   -2.91317000   6.16050000
C   -0.53508000   -2.93478000   7.27547000
C   -1.82024000   -3.66982000   7.72712000
H   -1.79093000   -5.10712000   6.09022000
C   -3.07258000   -2.92136000   7.21081000
C   -4.35971000   -3.65341000   7.66318000
C   -4.35480000   -5.11654000   7.14716000
H   -4.32745000   -5.10075000   6.03211000
H   -3.12386000   -5.87937000   8.77639000
H   -1.84773000   -3.68932000   8.84205000
H   -3.04398000   -2.90338000   6.09590000
H   -4.38686000   -3.66929000   8.77821000
C   -3.07465000   -1.46425000   7.73207000
C   -0.53841000   -1.47901000   7.80087000
C   -1.78730000   -0.72957000   7.28352000
C   -4.32141000   -0.71380000   7.21080000
H   -3.10641000   -1.48244000   8.84691000
H   -0.56810000   -1.50048000   8.91574000
H   -1.75597000   -0.71000000   6.16846000
C   -5.61693000   -1.44108000   7.65684000
C   -5.61574000   -2.90378000   7.14688000
C   -5.64235000   -5.85281000   7.60123000
C   -6.84489000   -0.66982000   7.13497000
C   -6.88488000   -3.65011000   7.59943000
C   -6.87981000   -5.09344000   7.08676000
H   -6.85839000   -0.66872000   6.02281000
H   -5.65860000   -1.45337000   8.77035000
H   -5.59568000   -2.89136000   6.03276000
H   -6.96070000   -3.65155000   8.70901000
H   -6.90088000   -5.09157000   5.97481000
H   -5.67712000   -5.86490000   8.71493000
C   -6.83719000   0.77533000   7.64553000
C   -5.55537000   1.49562000   7.21399000
C   -4.31725000   0.74716000   7.72957000
C   -3.03326000   1.47184000   7.29048000
C   -1.78979000   0.72888000   7.80568000
C   -0.50609000   1.45766000   7.36848000
H   -6.91865000   0.78285000   8.75373000
H   -4.35133000   0.74289000   8.84252000
H   -1.82322000   0.72201000   8.91855000
H   -5.53178000   1.56637000   6.10408000
H   -2.99907000   1.54063000   6.17966000
H   -0.47288000   1.53033000   6.25794000
C   -0.55526000   5.92726000   7.19099000
C   -1.83427000   5.19129000   7.65063000
C   -3.09111000   5.93889000   7.14089000
H   -0.53468000   5.94813000   6.07586000
C   -1.82746000   3.73233000   7.12983000
H   -1.85535000   5.17265000   8.76587000
C   -3.10170000   3.00296000   7.58543000
C   -4.35516000   3.74047000   7.08378000
C   -4.36942000   5.20186000   7.60113000
H   -1.80849000   3.73825000   6.01658000
H   -3.06911000   5.95661000   6.02578000
H   -4.39003000   5.18578000   8.71657000
H   -4.33471000   3.74407000   5.97046000
H   -3.12181000   2.93525000   8.69664000
C   -0.57302000   2.99102000   7.62693000
H   -0.59070000   2.92019000   8.73789000
C   -5.63383000   5.94229000   7.09187000
C   -5.62484000   3.00541000   7.53803000
C   -6.89399000   5.18421000   7.55270000
C   -6.87620000   3.73867000   7.04349000
H   -5.62061000   5.95429000   5.97762000
H   -6.96232000   5.18407000   8.66281000
H   -6.90295000   3.73111000   5.93261000
H   -5.65667000   2.93540000   8.64779000
C   4.50021000   -5.86175000   7.66142000
C   7.03872000   -5.87467000   7.71556000
C   5.78332000   -5.12658000   7.20526000
H   7.01571000   -5.89571000   8.83059000
H   7.09108000   -2.91317000   6.16050000
C   7.06392000   -2.93478000   7.27547000
C   5.77876000   -3.66982000   7.72712000
H   5.80807000   -5.10712000   6.09022000
C   4.52642000   -2.92136000   7.21081000
C   3.23929000   -3.65341000   7.66318000
C   3.24420000   -5.11654000   7.14716000
H   3.27155000   -5.10075000   6.03211000
H   4.47514000   -5.87937000   8.77639000
H   5.75127000   -3.68932000   8.84205000
H   4.55502000   -2.90338000   6.09590000
H   3.21214000   -3.66929000   8.77821000
C   4.52435000   -1.46425000   7.73207000
C   7.06059000   -1.47901000   7.80087000
C   5.81170000   -0.72957000   7.28352000
C   3.27759000   -0.71380000   7.21080000
H   4.49259000   -1.48244000   8.84691000
H   7.03090000   -1.50048000   8.91574000
H   3.31160000   -0.69713000   6.09570000
C   1.98207000   -1.44108000   7.65684000
C   1.98326000   -2.90378000   7.14688000
C   1.95665000   -5.85281000   7.60123000
C   0.75411000   -0.66982000   7.13497000
C   0.71412000   -3.65011000   7.59943000
C   0.71919000   -5.09344000   7.08676000
H   0.74061000   -0.66872000   6.02281000
H   1.94040000   -1.45337000   8.77035000
H   2.00332000   -2.89136000   6.03276000
H   0.63830000   -3.65155000   8.70901000
H   0.69812000   -5.09157000   5.97481000
H   1.92188000   -5.86490000   8.71493000
C   0.76181000   0.77533000   7.64553000
C   2.04363000   1.49562000   7.21399000
C   3.28175000   0.74716000   7.72957000
C   4.56574000   1.47184000   7.29048000
C   5.80921000   0.72888000   7.80568000
C   7.09291000   1.45766000   7.36848000
H   0.68035000   0.78285000   8.75373000
H   3.24767000   0.74289000   8.84252000
H   5.77578000   0.72201000   8.91855000
H   2.06722000   1.56637000   6.10408000
H   4.59993000   1.54063000   6.17966000
H   7.12612000   1.53033000   6.25794000
C   7.04374000   5.92726000   7.19099000
C   5.76473000   5.19129000   7.65063000
C   4.50789000   5.93889000   7.14089000
H   7.06432000   5.94813000   6.07586000
C   5.77154000   3.73233000   7.12983000
H   5.74365000   5.17265000   8.76587000
C   4.49730000   3.00296000   7.58543000
C   3.24384000   3.74047000   7.08378000
C   3.22958000   5.20186000   7.60113000
H   5.79051000   3.73825000   6.01658000
H   4.52989000   5.95661000   6.02578000
H   3.20897000   5.18578000   8.71657000
H   3.26429000   3.74407000   5.97046000
H   4.47719000   2.93525000   8.69664000
C   7.02598000   2.99102000   7.62693000
H   7.00830000   2.92019000   8.73789000
C   1.96517000   5.94229000   7.09187000
C   1.97416000   3.00541000   7.53803000
C   0.70501000   5.18421000   7.55270000
C   0.72280000   3.73867000   7.04349000
H   1.97839000   5.95429000   5.97762000
H   0.63668000   5.18407000   8.66281000
H   0.69605000   3.73111000   5.93261000
H   1.94233000   2.93540000   8.64779000
C   12.09921000   -5.86175000   7.66142000
C   14.63772000   -5.87467000   7.71556000
C   13.38232000   -5.12658000   7.20526000
H   14.61471000   -5.89571000   8.83059000
H   14.69008000   -2.91317000   6.16050000
C   14.66292000   -2.93478000   7.27547000
C   13.37776000   -3.66982000   7.72712000
H   13.40707000   -5.10712000   6.09022000
C   12.12542000   -2.92136000   7.21081000
C   10.83829000   -3.65341000   7.66318000
C   10.84320000   -5.11654000   7.14716000
H   10.87055000   -5.10075000   6.03211000
H   12.07414000   -5.87937000   8.77639000
H   13.35027000   -3.68932000   8.84205000
H   12.15402000   -2.90338000   6.09590000
H   10.81114000   -3.66929000   8.77821000
C   12.12335000   -1.46425000   7.73207000
C   14.65959000   -1.47901000   7.80087000
C   13.41070000   -0.72957000   7.28352000
C   10.87659000   -0.71380000   7.21080000
H   12.09159000   -1.48244000   8.84691000
H   14.62990000   -1.50048000   8.91574000
H   10.91060000   -0.69713000   6.09570000
H   13.44203000   -0.71000000   6.16846000
C   9.58107000   -1.44108000   7.65684000
C   9.58226000   -2.90378000   7.14688000
C   9.55565000   -5.85281000   7.60123000
C   8.35311000   -0.66982000   7.13497000
C   8.31312000   -3.65011000   7.59943000
C   8.31819000   -5.09344000   7.08676000
H   8.33961000   -0.66872000   6.02281000
H   9.53940000   -1.45337000   8.77035000
H   9.60232000   -2.89136000   6.03276000
H   8.23730000   -3.65155000   8.70901000
H   8.29712000   -5.09157000   5.97481000
H   9.52088000   -5.86490000   8.71493000
C   8.36081000   0.77533000   7.64553000
C   9.64263000   1.49562000   7.21399000
C   10.88075000   0.74716000   7.72957000
C   12.16474000   1.47184000   7.29048000
C   13.40821000   0.72888000   7.80568000
C   14.69191000   1.45766000   7.36848000
H   8.27935000   0.78285000   8.75373000
H   10.84667000   0.74289000   8.84252000
H   13.37478000   0.72201000   8.91855000
H   9.66622000   1.56637000   6.10408000
H   12.19893000   1.54063000   6.17966000
H   14.72512000   1.53033000   6.25794000
C   14.64274000   5.92726000   7.19099000
C   13.36373000   5.19129000   7.65063000
C   12.10689000   5.93889000   7.14089000
H   14.66332000   5.94813000   6.07586000
C   13.37054000   3.73233000   7.12983000
H   13.34265000   5.17265000   8.76587000
C   12.09630000   3.00296000   7.58543000
C   10.84284000   3.74047000   7.08378000
C   10.82858000   5.20186000   7.60113000
H   13.38951000   3.73825000   6.01658000
H   12.12889000   5.95661000   6.02578000
H   10.80797000   5.18578000   8.71657000
H   10.86329000   3.74407000   5.97046000
H   12.07619000   2.93525000   8.69664000
C   14.62498000   2.99102000   7.62693000
H   14.60730000   2.92019000   8.73789000
C   9.56417000   5.94229000   7.09187000
C   9.57316000   3.00541000   7.53803000
C   8.30401000   5.18421000   7.55270000
C   8.32180000   3.73867000   7.04349000
H   9.57739000   5.95429000   5.97762000
H   8.23568000   5.18407000   8.66281000
H   8.29505000   3.73111000   5.93261000
H   9.54133000   2.93540000   8.64779000
N   -7.55073988   -3.43805071   0.42340634
C   -6.20788094   -3.12318137   0.88450747
H   -5.86208558   -3.85827589   1.53258620
H   -5.49235390   -3.03006154   0.04838272
C   -5.92869845   -1.82432518   1.69691544
H   -6.37370785   -0.92439787   1.20915494
H   -6.40047852   -1.86838210   2.68697083
C   -4.22402839   -0.55983924   5.58439115
H   -3.22434762   -0.22788257   5.48708351
H   -4.87852456   0.26934966   5.34574939
C   -4.51042460   -1.50108561   4.42768499
H   -3.91365304   -2.42562153   4.38712796
H   -5.52963241   -1.89810641   4.34929098
C   -4.06872412   -0.71750118   3.09982320
H   -3.03697235   -0.56318192   3.19720629
H   -4.55241257   0.30273356   3.11059820
C   -4.42648508   -1.64861033   1.88433230
H   -3.97314890   -1.37071989   0.95052474
H   -4.00667227   -2.59589157   2.07451897
C   -8.47245817   -3.31539749   1.64773255
H   -9.45784832   -3.68152412   1.41062943
H   -8.41372974   -2.27192488   1.91031861
H   -8.04655235   -3.85080469   2.44989531
C   -7.62850109   -4.84335894   -0.11230379
H   -8.58367910   -4.89376416   -0.61477376
H   -7.68676817   -5.56962084   0.65846956
H   -6.92588957   -5.07268839   -0.94761952
C   -8.06276292   -2.42974021   -0.62932945
H   -9.16420715   -2.60357436   -0.76070156
H   -7.60319496   -2.57440825   -1.63849719
H   -7.78560357   -1.40895643   -0.29147763
N   4.42356959   -0.97549396   -1.51010050
C   4.37117354   -0.74405045   0.10751533
H   4.21336370   0.32646611   0.23551174
H   3.48164706   -1.30095521   0.38118592
C   5.57894367   -1.14494499   0.98680210
H   5.81244247   -2.22239619   0.94705314
H   6.46846745   -0.62718434   0.61506295
C   5.79106292   -0.71426222   5.62380584
H   4.77917290   -0.46135021   5.31418178
H   5.98714699   -1.70943639   5.39308189
C   6.57630585   0.08095445   4.47027120
H   6.15191701   1.03799803   4.23804238
H   7.64406007   0.28487704   4.62853927
C   6.58171576   -0.84953937   3.23260104
H   6.87315717   -1.85945416   3.50229761
H   7.29668904   -0.52026939   2.50472253
C   5.29777914   -0.74009117   2.44636554
H   4.50147077   -1.33957837   2.86735431
H   4.88243390   0.27099555   2.55175263
C   3.18875787   -0.48317519   -2.17424057
H   3.31367166   -0.17590709   -3.20266250
H   2.86894887   0.43264655   -1.72513161
H   2.35188691   -1.23671872   -1.98302577
C   4.63900249   -2.43099333   -1.76136855
H   4.19152192   -2.92834484   -0.99345104
H   5.68281649   -2.65588516   -1.78441838
H   4.16988910   -2.81331740   -2.71967219
C   5.57323723   -0.24065540   -2.06112032
H   5.34006972   0.86242747   -1.93356070
H   5.77512906   -0.48768854   -3.08366104
H   6.50328238   -0.45449278   -1.47243863
O   -13.92139968   -18.38050114   -0.10292806
H   -14.57787494   -17.70707621   -0.43207204
H   -14.01298735   -19.35188185   -0.44755590
O   -15.95477117   10.72643515   2.46319489
H   -16.49439524   10.15781959   2.96020788
H   -15.43978845   11.18094522   3.14944390
O   2.26487337   -3.96724354   -0.35865195
H   2.95516199   -4.63333993   -0.45421680
H   -25.02951475   5.49308600   1.19753749
O   -0.13696736   3.96373369   0.67649329
H   -0.86741542   3.74182401   0.11375787
H   0.62311234   3.51151702   0.32467726
O   -4.68359386   7.23729790   0.90017666
H   -4.42359961   6.33001047   1.07579736
H   -5.24403146   7.40807085   1.65647927
O   -20.08464077   1.94057581   -1.61635005
H   -20.56538522   2.44375128   -0.95757941
H   -19.14747373   1.81853152   -1.39755865
O   -29.39258103   -5.41806232   -3.50004449
H   -29.04771260   -6.11791070   -2.81757588
H   -29.01404619   -5.66846446   -4.32916102
O   -11.57706482   23.08400604   0.45203997
H   -11.91112453   23.65542406   -0.22126215
H   -12.32952329   22.42787952   0.48734730
O   -21.81176927   -6.24262941   -3.58753808
H   8.98680478   -7.09506389   -3.46557140
H   -22.78014117   -6.44345958   -3.55561218
O   10.63649782   -6.28263739   0.27804468
H   11.55935824   -6.48297959   0.52198766
H   10.41843400   -5.41044174   -0.05747892
O   -11.95354502   -1.32909662   2.07458488
H   -11.84614075   -1.93834781   1.32079485
H   -11.74867921   -1.89944222   2.81681699
O   -24.84507861   -8.84439687   1.22065935
H   -25.58752324   -9.30071663   0.80723740
H   -3.57271178   2.15290006   -2.95996292
O   11.43455038   3.43751962   0.28874583
H   11.88748956   4.14565496   0.78008403
H   11.90870109   3.36539959   -0.54650762
O   -4.19669466   -35.55515916   1.86634507
H   -4.71721829   -36.23585347   1.42651341
H   -3.34849364   -22.30740113   1.45768082
O   -26.03497300   8.23367872   -2.22807927
H   -25.29999559   7.73331957   -1.83417027
H   -26.63740258   7.55963096   -2.60475099
O   16.15191078   5.47436184   2.65146904
H   16.08785782   6.06020775   1.84242125
H   15.55996143   4.68528490   2.53682040
O   -13.10146284   3.82438169   -0.68186687
H   -13.59997719   2.99972994   -0.73840342
H   -13.81960575   4.53417719   -0.77440615
O   -26.89594440   2.12333212   2.41483722
H   -26.11493456   2.50599976   2.17382781
H   -27.01531781   2.43289841   3.29592529
O   -12.48627017   9.99954266   -2.29603133
H   -13.20977919   10.39304318   -2.85422790
H   -12.73524974   9.05025357   -2.49323685
O   -22.28958429   2.65765909   0.16778230
H   -21.82450570   -10.56715253   0.98026375
H   -23.06683817   2.15788503   0.47702464
O   22.56401412   3.39578756   2.30746694
H   21.75567316   3.88552347   2.46175951
H   22.33031228   2.53786321   1.98655685
O   -9.62307080   0.06239156   0.86943116
H   -10.40357041   -0.15127326   1.39214573
H   -9.79380759   0.98280898   0.79484839
O   14.39488743   -6.02139199   1.52211245
H   14.70231533   -5.10563493   1.23087327
H   14.83319937   -6.71001121   0.99398658
O   -32.64818623   3.53809131   -1.36716930
H   -32.61045864   3.13294874   -2.20952382
H   -2.77103724   3.02440644   -0.76697202
O   -0.06626329   -9.00608983   -3.24233679
H   0.74257483   -8.56053042   -3.41208929
H   -0.25906408   -8.54274046   -2.41658322
O   -17.61099598   -4.83790730   3.46024766
H   -18.54157035   -5.12798723   3.29114309
H   -16.95920601   -5.57256581   3.25738398
O   12.51406748   -8.76506496   3.76212182
H   12.49560554   -9.71369868   4.02731260
H   16.75620579   15.51342399   0.89129062
O   -2.10453489   2.49289412   -4.09799871
H   13.42396917   -8.46297298   3.55683680
H   -1.35486958   1.95446076   -4.19534684
O   14.65760777   -25.13541925   3.71649430
H   15.20255709   -25.19444008   4.50759898
H   15.20570192   -25.09556619   2.90194307
O   22.75282530   7.76013339   3.51597024
H   21.85767334   7.44504236   3.28715325
H   23.23155087   6.93857086   3.76114056
O   15.40907033   21.51364529   -3.20752714
H   14.87658889   21.86713884   -2.50134588
H   15.45356292   20.58528906   -3.04276618
O   -5.21780748   -4.09352220   -3.44722136
H   -4.63300211   -4.27486515   -4.17593226
H   -4.66654613   -3.88817355   -2.67611593
O   28.69029572   7.74221661   -2.24432861
H   29.33804767   7.66806205   -2.95448026
H   29.18263263   8.11040504   -1.49490487
O   -11.73398496   7.23366150   -2.06262212
H   -11.99838174   6.42496548   -1.55522167
H   -11.13551042   7.72316479   -1.38994348
O   -18.72632063   11.32232645   -1.89402621
H   -18.92711304   11.39873126   -0.95449597
H   -18.97142390   10.44816337   -2.25003976
O   -25.26053784   7.50641874   0.54276154
H   -24.96593632   6.86190167   -0.09931536
H   -24.47840794   7.92947179   0.92378654
O   -27.55578649   5.44747990   -3.57262546
H   -27.47400806   5.21025648   -2.61374481
H   -26.65874702   5.36644329   -3.96339241
O   -21.66134573   -0.47146375   -1.01093099
H   -21.40793069   0.45251894   -1.08715281
H   -20.87408065   -0.92839134   -1.39879149
O   -10.16485723   8.95617097   -3.81658960
H   -10.61809199   8.12184956   -3.55395927
H   -10.58659825   9.57409872   -3.28135142
O   3.67290130   -8.56738526   -0.69134009
H   -1.82215137   3.46047036   -4.12223799
H   3.66714875   -8.26121173   0.27388021
O   13.93977795   -3.79256510   -1.28058897
H   13.13905742   -4.14757738   -0.88432172
H   13.76328637   -2.82014800   -1.34574896
O   -22.33900442   -16.64715225   -0.98111004
H   -21.86946887   -16.01659900   -1.50422438
H   -21.78881077   -17.09279635   -0.38857292
O   -5.62975805   12.79472324   -2.00687585
H   -5.42153298   11.85097312   -2.36062191
H   -5.14608162   13.34383604   -2.67895820
O   -19.35994974   8.49269934   -3.04005405
H   -20.19961901   8.10989961   -2.83123381
H   -19.51282791   8.80040686   -3.96757000
O   5.86091027   19.22193019   -1.70691805
H   5.01799592   18.69009927   -1.38388888
H   6.57341948   18.58653293   -1.70220624
O   -16.14231151   17.34368094   1.10100515
H   -15.80133734   18.08218732   0.58244370
H   -14.46668662   16.27760776   -4.65260740
O   -25.46915108   -10.19268938   -2.85886924
H   -25.41319838   -9.47545906   -2.25063908
H   -26.33715575   -10.22757220   -3.18336665
O   -10.61231539   -5.87864342   2.84279534
H   -11.30143167   -5.24662263   2.92935638
H   -10.88798542   -6.45568288   2.14229812
O   -3.58336538   -3.24137180   -1.27451620
H   -2.89452475   -2.70156118   -0.74890686
H   -3.47164123   -4.15818308   -0.96124683
O   15.77475530   1.19854361   -1.33719703
H   15.23386326   1.87238689   -0.87614953
H   15.18787248   0.79248610   -1.93698609
O   1.72256153   20.05861991   -0.51967852
H   2.45762811   19.37121984   -0.73756068
H   1.48688904   19.76049681   0.37827892
O   0.30308038   -11.79154152   -1.27341921
H   0.99224640   -11.26861758   -0.78092826
H   -0.20095401   -11.19694624   -1.89673335
O   -26.89580337   -11.28591151   -0.48198579
H   -27.65365959   -11.29053503   0.14783471
H   -26.63410434   -10.24533442   -0.59438906
O   1.16177561   -2.45386018   -3.46554279
H   2.01987753   -2.52332249   -3.88762335
H   0.71760684   -3.27488932   -3.83315410
O   12.84000215   19.54320203   -3.31948573
H   12.76441452   19.88155073   -2.41149255
H   12.45326291   20.24330068   -3.88476830
O   -9.25059547   -20.80760420   -0.18731526
H   -9.40600003   -20.66728945   -1.14811070
H   -10.14170334   -20.99931601   0.12258854
O   19.95550228   2.75764857   -0.59499772
H   19.01190710   3.05913394   -0.49088789
H   19.98154986   2.27816774   -1.43234965
O   -6.18143740   5.34045772   3.74031057
H   -5.37750003   5.31198385   3.22346438
H   -6.75845817   4.56504491   3.67720483
O   -14.48443790   15.45730981   -4.20214767
H   1.46258855   -4.48370291   -0.59137335
H   -13.85425369   15.56988165   -3.47797381
O   13.58268176   3.30240685   -2.02799751
H   13.42864482   3.68698679   -2.87705533
H   14.47027050   3.59044232   -1.72401238
O   18.24115902   -7.07658859   0.59756515
H   18.05900980   -6.20139562   0.93417667
H   17.42535399   -7.50632009   0.24740166
O   29.43935732   35.90616496   0.12984767
H   29.08716049   36.10297151   1.06395259
H   29.82253902   36.70156073   -0.28840001
O   14.59929328   13.06601790   -3.72493816
H   13.68175744   13.29628076   -3.92208666
H   15.11355085   13.76867699   -4.03931409
O   -13.38081580   15.42821101   1.83062019
H   -5.40887763   -11.33735536   -0.64491102
H   -13.37287384   16.33545073   2.15175696
O   12.00924677   10.01763702   1.03832812
H   12.22797585   9.08245307   1.28031342
H   12.71319446   10.62640623   1.21311466
O   -13.09993911   32.27411344   -4.21878881
H   -12.81912706   32.93312657   -4.86098297
H   -12.76387916   32.64556358   -3.34610877
O   -12.96959512   22.63326355   2.95560158
H   -12.34020375   23.28012758   2.59256462
H   16.78854012   22.52740594   2.21867468
O   -14.91214926   5.86186286   -0.29375032
H   -16.42928065   3.40401806   0.38403587
H   -15.49295485   5.82534363   -1.06193991
O   -21.65752320   -8.87891811   -1.67566996
H   -21.91663329   -8.90666833   -0.76122203
H   -21.44380467   -9.77850338   -1.94336176
O   25.68088727   -7.89130500   -1.52960599
H   26.60857056   -20.98734428   -1.54799100
H   25.84095283   -8.77761517   -1.18485304
O   23.97161555   -7.91615907   -3.82979648
H   24.32215275   -8.05707672   -2.97401641
H   24.39424665   -7.16049360   -4.24345369
O   -31.24989203   25.87583756   -0.79530915
H   -31.32422735   26.84694047   -0.76850231
H   -30.32131078   25.74315031   -0.53061783
O   -0.47179192   0.07711010   -3.53553604
H   -0.91915013   -0.16374714   -2.72434608
H   0.00278080   -0.76855796   -3.73160331
O   -4.36202026   1.91320877   -2.55944761
H   -4.98151840   2.58407686   -2.84581416
O   -5.43108903   -10.90902370   0.26616043
H   -6.28641606   -11.24670477   0.55750733
