859

C   -10.69779000   -5.86175000   -7.33858000
C   -8.15928000   -5.87467000   -7.28444000
C   -9.41468000   -5.12658000   -7.79474000
H   -8.18229000   -5.89571000   -6.16941000
H   -8.10692000   -2.91317000   -8.83950000
C   -8.13408000   -2.93478000   -7.72453000
C   -9.41924000   -3.66982000   -7.27288000
H   -9.38993000   -5.10712000   -8.90978000
C   -10.67158000   -2.92136000   -7.78919000
C   -11.95871000   -3.65341000   -7.33682000
C   -11.95380000   -5.11654000   -7.85284000
H   -11.92645000   -5.10075000   -8.96789000
H   -10.72286000   -5.87937000   -6.22361000
H   -9.44673000   -3.68932000   -6.15795000
H   -10.64298000   -2.90338000   -8.90410000
H   -11.98586000   -3.66929000   -6.22179000
C   -10.67365000   -1.46425000   -7.26793000
C   -8.13741000   -1.47901000   -7.19913000
C   -9.38630000   -0.72957000   -7.71648000
C   -11.92041000   -0.71380000   -7.78920000
H   -10.70541000   -1.48244000   -6.15309000
H   -8.16710000   -1.50048000   -6.08426000
H   -11.88640000   -0.69713000   -8.90430000
H   -9.35497000   -0.71000000   -8.83154000
C   -13.21593000   -1.44108000   -7.34316000
C   -13.21474000   -2.90378000   -7.85312000
C   -13.24135000   -5.85281000   -7.39877000
C   -14.44389000   -0.66982000   -7.86503000
C   -14.48388000   -3.65011000   -7.40057000
C   -14.47881000   -5.09344000   -7.91324000
H   -14.45739000   -0.66872000   -8.97719000
H   -13.25760000   -1.45337000   -6.22965000
H   -13.19468000   -2.89136000   -8.96724000
H   -14.55970000   -3.65155000   -6.29099000
H   -14.49988000   -5.09157000   -9.02519000
H   -13.27612000   -5.86490000   -6.28507000
C   -14.43619000   0.77533000   -7.35447000
C   -13.15437000   1.49562000   -7.78601000
C   -11.91625000   0.74716000   -7.27043000
C   -10.63226000   1.47184000   -7.70952000
C   -9.38879000   0.72888000   -7.19432000
C   -8.10509000   1.45766000   -7.63152000
H   -14.51765000   0.78285000   -6.24627000
H   -11.95033000   0.74289000   -6.15748000
H   -9.42222000   0.72201000   -6.08145000
H   -13.13078000   1.56637000   -8.89592000
H   -10.59807000   1.54063000   -8.82034000
H   -8.07188000   1.53033000   -8.74206000
C   -8.15426000   5.92726000   -7.80901000
C   -9.43327000   5.19129000   -7.34937000
C   -10.69011000   5.93889000   -7.85911000
H   -8.13368000   5.94813000   -8.92414000
C   -9.42646000   3.73233000   -7.87017000
H   -9.45435000   5.17265000   -6.23413000
C   -10.70070000   3.00296000   -7.41457000
C   -11.95416000   3.74047000   -7.91622000
C   -11.96842000   5.20186000   -7.39887000
H   -9.40749000   3.73825000   -8.98342000
H   -10.66811000   5.95661000   -8.97422000
H   -11.98903000   5.18578000   -6.28343000
H   -11.93371000   3.74407000   -9.02954000
H   -10.72081000   2.93525000   -6.30336000
C   -8.17202000   2.99102000   -7.37307000
H   -8.18970000   2.92019000   -6.26211000
C   -13.23283000   5.94229000   -7.90813000
C   -13.22384000   3.00541000   -7.46197000
C   -14.49299000   5.18421000   -7.44730000
C   -14.47520000   3.73867000   -7.95651000
H   -13.21961000   5.95429000   -9.02238000
H   -14.56132000   5.18407000   -6.33719000
H   -14.50195000   3.73111000   -9.06739000
H   -13.25567000   2.93540000   -6.35221000
C   -3.09879000   -5.86175000   -7.33858000
C   -0.56028000   -5.87467000   -7.28444000
C   -1.81568000   -5.12658000   -7.79474000
H   -0.58329000   -5.89571000   -6.16941000
H   -0.50792000   -2.91317000   -8.83950000
C   -0.53508000   -2.93478000   -7.72453000
C   -1.82024000   -3.66982000   -7.27288000
H   -1.79093000   -5.10712000   -8.90978000
C   -3.07258000   -2.92136000   -7.78919000
C   -4.35971000   -3.65341000   -7.33682000
C   -4.35480000   -5.11654000   -7.85284000
H   -4.32745000   -5.10075000   -8.96789000
H   -3.12386000   -5.87937000   -6.22361000
H   -1.84773000   -3.68932000   -6.15795000
H   -3.04398000   -2.90338000   -8.90410000
H   -4.38686000   -3.66929000   -6.22179000
C   -3.07465000   -1.46425000   -7.26793000
C   -0.53841000   -1.47901000   -7.19913000
C   -1.78730000   -0.72957000   -7.71648000
C   -4.32141000   -0.71380000   -7.78920000
H   -3.10641000   -1.48244000   -6.15309000
H   -0.56810000   -1.50048000   -6.08426000
H   -4.28740000   -0.69713000   -8.90430000
H   -1.75597000   -0.71000000   -8.83154000
C   -5.61693000   -1.44108000   -7.34316000
C   -5.61574000   -2.90378000   -7.85312000
C   -5.64235000   -5.85281000   -7.39877000
C   -6.84489000   -0.66982000   -7.86503000
C   -6.88488000   -3.65011000   -7.40057000
C   -6.87981000   -5.09344000   -7.91324000
H   -6.85839000   -0.66872000   -8.97719000
H   -5.65860000   -1.45337000   -6.22965000
H   -5.59568000   -2.89136000   -8.96724000
H   -6.96070000   -3.65155000   -6.29099000
H   -6.90088000   -5.09157000   -9.02519000
H   -5.67712000   -5.86490000   -6.28507000
C   -6.83719000   0.77533000   -7.35447000
C   -5.55537000   1.49562000   -7.78601000
C   -4.31725000   0.74716000   -7.27043000
C   -3.03326000   1.47184000   -7.70952000
C   -1.78979000   0.72888000   -7.19432000
C   -0.50609000   1.45766000   -7.63152000
H   -6.91865000   0.78285000   -6.24627000
H   -4.35133000   0.74289000   -6.15748000
H   -1.82322000   0.72201000   -6.08145000
H   -5.53178000   1.56637000   -8.89592000
H   -2.99907000   1.54063000   -8.82034000
H   -0.47288000   1.53033000   -8.74206000
C   -0.55526000   5.92726000   -7.80901000
C   -1.83427000   5.19129000   -7.34937000
C   -3.09111000   5.93889000   -7.85911000
H   -0.53468000   5.94813000   -8.92414000
C   -1.82746000   3.73233000   -7.87017000
H   -1.85535000   5.17265000   -6.23413000
C   -3.10170000   3.00296000   -7.41457000
C   -4.35516000   3.74047000   -7.91622000
C   -4.36942000   5.20186000   -7.39887000
H   -1.80849000   3.73825000   -8.98342000
H   -3.06911000   5.95661000   -8.97422000
H   -4.39003000   5.18578000   -6.28343000
H   -4.33471000   3.74407000   -9.02954000
H   -3.12181000   2.93525000   -6.30336000
C   -0.57302000   2.99102000   -7.37307000
H   -0.59070000   2.92019000   -6.26211000
C   -5.63383000   5.94229000   -7.90813000
C   -5.62484000   3.00541000   -7.46197000
C   -6.89399000   5.18421000   -7.44730000
C   -6.87620000   3.73867000   -7.95651000
H   -5.62061000   5.95429000   -9.02238000
H   -6.96232000   5.18407000   -6.33719000
H   -6.90295000   3.73111000   -9.06739000
H   -5.65667000   2.93540000   -6.35221000
C   4.50021000   -5.86175000   -7.33858000
C   7.03872000   -5.87467000   -7.28444000
C   5.78332000   -5.12658000   -7.79474000
H   7.01571000   -5.89571000   -6.16941000
H   7.09108000   -2.91317000   -8.83950000
C   7.06392000   -2.93478000   -7.72453000
C   5.77876000   -3.66982000   -7.27288000
H   5.80807000   -5.10712000   -8.90978000
C   4.52642000   -2.92136000   -7.78919000
C   3.23929000   -3.65341000   -7.33682000
C   3.24420000   -5.11654000   -7.85284000
H   3.27155000   -5.10075000   -8.96789000
H   4.47514000   -5.87937000   -6.22361000
H   5.75127000   -3.68932000   -6.15795000
H   4.55502000   -2.90338000   -8.90410000
H   3.21214000   -3.66929000   -6.22179000
C   4.52435000   -1.46425000   -7.26793000
C   7.06059000   -1.47901000   -7.19913000
C   5.81170000   -0.72957000   -7.71648000
C   3.27759000   -0.71380000   -7.78920000
H   4.49259000   -1.48244000   -6.15309000
H   7.03090000   -1.50048000   -6.08426000
H   3.31160000   -0.69713000   -8.90430000
H   5.84303000   -0.71000000   -8.83154000
C   1.98207000   -1.44108000   -7.34316000
C   1.98326000   -2.90378000   -7.85312000
C   1.95665000   -5.85281000   -7.39877000
C   0.75411000   -0.66982000   -7.86503000
C   0.71412000   -3.65011000   -7.40057000
C   0.71919000   -5.09344000   -7.91324000
H   0.74061000   -0.66872000   -8.97719000
H   1.94040000   -1.45337000   -6.22965000
H   2.00332000   -2.89136000   -8.96724000
H   0.63830000   -3.65155000   -6.29099000
H   0.69812000   -5.09157000   -9.02519000
H   1.92188000   -5.86490000   -6.28507000
C   0.76181000   0.77533000   -7.35447000
C   2.04363000   1.49562000   -7.78601000
C   3.28175000   0.74716000   -7.27043000
C   4.56574000   1.47184000   -7.70952000
C   5.80921000   0.72888000   -7.19432000
C   7.09291000   1.45766000   -7.63152000
H   0.68035000   0.78285000   -6.24627000
H   3.24767000   0.74289000   -6.15748000
H   5.77578000   0.72201000   -6.08145000
H   2.06722000   1.56637000   -8.89592000
H   4.59993000   1.54063000   -8.82034000
H   7.12612000   1.53033000   -8.74206000
C   7.04374000   5.92726000   -7.80901000
C   5.76473000   5.19129000   -7.34937000
C   4.50789000   5.93889000   -7.85911000
H   7.06432000   5.94813000   -8.92414000
C   5.77154000   3.73233000   -7.87017000
H   5.74365000   5.17265000   -6.23413000
C   4.49730000   3.00296000   -7.41457000
C   3.24384000   3.74047000   -7.91622000
C   3.22958000   5.20186000   -7.39887000
H   5.79051000   3.73825000   -8.98342000
H   4.52989000   5.95661000   -8.97422000
H   3.20897000   5.18578000   -6.28343000
H   3.26429000   3.74407000   -9.02954000
H   4.47719000   2.93525000   -6.30336000
C   7.02598000   2.99102000   -7.37307000
H   7.00830000   2.92019000   -6.26211000
C   1.96517000   5.94229000   -7.90813000
C   1.97416000   3.00541000   -7.46197000
C   0.70501000   5.18421000   -7.44730000
C   0.72280000   3.73867000   -7.95651000
H   1.97839000   5.95429000   -9.02238000
H   0.63668000   5.18407000   -6.33719000
H   0.69605000   3.73111000   -9.06739000
H   1.94233000   2.93540000   -6.35221000
C   12.09921000   -5.86175000   -7.33858000
C   14.63772000   -5.87467000   -7.28444000
C   13.38232000   -5.12658000   -7.79474000
H   14.61471000   -5.89571000   -6.16941000
H   14.69008000   -2.91317000   -8.83950000
C   14.66292000   -2.93478000   -7.72453000
C   13.37776000   -3.66982000   -7.27288000
H   13.40707000   -5.10712000   -8.90978000
C   12.12542000   -2.92136000   -7.78919000
C   10.83829000   -3.65341000   -7.33682000
C   10.84320000   -5.11654000   -7.85284000
H   10.87055000   -5.10075000   -8.96789000
H   12.07414000   -5.87937000   -6.22361000
H   13.35027000   -3.68932000   -6.15795000
H   12.15402000   -2.90338000   -8.90410000
H   10.81114000   -3.66929000   -6.22179000
C   12.12335000   -1.46425000   -7.26793000
C   14.65959000   -1.47901000   -7.19913000
C   13.41070000   -0.72957000   -7.71648000
C   10.87659000   -0.71380000   -7.78920000
H   12.09159000   -1.48244000   -6.15309000
H   14.62990000   -1.50048000   -6.08426000
H   10.91060000   -0.69713000   -8.90430000
H   13.44203000   -0.71000000   -8.83154000
C   9.58107000   -1.44108000   -7.34316000
C   9.58226000   -2.90378000   -7.85312000
C   9.55565000   -5.85281000   -7.39877000
C   8.35311000   -0.66982000   -7.86503000
C   8.31312000   -3.65011000   -7.40057000
C   8.31819000   -5.09344000   -7.91324000
H   8.33961000   -0.66872000   -8.97719000
H   9.53940000   -1.45337000   -6.22965000
H   9.60232000   -2.89136000   -8.96724000
H   8.23730000   -3.65155000   -6.29099000
H   8.29712000   -5.09157000   -9.02519000
H   9.52088000   -5.86490000   -6.28507000
C   8.36081000   0.77533000   -7.35447000
C   9.64263000   1.49562000   -7.78601000
C   10.88075000   0.74716000   -7.27043000
C   12.16474000   1.47184000   -7.70952000
C   13.40821000   0.72888000   -7.19432000
C   14.69191000   1.45766000   -7.63152000
H   8.27935000   0.78285000   -6.24627000
H   10.84667000   0.74289000   -6.15748000
H   13.37478000   0.72201000   -6.08145000
H   9.66622000   1.56637000   -8.89592000
H   12.19893000   1.54063000   -8.82034000
H   14.72512000   1.53033000   -8.74206000
C   14.64274000   5.92726000   -7.80901000
C   13.36373000   5.19129000   -7.34937000
C   12.10689000   5.93889000   -7.85911000
H   14.66332000   5.94813000   -8.92414000
C   13.37054000   3.73233000   -7.87017000
H   13.34265000   5.17265000   -6.23413000
C   12.09630000   3.00296000   -7.41457000
C   10.84284000   3.74047000   -7.91622000
C   10.82858000   5.20186000   -7.39887000
H   13.38951000   3.73825000   -8.98342000
H   12.12889000   5.95661000   -8.97422000
H   10.80797000   5.18578000   -6.28343000
H   10.86329000   3.74407000   -9.02954000
H   12.07619000   2.93525000   -6.30336000
C   14.62498000   2.99102000   -7.37307000
H   14.60730000   2.92019000   -6.26211000
C   9.56417000   5.94229000   -7.90813000
C   9.57316000   3.00541000   -7.46197000
C   8.30401000   5.18421000   -7.44730000
C   8.32180000   3.73867000   -7.95651000
H   9.57739000   5.95429000   -9.02238000
H   8.23568000   5.18407000   -6.33719000
H   8.29505000   3.73111000   -9.06739000
H   9.54133000   2.93540000   -6.35221000
C   -10.69779000   -5.86175000   7.66142000
C   -8.15928000   -5.87467000   7.71556000
C   -9.41468000   -5.12658000   7.20526000
H   -8.18229000   -5.89571000   8.83059000
H   -8.10692000   -2.91317000   6.16050000
C   -8.13408000   -2.93478000   7.27547000
C   -9.41924000   -3.66982000   7.72712000
H   -9.38993000   -5.10712000   6.09022000
C   -10.67158000   -2.92136000   7.21081000
C   -11.95871000   -3.65341000   7.66318000
C   -11.95380000   -5.11654000   7.14716000
H   -11.92645000   -5.10075000   6.03211000
H   -10.72286000   -5.87937000   8.77639000
H   -9.44673000   -3.68932000   8.84205000
H   -10.64298000   -2.90338000   6.09590000
H   -11.98586000   -3.66929000   8.77821000
C   -10.67365000   -1.46425000   7.73207000
C   -8.13741000   -1.47901000   7.80087000
C   -9.38630000   -0.72957000   7.28352000
C   -11.92041000   -0.71380000   7.21080000
H   -10.70541000   -1.48244000   8.84691000
H   -8.16710000   -1.50048000   8.91574000
H   -11.88640000   -0.69713000   6.09570000
H   -9.35497000   -0.71000000   6.16846000
C   -13.21593000   -1.44108000   7.65684000
C   -13.21474000   -2.90378000   7.14688000
C   -13.24135000   -5.85281000   7.60123000
C   -14.44389000   -0.66982000   7.13497000
C   -14.48388000   -3.65011000   7.59943000
C   -14.47881000   -5.09344000   7.08676000
H   -14.45739000   -0.66872000   6.02281000
H   -13.25760000   -1.45337000   8.77035000
H   -13.19468000   -2.89136000   6.03276000
H   -14.55970000   -3.65155000   8.70901000
H   -14.49988000   -5.09157000   5.97481000
H   -13.27612000   -5.86490000   8.71493000
C   -14.43619000   0.77533000   7.64553000
C   -13.15437000   1.49562000   7.21399000
C   -11.91625000   0.74716000   7.72957000
C   -10.63226000   1.47184000   7.29048000
C   -9.38879000   0.72888000   7.80568000
C   -8.10509000   1.45766000   7.36848000
H   -14.51765000   0.78285000   8.75373000
H   -11.95033000   0.74289000   8.84252000
H   -9.42222000   0.72201000   8.91855000
H   -13.13078000   1.56637000   6.10408000
H   -10.59807000   1.54063000   6.17966000
H   -8.07188000   1.53033000   6.25794000
C   -8.15426000   5.92726000   7.19099000
C   -9.43327000   5.19129000   7.65063000
C   -10.69011000   5.93889000   7.14089000
H   -8.13368000   5.94813000   6.07586000
C   -9.42646000   3.73233000   7.12983000
H   -9.45435000   5.17265000   8.76587000
C   -10.70070000   3.00296000   7.58543000
C   -11.95416000   3.74047000   7.08378000
C   -11.96842000   5.20186000   7.60113000
H   -9.40749000   3.73825000   6.01658000
H   -10.66811000   5.95661000   6.02578000
H   -11.98903000   5.18578000   8.71657000
H   -11.93371000   3.74407000   5.97046000
H   -10.72081000   2.93525000   8.69664000
C   -8.17202000   2.99102000   7.62693000
H   -8.18970000   2.92019000   8.73789000
C   -13.23283000   5.94229000   7.09187000
C   -13.22384000   3.00541000   7.53803000
C   -14.49299000   5.18421000   7.55270000
C   -14.47520000   3.73867000   7.04349000
H   -13.21961000   5.95429000   5.97762000
H   -14.56132000   5.18407000   8.66281000
H   -14.50195000   3.73111000   5.93261000
H   -13.25567000   2.93540000   8.64779000
C   -3.09879000   -5.86175000   7.66142000
C   -0.56028000   -5.87467000   7.71556000
C   -1.81568000   -5.12658000   7.20526000
H   -0.58329000   -5.89571000   8.83059000
H   -0.50792000   -2.91317000   6.16050000
C   -0.53508000   -2.93478000   7.27547000
C   -1.82024000   -3.66982000   7.72712000
H   -1.79093000   -5.10712000   6.09022000
C   -3.07258000   -2.92136000   7.21081000
C   -4.35971000   -3.65341000   7.66318000
C   -4.35480000   -5.11654000   7.14716000
H   -4.32745000   -5.10075000   6.03211000
H   -3.12386000   -5.87937000   8.77639000
H   -1.84773000   -3.68932000   8.84205000
H   -3.04398000   -2.90338000   6.09590000
H   -4.38686000   -3.66929000   8.77821000
C   -3.07465000   -1.46425000   7.73207000
C   -0.53841000   -1.47901000   7.80087000
C   -1.78730000   -0.72957000   7.28352000
C   -4.32141000   -0.71380000   7.21080000
H   -3.10641000   -1.48244000   8.84691000
H   -0.56810000   -1.50048000   8.91574000
H   -1.75597000   -0.71000000   6.16846000
C   -5.61693000   -1.44108000   7.65684000
C   -5.61574000   -2.90378000   7.14688000
C   -5.64235000   -5.85281000   7.60123000
C   -6.84489000   -0.66982000   7.13497000
C   -6.88488000   -3.65011000   7.59943000
C   -6.87981000   -5.09344000   7.08676000
H   -6.85839000   -0.66872000   6.02281000
H   -5.65860000   -1.45337000   8.77035000
H   -5.59568000   -2.89136000   6.03276000
H   -6.96070000   -3.65155000   8.70901000
H   -6.90088000   -5.09157000   5.97481000
H   -5.67712000   -5.86490000   8.71493000
C   -6.83719000   0.77533000   7.64553000
C   -5.55537000   1.49562000   7.21399000
C   -4.31725000   0.74716000   7.72957000
C   -3.03326000   1.47184000   7.29048000
C   -1.78979000   0.72888000   7.80568000
C   -0.50609000   1.45766000   7.36848000
H   -6.91865000   0.78285000   8.75373000
H   -4.35133000   0.74289000   8.84252000
H   -1.82322000   0.72201000   8.91855000
H   -5.53178000   1.56637000   6.10408000
H   -2.99907000   1.54063000   6.17966000
H   -0.47288000   1.53033000   6.25794000
C   -0.55526000   5.92726000   7.19099000
C   -1.83427000   5.19129000   7.65063000
C   -3.09111000   5.93889000   7.14089000
H   -0.53468000   5.94813000   6.07586000
C   -1.82746000   3.73233000   7.12983000
H   -1.85535000   5.17265000   8.76587000
C   -3.10170000   3.00296000   7.58543000
C   -4.35516000   3.74047000   7.08378000
C   -4.36942000   5.20186000   7.60113000
H   -1.80849000   3.73825000   6.01658000
H   -3.06911000   5.95661000   6.02578000
H   -4.39003000   5.18578000   8.71657000
H   -4.33471000   3.74407000   5.97046000
H   -3.12181000   2.93525000   8.69664000
C   -0.57302000   2.99102000   7.62693000
H   -0.59070000   2.92019000   8.73789000
C   -5.63383000   5.94229000   7.09187000
C   -5.62484000   3.00541000   7.53803000
C   -6.89399000   5.18421000   7.55270000
C   -6.87620000   3.73867000   7.04349000
H   -5.62061000   5.95429000   5.97762000
H   -6.96232000   5.18407000   8.66281000
H   -6.90295000   3.73111000   5.93261000
H   -5.65667000   2.93540000   8.64779000
C   4.50021000   -5.86175000   7.66142000
C   7.03872000   -5.87467000   7.71556000
C   5.78332000   -5.12658000   7.20526000
H   7.01571000   -5.89571000   8.83059000
H   7.09108000   -2.91317000   6.16050000
C   7.06392000   -2.93478000   7.27547000
C   5.77876000   -3.66982000   7.72712000
H   5.80807000   -5.10712000   6.09022000
C   4.52642000   -2.92136000   7.21081000
C   3.23929000   -3.65341000   7.66318000
C   3.24420000   -5.11654000   7.14716000
H   3.27155000   -5.10075000   6.03211000
H   4.47514000   -5.87937000   8.77639000
H   5.75127000   -3.68932000   8.84205000
H   4.55502000   -2.90338000   6.09590000
H   3.21214000   -3.66929000   8.77821000
C   4.52435000   -1.46425000   7.73207000
C   7.06059000   -1.47901000   7.80087000
C   5.81170000   -0.72957000   7.28352000
C   3.27759000   -0.71380000   7.21080000
H   4.49259000   -1.48244000   8.84691000
H   7.03090000   -1.50048000   8.91574000
H   3.31160000   -0.69713000   6.09570000
C   1.98207000   -1.44108000   7.65684000
C   1.98326000   -2.90378000   7.14688000
C   1.95665000   -5.85281000   7.60123000
C   0.75411000   -0.66982000   7.13497000
C   0.71412000   -3.65011000   7.59943000
C   0.71919000   -5.09344000   7.08676000
H   0.74061000   -0.66872000   6.02281000
H   1.94040000   -1.45337000   8.77035000
H   2.00332000   -2.89136000   6.03276000
H   0.63830000   -3.65155000   8.70901000
H   0.69812000   -5.09157000   5.97481000
H   1.92188000   -5.86490000   8.71493000
C   0.76181000   0.77533000   7.64553000
C   2.04363000   1.49562000   7.21399000
C   3.28175000   0.74716000   7.72957000
C   4.56574000   1.47184000   7.29048000
C   5.80921000   0.72888000   7.80568000
C   7.09291000   1.45766000   7.36848000
H   0.68035000   0.78285000   8.75373000
H   3.24767000   0.74289000   8.84252000
H   5.77578000   0.72201000   8.91855000
H   2.06722000   1.56637000   6.10408000
H   4.59993000   1.54063000   6.17966000
H   7.12612000   1.53033000   6.25794000
C   7.04374000   5.92726000   7.19099000
C   5.76473000   5.19129000   7.65063000
C   4.50789000   5.93889000   7.14089000
H   7.06432000   5.94813000   6.07586000
C   5.77154000   3.73233000   7.12983000
H   5.74365000   5.17265000   8.76587000
C   4.49730000   3.00296000   7.58543000
C   3.24384000   3.74047000   7.08378000
C   3.22958000   5.20186000   7.60113000
H   5.79051000   3.73825000   6.01658000
H   4.52989000   5.95661000   6.02578000
H   3.20897000   5.18578000   8.71657000
H   3.26429000   3.74407000   5.97046000
H   4.47719000   2.93525000   8.69664000
C   7.02598000   2.99102000   7.62693000
H   7.00830000   2.92019000   8.73789000
C   1.96517000   5.94229000   7.09187000
C   1.97416000   3.00541000   7.53803000
C   0.70501000   5.18421000   7.55270000
C   0.72280000   3.73867000   7.04349000
H   1.97839000   5.95429000   5.97762000
H   0.63668000   5.18407000   8.66281000
H   0.69605000   3.73111000   5.93261000
H   1.94233000   2.93540000   8.64779000
C   12.09921000   -5.86175000   7.66142000
C   14.63772000   -5.87467000   7.71556000
C   13.38232000   -5.12658000   7.20526000
H   14.61471000   -5.89571000   8.83059000
H   14.69008000   -2.91317000   6.16050000
C   14.66292000   -2.93478000   7.27547000
C   13.37776000   -3.66982000   7.72712000
H   13.40707000   -5.10712000   6.09022000
C   12.12542000   -2.92136000   7.21081000
C   10.83829000   -3.65341000   7.66318000
C   10.84320000   -5.11654000   7.14716000
H   10.87055000   -5.10075000   6.03211000
H   12.07414000   -5.87937000   8.77639000
H   13.35027000   -3.68932000   8.84205000
H   12.15402000   -2.90338000   6.09590000
H   10.81114000   -3.66929000   8.77821000
C   12.12335000   -1.46425000   7.73207000
C   14.65959000   -1.47901000   7.80087000
C   13.41070000   -0.72957000   7.28352000
C   10.87659000   -0.71380000   7.21080000
H   12.09159000   -1.48244000   8.84691000
H   14.62990000   -1.50048000   8.91574000
H   10.91060000   -0.69713000   6.09570000
H   13.44203000   -0.71000000   6.16846000
C   9.58107000   -1.44108000   7.65684000
C   9.58226000   -2.90378000   7.14688000
C   9.55565000   -5.85281000   7.60123000
C   8.35311000   -0.66982000   7.13497000
C   8.31312000   -3.65011000   7.59943000
C   8.31819000   -5.09344000   7.08676000
H   8.33961000   -0.66872000   6.02281000
H   9.53940000   -1.45337000   8.77035000
H   9.60232000   -2.89136000   6.03276000
H   8.23730000   -3.65155000   8.70901000
H   8.29712000   -5.09157000   5.97481000
H   9.52088000   -5.86490000   8.71493000
C   8.36081000   0.77533000   7.64553000
C   9.64263000   1.49562000   7.21399000
C   10.88075000   0.74716000   7.72957000
C   12.16474000   1.47184000   7.29048000
C   13.40821000   0.72888000   7.80568000
C   14.69191000   1.45766000   7.36848000
H   8.27935000   0.78285000   8.75373000
H   10.84667000   0.74289000   8.84252000
H   13.37478000   0.72201000   8.91855000
H   9.66622000   1.56637000   6.10408000
H   12.19893000   1.54063000   6.17966000
H   14.72512000   1.53033000   6.25794000
C   14.64274000   5.92726000   7.19099000
C   13.36373000   5.19129000   7.65063000
C   12.10689000   5.93889000   7.14089000
H   14.66332000   5.94813000   6.07586000
C   13.37054000   3.73233000   7.12983000
H   13.34265000   5.17265000   8.76587000
C   12.09630000   3.00296000   7.58543000
C   10.84284000   3.74047000   7.08378000
C   10.82858000   5.20186000   7.60113000
H   13.38951000   3.73825000   6.01658000
H   12.12889000   5.95661000   6.02578000
H   10.80797000   5.18578000   8.71657000
H   10.86329000   3.74407000   5.97046000
H   12.07619000   2.93525000   8.69664000
C   14.62498000   2.99102000   7.62693000
H   14.60730000   2.92019000   8.73789000
C   9.56417000   5.94229000   7.09187000
C   9.57316000   3.00541000   7.53803000
C   8.30401000   5.18421000   7.55270000
C   8.32180000   3.73867000   7.04349000
H   9.57739000   5.95429000   5.97762000
H   8.23568000   5.18407000   8.66281000
H   8.29505000   3.73111000   5.93261000
H   9.54133000   2.93540000   8.64779000
N   -7.32650387   -3.03317819   -0.66075669
C   -7.06454718   -1.71820307   0.19066266
H   -6.57953397   -0.94735479   -0.42565831
H   -8.06075165   -1.37665461   0.37745041
C   -6.22493842   -1.87678460   1.47358316
H   -6.92702600   -2.06760018   2.32114969
H   -5.56260166   -2.72118598   1.56924264
C   -4.21455891   -0.63918492   5.48575219
H   -3.68273975   -1.51176329   5.31277389
H   -3.42154806   0.13119307   5.27408026
C   -5.29596941   -0.57645400   4.36156278
H   -5.92602918   -1.47970653   4.39689218
H   -6.01495445   0.23564670   4.38514435
C   -4.62428089   -0.48484688   2.98001850
H   -3.79825898   -1.24153253   2.87197362
H   -4.06756145   0.38824622   2.86337358
C   -5.44805900   -0.56030418   1.73120004
H   -6.07526360   0.26134860   1.62005895
H   -4.79159585   -0.30437758   0.88907568
C   -8.23741090   -2.67081514   -1.78118926
H   -7.64314501   -2.27657156   -2.57178600
H   -8.94901199   -1.94956037   -1.49579397
H   -8.70448041   -3.57945301   -2.06196970
C   -7.91005725   -4.14915223   0.12805125
H   -8.66382105   -3.71015590   0.78289026
H   -7.08925305   -4.50210938   0.71363504
H   -8.25593542   -4.98705653   -0.46714032
C   -6.04869905   -3.60877346   -1.34538012
H   -6.25741224   -4.52617085   -1.90984489
H   -5.30468917   -3.90495850   -0.55142140
H   -5.62703425   -2.93838063   -2.00182890
N   4.39735594   -0.82795548   -1.25892467
C   5.46047879   -0.67599466   -0.09798471
H   5.18128062   -1.42262079   0.72870598
H   6.48042295   -0.83688134   -0.48594638
C   5.30966793   0.74517914   0.65355593
H   5.55378650   1.57742538   -0.09360255
H   4.24217509   0.83962912   0.89060859
C   5.81046880   -0.77315954   5.56807457
H   4.89364365   -1.26512529   5.18280746
H   6.59992459   -1.51719706   5.29584928
C   6.20655471   0.33901622   4.55092535
H   5.60099606   1.25942621   4.68968323
H   7.27059002   0.60214100   4.66438294
C   5.78678352   -0.14058584   3.09731109
H   4.72373451   -0.30764033   3.18955140
H   6.30133823   -1.05098366   2.95073813
C   6.09258731   0.86176096   1.92388887
H   5.95292791   1.87698431   2.27006069
H   7.20947452   0.98999337   1.62142690
C   3.00652808   -0.81428413   -0.63972057
H   2.22583116   -0.79378075   -1.50878081
H   2.85456254   0.12230902   -0.20316456
H   2.82865084   -1.61492157   0.11472138
C   4.46063923   -2.14878454   -2.01894456
H   4.14124222   -2.84071603   -1.29944538
H   5.41860082   -2.39479407   -2.48457271
H   3.77939986   -2.04467995   -2.89005570
C   4.62700475   0.27058354   -2.21133814
H   3.92776405   0.27615576   -3.04770138
H   5.66063291   0.28694498   -2.57090593
H   4.47690192   1.25027820   -1.68963955
O   17.36591275   -11.27306012   3.65276537
H   16.41599257   -11.34742337   3.73383753
H   17.60060581   -10.46111129   4.16058548
O   13.65457428   -0.05621152   2.15677115
H   14.45933624   -0.39985342   1.76916518
H   13.20345112   -0.75551428   2.66419849
O   -4.86773796   -20.87072555   -0.39156739
H   -4.56761561   -21.16714554   0.54118772
H   -4.86600660   -19.94791571   -0.24230856
O   27.17976720   -10.49306681   -3.28980346
H   27.72465287   -11.08007763   -2.70570977
H   26.52047071   -11.16921105   -3.55228687
O   -18.35306934   -7.24155886   -3.72156134
H   -18.90088456   -7.48887187   -2.90842230
H   -18.45268952   -6.28758326   -3.88135506
O   0.30781693   -21.24137035   -2.41239493
H   1.08143998   -21.48593711   -1.90224754
H   30.97429625   -20.75287520   -3.20198158
O   0.99215583   -12.36491490   0.13514838
H   1.01236771   -12.07864053   -0.79017250
H   0.52030784   -13.18651813   0.06956757
O   -21.21168606   25.01763828   1.22268713
H   -21.00523728   24.27664668   0.65189260
H   11.04619025   -12.30595119   -0.96371322
O   0.82272514   11.32799858   -3.10959018
H   0.05399773   10.82518967   -2.62664160
H   1.09191724   10.77339110   -3.85196522
O   9.78005631   27.24528673   3.13080414
H   9.28882301   26.49384482   3.45810442
H   10.24949479   27.00190383   2.31869646
O   -9.16491349   6.70617779   -1.44043526
H   -9.64700101   5.91901319   -1.10865945
H   -8.50229575   6.34858745   -2.14032876
O   10.84427826   -18.57959529   1.28144926
H   11.37029668   -19.38176302   0.99347831
H   -0.37529919   9.48638249   -0.46031543
O   -42.10477612   9.99744407   0.99163185
H   -42.55326422   9.38548165   0.34165232
H   -41.32333826   9.54601038   1.40511941
O   -7.21562890   -8.09361674   -3.46501540
H   -6.87376478   -8.87190970   -3.05302484
H   -6.55136539   -7.52207522   -3.79605325
O   -15.85861979   -21.40326535   -0.18674076
H   -16.80773289   -21.21541038   0.20118293
H   -15.25209181   -21.23696718   0.51633636
O   10.04124010   4.56400771   3.33711812
H   9.89130900   4.01204618   4.08250118
H   -18.03596747   -17.28707178   3.67864189
O   5.69275460   8.39640545   -2.29928095
H   5.53325520   8.53008655   -1.36338708
H   5.86626472   7.47186005   -2.39099569
O   -17.20720836   -4.15336064   3.23238920
H   11.39490175   -17.78711155   1.33636371
H   -17.30413829   -5.13323097   3.20496490
O   -1.86950454   2.12495206   2.44852573
H   -1.05493609   2.53544044   2.14375290
H   -2.36887172   1.62594290   1.73084126
O   -4.29482683   -5.20645203   1.23587089
H   -4.06841602   -5.71338326   2.03166573
H   -3.55929034   -4.55675160   1.20262586
O   -10.09208516   -13.62994353   -1.18449898
H   -10.60746230   -13.62138868   -2.01710217
H   -10.63093076   -13.30239984   -0.51998494
O   -0.42823878   -1.34975888   0.01947262
H   -0.48695545   -1.90895089   -0.80151171
H   7.93252962   -12.59659896   -2.55312607
O   33.20329185   -18.12852752   -0.76579312
H   32.21625671   -17.94142100   -0.69559240
H   33.30198906   -18.96983033   -0.30947754
O   -2.70096118   -12.32652239   -0.50558365
H   -1.79122508   -12.21053613   -0.83181615
H   -2.93925792   -11.43099434   -0.27327112
O   12.31454436   -15.98161091   1.02746674
H   12.73705060   -16.08004360   1.90911599
H   30.85621268   -20.06513505   2.23722279
O   13.72443954   -18.28008764   -0.26364324
H   13.44268979   -19.16646574   -0.01373939
H   13.81303100   -18.47658086   -1.19625390
O   6.98162375   5.59172034   -2.54726121
H   7.57533146   4.86189394   -2.34800874
H   5.35203727   -5.67134549   1.29137736
O   13.96373894   15.65095874   -0.84988193
H   14.23105021   16.48960385   -0.52877443
H   13.08447272   15.44412060   -0.44305253
O   24.88190993   -18.70362876   -3.80263889
H   25.74009277   -18.91479588   -3.36773867
H   25.12683168   -18.55935352   -4.67802329
O   18.83141457   -2.91541480   -3.39108182
H   18.12616999   -3.54275983   -3.11387749
H   19.48156686   -2.82488880   -2.70122512
O   2.21643663   7.42291647   -3.33380021
H   3.14704660   7.48187848   -3.54043433
H   2.15230818   -5.72204205   -2.42849231
O   -3.23649292   -16.41406271   -0.00324336
H   -3.16670851   -15.45469885   -0.30522407
H   -2.43792316   -16.83292134   -0.51726861
O   -11.71103882   -13.47592010   -3.71210635
H   -12.53170118   -12.99549341   -3.50984787
H   -11.89998016   -14.28717777   -4.11771476
O   -20.48421489   -23.60245933   -2.87144140
H   -20.34543553   -24.53007301   -2.77685919
H   -17.53316028   -16.37616008   0.38799244
O   23.08154024   1.15159737   -1.74959582
H   23.54553770   1.94233272   -1.57925702
H   22.16973689   1.47530640   -1.85385370
O   13.22304396   6.28657053   3.22404319
H   12.33405811   6.20700359   3.59881853
H   13.06308432   6.34767619   2.22768684
O   6.46482905   7.61164694   3.36073667
H   5.97776673   7.12214723   4.05053976
H   7.40984129   7.83890679   3.48212577
O   -1.33063697   -6.65343059   -0.03223992
H   -1.27704896   -5.76456824   0.23656202
H   -1.29203261   -14.86512174   0.46200403
O   20.01043001   21.19096945   2.17359488
H   19.21475719   20.67737960   1.86444827
H   19.97415462   21.27715750   3.11633634
O   24.12473154   -23.20010841   -1.01257382
H   24.78854673   -22.53935816   -1.12674313
H   23.47311111   -22.71583108   -0.52351684
O   -22.36757890   8.91141278   1.16533498
H   -21.76586321   8.76803538   1.89967478
H   -22.44234850   8.09376643   0.64761816
O   0.52882531   0.74727294   -2.82251696
H   0.50453545   -0.19690039   -2.97981048
H   0.65604420   1.18188769   -3.69339394
O   -1.18048754   -3.22099744   -1.80118467
H   -0.42239823   -6.85627594   -0.14997678
H   -1.67606018   -3.95029510   -2.28621225
O   -18.51225861   14.59899959   0.67503618
H   -18.32427903   15.33446213   1.24365834
H   -17.90253667   0.49057472   0.99624435
O   15.73395995   -3.11354941   0.34987348
H   14.87662984   -3.51224572   0.34814962
H   16.27326684   -3.63978954   0.97397668
O   -18.16023246   -20.88886254   0.83821831
H   -19.80989516   -23.38174818   -3.52517114
H   -18.69754816   -21.62141038   1.22239066
O   8.01113159   -26.66623517   -3.30805413
H   10.75969779   17.60348104   2.80351913
H   8.95457998   -26.90747038   -3.24504599
O   -19.68759637   -7.61340718   -1.35093706
H   -18.99713288   -7.22448842   -0.76666671
H   -19.63164318   -8.59753682   -1.15402906
O   7.47737903   -11.06251310   -1.19922970
H   7.14437424   -10.59856427   -1.97961041
H   8.44066877   -10.98084520   -1.17536600
O   -12.31730678   -10.00277433   0.23966306
H   -13.18312326   -9.56521867   0.37371062
H   -12.26846941   -10.31458399   -0.68344789
O   18.33615447   -6.72812328   -2.15581147
H   19.06195562   -6.22760486   -2.57870016
H   17.97839475   -7.29204651   -2.81245004
O   -5.09635110   0.39242793   -4.21463846
H   -4.69405919   -0.21461877   -3.58258988
H   -6.05192457   0.46890159   -3.94496270
O   -1.76814936   -22.63900822   -1.12597441
H   -2.11414738   -22.79986920   -2.00565680
H   -1.56202397   -21.70380024   -1.13900611
O   38.58294886   5.87356765   0.19219816
H   38.28498805   5.03423582   0.68536462
H   39.50413148   5.73828095   -0.00151935
O   16.07139753   10.73526736   4.03760461
H   15.21655927   10.97603384   3.70377260
H   16.64552352   10.96519482   3.31106522
O   -2.76032480   12.17993843   -2.61543695
H   -2.50428894   13.04569140   -2.25508873
H   -2.12684381   11.43004661   -2.26048705
O   -2.08400933   -19.76698569   -2.61005640
H   -1.25270806   -20.13766279   -2.17145626
H   -2.39397445   -20.60273703   -3.07084715
O   16.69199866   -17.77039757   -2.42581915
H   16.46661129   -5.32743710   -2.28413475
H   15.88010498   -17.26293208   -2.27342398
O   2.36544250   -9.91630257   1.51564885
H   1.47916423   -9.77453759   1.35961280
H   2.62089281   -10.61883653   0.95397347
O   14.65084892   20.45125413   -2.62129303
H   14.70727074   20.01075268   -1.71814659
H   13.80024637   20.06470434   -2.89235116
O   19.83679077   0.16179755   3.87986164
H   19.45560821   -0.59585572   4.36461686
H   19.06851427   0.70846219   3.64187699
O   -9.06040188   -9.94696323   0.38471978
H   -9.18716890   -10.36740713   1.22511986
H   -9.31540774   -10.55990144   -0.31137146
O   10.27335743   -16.39544255   3.84235359
H   9.90567863   -16.03260530   3.04099280
H   9.84885643   -17.20914681   4.14224631
O   5.30200290   -5.91476169   0.39979245
H   17.71236395   19.79850040   -0.03655090
H   6.10626678   -6.51030480   0.28359489
O   10.48965782   -12.59992256   -1.73995406
H   10.79537797   -13.51192783   -1.91915884
H   6.57823920   6.03475553   -1.75516912
O   1.18331432   -7.22515527   1.86035420
H   1.46810934   -7.86264180   2.50736343
H   -20.35817868   25.46175046   1.46370630
O   -20.88001472   -5.85575950   3.70194779
H   -20.41688252   -5.67152305   2.88292053
H   -21.09071329   -6.82092251   3.60391052
O   3.94859074   -23.72446562   -2.00342984
H   4.12685524   -22.74810128   -1.86868853
H   2.98048258   -23.81081396   -2.11399267
O   3.78309826   19.06338160   -0.86479950
H   4.36061053   19.72010579   -0.40427652
H   3.03047659   18.85075287   -0.24461392
O   -13.90496923   26.08742972   1.77246447
H   -12.95838902   26.24402931   1.87188184
H   -13.89305519   25.55791241   0.95140832
O   20.14234219   15.78536663   -2.42391791
H   20.14532236   14.91443574   -2.86226080
H   20.56620581   16.53982314   -2.83068776
O   28.44623945   20.08570829   2.66278480
H   28.19329645   19.23274368   3.17100001
H   28.28993048   19.77298680   1.72416541
O   -17.11935566   -23.37041036   2.20750991
H   -17.03477062   -23.24269160   1.25199681
H   -17.32126510   -22.48925503   2.62177578
O   0.00843294   9.19227410   0.43137044
H   0.18084199   9.93927641   0.97114863
O   -12.49852698   19.82693570   0.93134013
H   -12.56702550   18.93310780   1.18171882
