859

C   -10.69779000   -5.86175000   -7.33858000
C   -8.15928000   -5.87467000   -7.28444000
C   -9.41468000   -5.12658000   -7.79474000
H   -8.18229000   -5.89571000   -6.16941000
H   -8.10692000   -2.91317000   -8.83950000
C   -8.13408000   -2.93478000   -7.72453000
C   -9.41924000   -3.66982000   -7.27288000
H   -9.38993000   -5.10712000   -8.90978000
C   -10.67158000   -2.92136000   -7.78919000
C   -11.95871000   -3.65341000   -7.33682000
C   -11.95380000   -5.11654000   -7.85284000
H   -11.92645000   -5.10075000   -8.96789000
H   -10.72286000   -5.87937000   -6.22361000
H   -9.44673000   -3.68932000   -6.15795000
H   -10.64298000   -2.90338000   -8.90410000
H   -11.98586000   -3.66929000   -6.22179000
C   -10.67365000   -1.46425000   -7.26793000
C   -8.13741000   -1.47901000   -7.19913000
C   -9.38630000   -0.72957000   -7.71648000
C   -11.92041000   -0.71380000   -7.78920000
H   -10.70541000   -1.48244000   -6.15309000
H   -8.16710000   -1.50048000   -6.08426000
H   -11.88640000   -0.69713000   -8.90430000
H   -9.35497000   -0.71000000   -8.83154000
C   -13.21593000   -1.44108000   -7.34316000
C   -13.21474000   -2.90378000   -7.85312000
C   -13.24135000   -5.85281000   -7.39877000
C   -14.44389000   -0.66982000   -7.86503000
C   -14.48388000   -3.65011000   -7.40057000
C   -14.47881000   -5.09344000   -7.91324000
H   -14.45739000   -0.66872000   -8.97719000
H   -13.25760000   -1.45337000   -6.22965000
H   -13.19468000   -2.89136000   -8.96724000
H   -14.55970000   -3.65155000   -6.29099000
H   -14.49988000   -5.09157000   -9.02519000
H   -13.27612000   -5.86490000   -6.28507000
C   -14.43619000   0.77533000   -7.35447000
C   -13.15437000   1.49562000   -7.78601000
C   -11.91625000   0.74716000   -7.27043000
C   -10.63226000   1.47184000   -7.70952000
C   -9.38879000   0.72888000   -7.19432000
C   -8.10509000   1.45766000   -7.63152000
H   -14.51765000   0.78285000   -6.24627000
H   -11.95033000   0.74289000   -6.15748000
H   -9.42222000   0.72201000   -6.08145000
H   -13.13078000   1.56637000   -8.89592000
H   -10.59807000   1.54063000   -8.82034000
H   -8.07188000   1.53033000   -8.74206000
C   -8.15426000   5.92726000   -7.80901000
C   -9.43327000   5.19129000   -7.34937000
C   -10.69011000   5.93889000   -7.85911000
H   -8.13368000   5.94813000   -8.92414000
C   -9.42646000   3.73233000   -7.87017000
H   -9.45435000   5.17265000   -6.23413000
C   -10.70070000   3.00296000   -7.41457000
C   -11.95416000   3.74047000   -7.91622000
C   -11.96842000   5.20186000   -7.39887000
H   -9.40749000   3.73825000   -8.98342000
H   -10.66811000   5.95661000   -8.97422000
H   -11.98903000   5.18578000   -6.28343000
H   -11.93371000   3.74407000   -9.02954000
H   -10.72081000   2.93525000   -6.30336000
C   -8.17202000   2.99102000   -7.37307000
H   -8.18970000   2.92019000   -6.26211000
C   -13.23283000   5.94229000   -7.90813000
C   -13.22384000   3.00541000   -7.46197000
C   -14.49299000   5.18421000   -7.44730000
C   -14.47520000   3.73867000   -7.95651000
H   -13.21961000   5.95429000   -9.02238000
H   -14.56132000   5.18407000   -6.33719000
H   -14.50195000   3.73111000   -9.06739000
H   -13.25567000   2.93540000   -6.35221000
C   -3.09879000   -5.86175000   -7.33858000
C   -0.56028000   -5.87467000   -7.28444000
C   -1.81568000   -5.12658000   -7.79474000
H   -0.58329000   -5.89571000   -6.16941000
H   -0.50792000   -2.91317000   -8.83950000
C   -0.53508000   -2.93478000   -7.72453000
C   -1.82024000   -3.66982000   -7.27288000
H   -1.79093000   -5.10712000   -8.90978000
C   -3.07258000   -2.92136000   -7.78919000
C   -4.35971000   -3.65341000   -7.33682000
C   -4.35480000   -5.11654000   -7.85284000
H   -4.32745000   -5.10075000   -8.96789000
H   -3.12386000   -5.87937000   -6.22361000
H   -1.84773000   -3.68932000   -6.15795000
H   -3.04398000   -2.90338000   -8.90410000
H   -4.38686000   -3.66929000   -6.22179000
C   -3.07465000   -1.46425000   -7.26793000
C   -0.53841000   -1.47901000   -7.19913000
C   -1.78730000   -0.72957000   -7.71648000
C   -4.32141000   -0.71380000   -7.78920000
H   -3.10641000   -1.48244000   -6.15309000
H   -0.56810000   -1.50048000   -6.08426000
H   -4.28740000   -0.69713000   -8.90430000
H   -1.75597000   -0.71000000   -8.83154000
C   -5.61693000   -1.44108000   -7.34316000
C   -5.61574000   -2.90378000   -7.85312000
C   -5.64235000   -5.85281000   -7.39877000
C   -6.84489000   -0.66982000   -7.86503000
C   -6.88488000   -3.65011000   -7.40057000
C   -6.87981000   -5.09344000   -7.91324000
H   -6.85839000   -0.66872000   -8.97719000
H   -5.65860000   -1.45337000   -6.22965000
H   -5.59568000   -2.89136000   -8.96724000
H   -6.96070000   -3.65155000   -6.29099000
H   -6.90088000   -5.09157000   -9.02519000
H   -5.67712000   -5.86490000   -6.28507000
C   -6.83719000   0.77533000   -7.35447000
C   -5.55537000   1.49562000   -7.78601000
C   -4.31725000   0.74716000   -7.27043000
C   -3.03326000   1.47184000   -7.70952000
C   -1.78979000   0.72888000   -7.19432000
C   -0.50609000   1.45766000   -7.63152000
H   -6.91865000   0.78285000   -6.24627000
H   -4.35133000   0.74289000   -6.15748000
H   -1.82322000   0.72201000   -6.08145000
H   -5.53178000   1.56637000   -8.89592000
H   -2.99907000   1.54063000   -8.82034000
H   -0.47288000   1.53033000   -8.74206000
C   -0.55526000   5.92726000   -7.80901000
C   -1.83427000   5.19129000   -7.34937000
C   -3.09111000   5.93889000   -7.85911000
H   -0.53468000   5.94813000   -8.92414000
C   -1.82746000   3.73233000   -7.87017000
H   -1.85535000   5.17265000   -6.23413000
C   -3.10170000   3.00296000   -7.41457000
C   -4.35516000   3.74047000   -7.91622000
C   -4.36942000   5.20186000   -7.39887000
H   -1.80849000   3.73825000   -8.98342000
H   -3.06911000   5.95661000   -8.97422000
H   -4.39003000   5.18578000   -6.28343000
H   -4.33471000   3.74407000   -9.02954000
H   -3.12181000   2.93525000   -6.30336000
C   -0.57302000   2.99102000   -7.37307000
H   -0.59070000   2.92019000   -6.26211000
C   -5.63383000   5.94229000   -7.90813000
C   -5.62484000   3.00541000   -7.46197000
C   -6.89399000   5.18421000   -7.44730000
C   -6.87620000   3.73867000   -7.95651000
H   -5.62061000   5.95429000   -9.02238000
H   -6.96232000   5.18407000   -6.33719000
H   -6.90295000   3.73111000   -9.06739000
H   -5.65667000   2.93540000   -6.35221000
C   4.50021000   -5.86175000   -7.33858000
C   7.03872000   -5.87467000   -7.28444000
C   5.78332000   -5.12658000   -7.79474000
H   7.01571000   -5.89571000   -6.16941000
H   7.09108000   -2.91317000   -8.83950000
C   7.06392000   -2.93478000   -7.72453000
C   5.77876000   -3.66982000   -7.27288000
H   5.80807000   -5.10712000   -8.90978000
C   4.52642000   -2.92136000   -7.78919000
C   3.23929000   -3.65341000   -7.33682000
C   3.24420000   -5.11654000   -7.85284000
H   3.27155000   -5.10075000   -8.96789000
H   4.47514000   -5.87937000   -6.22361000
H   5.75127000   -3.68932000   -6.15795000
H   4.55502000   -2.90338000   -8.90410000
H   3.21214000   -3.66929000   -6.22179000
C   4.52435000   -1.46425000   -7.26793000
C   7.06059000   -1.47901000   -7.19913000
C   5.81170000   -0.72957000   -7.71648000
C   3.27759000   -0.71380000   -7.78920000
H   4.49259000   -1.48244000   -6.15309000
H   7.03090000   -1.50048000   -6.08426000
H   3.31160000   -0.69713000   -8.90430000
H   5.84303000   -0.71000000   -8.83154000
C   1.98207000   -1.44108000   -7.34316000
C   1.98326000   -2.90378000   -7.85312000
C   1.95665000   -5.85281000   -7.39877000
C   0.75411000   -0.66982000   -7.86503000
C   0.71412000   -3.65011000   -7.40057000
C   0.71919000   -5.09344000   -7.91324000
H   0.74061000   -0.66872000   -8.97719000
H   1.94040000   -1.45337000   -6.22965000
H   2.00332000   -2.89136000   -8.96724000
H   0.63830000   -3.65155000   -6.29099000
H   0.69812000   -5.09157000   -9.02519000
H   1.92188000   -5.86490000   -6.28507000
C   0.76181000   0.77533000   -7.35447000
C   2.04363000   1.49562000   -7.78601000
C   3.28175000   0.74716000   -7.27043000
C   4.56574000   1.47184000   -7.70952000
C   5.80921000   0.72888000   -7.19432000
C   7.09291000   1.45766000   -7.63152000
H   0.68035000   0.78285000   -6.24627000
H   3.24767000   0.74289000   -6.15748000
H   5.77578000   0.72201000   -6.08145000
H   2.06722000   1.56637000   -8.89592000
H   4.59993000   1.54063000   -8.82034000
H   7.12612000   1.53033000   -8.74206000
C   7.04374000   5.92726000   -7.80901000
C   5.76473000   5.19129000   -7.34937000
C   4.50789000   5.93889000   -7.85911000
H   7.06432000   5.94813000   -8.92414000
C   5.77154000   3.73233000   -7.87017000
H   5.74365000   5.17265000   -6.23413000
C   4.49730000   3.00296000   -7.41457000
C   3.24384000   3.74047000   -7.91622000
C   3.22958000   5.20186000   -7.39887000
H   5.79051000   3.73825000   -8.98342000
H   4.52989000   5.95661000   -8.97422000
H   3.20897000   5.18578000   -6.28343000
H   3.26429000   3.74407000   -9.02954000
H   4.47719000   2.93525000   -6.30336000
C   7.02598000   2.99102000   -7.37307000
H   7.00830000   2.92019000   -6.26211000
C   1.96517000   5.94229000   -7.90813000
C   1.97416000   3.00541000   -7.46197000
C   0.70501000   5.18421000   -7.44730000
C   0.72280000   3.73867000   -7.95651000
H   1.97839000   5.95429000   -9.02238000
H   0.63668000   5.18407000   -6.33719000
H   0.69605000   3.73111000   -9.06739000
H   1.94233000   2.93540000   -6.35221000
C   12.09921000   -5.86175000   -7.33858000
C   14.63772000   -5.87467000   -7.28444000
C   13.38232000   -5.12658000   -7.79474000
H   14.61471000   -5.89571000   -6.16941000
H   14.69008000   -2.91317000   -8.83950000
C   14.66292000   -2.93478000   -7.72453000
C   13.37776000   -3.66982000   -7.27288000
H   13.40707000   -5.10712000   -8.90978000
C   12.12542000   -2.92136000   -7.78919000
C   10.83829000   -3.65341000   -7.33682000
C   10.84320000   -5.11654000   -7.85284000
H   10.87055000   -5.10075000   -8.96789000
H   12.07414000   -5.87937000   -6.22361000
H   13.35027000   -3.68932000   -6.15795000
H   12.15402000   -2.90338000   -8.90410000
H   10.81114000   -3.66929000   -6.22179000
C   12.12335000   -1.46425000   -7.26793000
C   14.65959000   -1.47901000   -7.19913000
C   13.41070000   -0.72957000   -7.71648000
C   10.87659000   -0.71380000   -7.78920000
H   12.09159000   -1.48244000   -6.15309000
H   14.62990000   -1.50048000   -6.08426000
H   10.91060000   -0.69713000   -8.90430000
H   13.44203000   -0.71000000   -8.83154000
C   9.58107000   -1.44108000   -7.34316000
C   9.58226000   -2.90378000   -7.85312000
C   9.55565000   -5.85281000   -7.39877000
C   8.35311000   -0.66982000   -7.86503000
C   8.31312000   -3.65011000   -7.40057000
C   8.31819000   -5.09344000   -7.91324000
H   8.33961000   -0.66872000   -8.97719000
H   9.53940000   -1.45337000   -6.22965000
H   9.60232000   -2.89136000   -8.96724000
H   8.23730000   -3.65155000   -6.29099000
H   8.29712000   -5.09157000   -9.02519000
H   9.52088000   -5.86490000   -6.28507000
C   8.36081000   0.77533000   -7.35447000
C   9.64263000   1.49562000   -7.78601000
C   10.88075000   0.74716000   -7.27043000
C   12.16474000   1.47184000   -7.70952000
C   13.40821000   0.72888000   -7.19432000
C   14.69191000   1.45766000   -7.63152000
H   8.27935000   0.78285000   -6.24627000
H   10.84667000   0.74289000   -6.15748000
H   13.37478000   0.72201000   -6.08145000
H   9.66622000   1.56637000   -8.89592000
H   12.19893000   1.54063000   -8.82034000
H   14.72512000   1.53033000   -8.74206000
C   14.64274000   5.92726000   -7.80901000
C   13.36373000   5.19129000   -7.34937000
C   12.10689000   5.93889000   -7.85911000
H   14.66332000   5.94813000   -8.92414000
C   13.37054000   3.73233000   -7.87017000
H   13.34265000   5.17265000   -6.23413000
C   12.09630000   3.00296000   -7.41457000
C   10.84284000   3.74047000   -7.91622000
C   10.82858000   5.20186000   -7.39887000
H   13.38951000   3.73825000   -8.98342000
H   12.12889000   5.95661000   -8.97422000
H   10.80797000   5.18578000   -6.28343000
H   10.86329000   3.74407000   -9.02954000
H   12.07619000   2.93525000   -6.30336000
C   14.62498000   2.99102000   -7.37307000
H   14.60730000   2.92019000   -6.26211000
C   9.56417000   5.94229000   -7.90813000
C   9.57316000   3.00541000   -7.46197000
C   8.30401000   5.18421000   -7.44730000
C   8.32180000   3.73867000   -7.95651000
H   9.57739000   5.95429000   -9.02238000
H   8.23568000   5.18407000   -6.33719000
H   8.29505000   3.73111000   -9.06739000
H   9.54133000   2.93540000   -6.35221000
C   -10.69779000   -5.86175000   7.66142000
C   -8.15928000   -5.87467000   7.71556000
C   -9.41468000   -5.12658000   7.20526000
H   -8.18229000   -5.89571000   8.83059000
H   -8.10692000   -2.91317000   6.16050000
C   -8.13408000   -2.93478000   7.27547000
C   -9.41924000   -3.66982000   7.72712000
H   -9.38993000   -5.10712000   6.09022000
C   -10.67158000   -2.92136000   7.21081000
C   -11.95871000   -3.65341000   7.66318000
C   -11.95380000   -5.11654000   7.14716000
H   -11.92645000   -5.10075000   6.03211000
H   -10.72286000   -5.87937000   8.77639000
H   -9.44673000   -3.68932000   8.84205000
H   -10.64298000   -2.90338000   6.09590000
H   -11.98586000   -3.66929000   8.77821000
C   -10.67365000   -1.46425000   7.73207000
C   -8.13741000   -1.47901000   7.80087000
C   -9.38630000   -0.72957000   7.28352000
C   -11.92041000   -0.71380000   7.21080000
H   -10.70541000   -1.48244000   8.84691000
H   -8.16710000   -1.50048000   8.91574000
H   -11.88640000   -0.69713000   6.09570000
H   -9.35497000   -0.71000000   6.16846000
C   -13.21593000   -1.44108000   7.65684000
C   -13.21474000   -2.90378000   7.14688000
C   -13.24135000   -5.85281000   7.60123000
C   -14.44389000   -0.66982000   7.13497000
C   -14.48388000   -3.65011000   7.59943000
C   -14.47881000   -5.09344000   7.08676000
H   -14.45739000   -0.66872000   6.02281000
H   -13.25760000   -1.45337000   8.77035000
H   -13.19468000   -2.89136000   6.03276000
H   -14.55970000   -3.65155000   8.70901000
H   -14.49988000   -5.09157000   5.97481000
H   -13.27612000   -5.86490000   8.71493000
C   -14.43619000   0.77533000   7.64553000
C   -13.15437000   1.49562000   7.21399000
C   -11.91625000   0.74716000   7.72957000
C   -10.63226000   1.47184000   7.29048000
C   -9.38879000   0.72888000   7.80568000
C   -8.10509000   1.45766000   7.36848000
H   -14.51765000   0.78285000   8.75373000
H   -11.95033000   0.74289000   8.84252000
H   -9.42222000   0.72201000   8.91855000
H   -13.13078000   1.56637000   6.10408000
H   -10.59807000   1.54063000   6.17966000
H   -8.07188000   1.53033000   6.25794000
C   -8.15426000   5.92726000   7.19099000
C   -9.43327000   5.19129000   7.65063000
C   -10.69011000   5.93889000   7.14089000
H   -8.13368000   5.94813000   6.07586000
C   -9.42646000   3.73233000   7.12983000
H   -9.45435000   5.17265000   8.76587000
C   -10.70070000   3.00296000   7.58543000
C   -11.95416000   3.74047000   7.08378000
C   -11.96842000   5.20186000   7.60113000
H   -9.40749000   3.73825000   6.01658000
H   -10.66811000   5.95661000   6.02578000
H   -11.98903000   5.18578000   8.71657000
H   -11.93371000   3.74407000   5.97046000
H   -10.72081000   2.93525000   8.69664000
C   -8.17202000   2.99102000   7.62693000
H   -8.18970000   2.92019000   8.73789000
C   -13.23283000   5.94229000   7.09187000
C   -13.22384000   3.00541000   7.53803000
C   -14.49299000   5.18421000   7.55270000
C   -14.47520000   3.73867000   7.04349000
H   -13.21961000   5.95429000   5.97762000
H   -14.56132000   5.18407000   8.66281000
H   -14.50195000   3.73111000   5.93261000
H   -13.25567000   2.93540000   8.64779000
C   -3.09879000   -5.86175000   7.66142000
C   -0.56028000   -5.87467000   7.71556000
C   -1.81568000   -5.12658000   7.20526000
H   -0.58329000   -5.89571000   8.83059000
H   -0.50792000   -2.91317000   6.16050000
C   -0.53508000   -2.93478000   7.27547000
C   -1.82024000   -3.66982000   7.72712000
H   -1.79093000   -5.10712000   6.09022000
C   -3.07258000   -2.92136000   7.21081000
C   -4.35971000   -3.65341000   7.66318000
C   -4.35480000   -5.11654000   7.14716000
H   -4.32745000   -5.10075000   6.03211000
H   -3.12386000   -5.87937000   8.77639000
H   -1.84773000   -3.68932000   8.84205000
H   -3.04398000   -2.90338000   6.09590000
H   -4.38686000   -3.66929000   8.77821000
C   -3.07465000   -1.46425000   7.73207000
C   -0.53841000   -1.47901000   7.80087000
C   -1.78730000   -0.72957000   7.28352000
C   -4.32141000   -0.71380000   7.21080000
H   -3.10641000   -1.48244000   8.84691000
H   -0.56810000   -1.50048000   8.91574000
H   -1.75597000   -0.71000000   6.16846000
C   -5.61693000   -1.44108000   7.65684000
C   -5.61574000   -2.90378000   7.14688000
C   -5.64235000   -5.85281000   7.60123000
C   -6.84489000   -0.66982000   7.13497000
C   -6.88488000   -3.65011000   7.59943000
C   -6.87981000   -5.09344000   7.08676000
H   -6.85839000   -0.66872000   6.02281000
H   -5.65860000   -1.45337000   8.77035000
H   -5.59568000   -2.89136000   6.03276000
H   -6.96070000   -3.65155000   8.70901000
H   -6.90088000   -5.09157000   5.97481000
H   -5.67712000   -5.86490000   8.71493000
C   -6.83719000   0.77533000   7.64553000
C   -5.55537000   1.49562000   7.21399000
C   -4.31725000   0.74716000   7.72957000
C   -3.03326000   1.47184000   7.29048000
C   -1.78979000   0.72888000   7.80568000
C   -0.50609000   1.45766000   7.36848000
H   -6.91865000   0.78285000   8.75373000
H   -4.35133000   0.74289000   8.84252000
H   -1.82322000   0.72201000   8.91855000
H   -5.53178000   1.56637000   6.10408000
H   -2.99907000   1.54063000   6.17966000
H   -0.47288000   1.53033000   6.25794000
C   -0.55526000   5.92726000   7.19099000
C   -1.83427000   5.19129000   7.65063000
C   -3.09111000   5.93889000   7.14089000
H   -0.53468000   5.94813000   6.07586000
C   -1.82746000   3.73233000   7.12983000
H   -1.85535000   5.17265000   8.76587000
C   -3.10170000   3.00296000   7.58543000
C   -4.35516000   3.74047000   7.08378000
C   -4.36942000   5.20186000   7.60113000
H   -1.80849000   3.73825000   6.01658000
H   -3.06911000   5.95661000   6.02578000
H   -4.39003000   5.18578000   8.71657000
H   -4.33471000   3.74407000   5.97046000
H   -3.12181000   2.93525000   8.69664000
C   -0.57302000   2.99102000   7.62693000
H   -0.59070000   2.92019000   8.73789000
C   -5.63383000   5.94229000   7.09187000
C   -5.62484000   3.00541000   7.53803000
C   -6.89399000   5.18421000   7.55270000
C   -6.87620000   3.73867000   7.04349000
H   -5.62061000   5.95429000   5.97762000
H   -6.96232000   5.18407000   8.66281000
H   -6.90295000   3.73111000   5.93261000
H   -5.65667000   2.93540000   8.64779000
C   4.50021000   -5.86175000   7.66142000
C   7.03872000   -5.87467000   7.71556000
C   5.78332000   -5.12658000   7.20526000
H   7.01571000   -5.89571000   8.83059000
H   7.09108000   -2.91317000   6.16050000
C   7.06392000   -2.93478000   7.27547000
C   5.77876000   -3.66982000   7.72712000
H   5.80807000   -5.10712000   6.09022000
C   4.52642000   -2.92136000   7.21081000
C   3.23929000   -3.65341000   7.66318000
C   3.24420000   -5.11654000   7.14716000
H   3.27155000   -5.10075000   6.03211000
H   4.47514000   -5.87937000   8.77639000
H   5.75127000   -3.68932000   8.84205000
H   4.55502000   -2.90338000   6.09590000
H   3.21214000   -3.66929000   8.77821000
C   4.52435000   -1.46425000   7.73207000
C   7.06059000   -1.47901000   7.80087000
C   5.81170000   -0.72957000   7.28352000
C   3.27759000   -0.71380000   7.21080000
H   4.49259000   -1.48244000   8.84691000
H   7.03090000   -1.50048000   8.91574000
H   3.31160000   -0.69713000   6.09570000
C   1.98207000   -1.44108000   7.65684000
C   1.98326000   -2.90378000   7.14688000
C   1.95665000   -5.85281000   7.60123000
C   0.75411000   -0.66982000   7.13497000
C   0.71412000   -3.65011000   7.59943000
C   0.71919000   -5.09344000   7.08676000
H   0.74061000   -0.66872000   6.02281000
H   1.94040000   -1.45337000   8.77035000
H   2.00332000   -2.89136000   6.03276000
H   0.63830000   -3.65155000   8.70901000
H   0.69812000   -5.09157000   5.97481000
H   1.92188000   -5.86490000   8.71493000
C   0.76181000   0.77533000   7.64553000
C   2.04363000   1.49562000   7.21399000
C   3.28175000   0.74716000   7.72957000
C   4.56574000   1.47184000   7.29048000
C   5.80921000   0.72888000   7.80568000
C   7.09291000   1.45766000   7.36848000
H   0.68035000   0.78285000   8.75373000
H   3.24767000   0.74289000   8.84252000
H   5.77578000   0.72201000   8.91855000
H   2.06722000   1.56637000   6.10408000
H   4.59993000   1.54063000   6.17966000
H   7.12612000   1.53033000   6.25794000
C   7.04374000   5.92726000   7.19099000
C   5.76473000   5.19129000   7.65063000
C   4.50789000   5.93889000   7.14089000
H   7.06432000   5.94813000   6.07586000
C   5.77154000   3.73233000   7.12983000
H   5.74365000   5.17265000   8.76587000
C   4.49730000   3.00296000   7.58543000
C   3.24384000   3.74047000   7.08378000
C   3.22958000   5.20186000   7.60113000
H   5.79051000   3.73825000   6.01658000
H   4.52989000   5.95661000   6.02578000
H   3.20897000   5.18578000   8.71657000
H   3.26429000   3.74407000   5.97046000
H   4.47719000   2.93525000   8.69664000
C   7.02598000   2.99102000   7.62693000
H   7.00830000   2.92019000   8.73789000
C   1.96517000   5.94229000   7.09187000
C   1.97416000   3.00541000   7.53803000
C   0.70501000   5.18421000   7.55270000
C   0.72280000   3.73867000   7.04349000
H   1.97839000   5.95429000   5.97762000
H   0.63668000   5.18407000   8.66281000
H   0.69605000   3.73111000   5.93261000
H   1.94233000   2.93540000   8.64779000
C   12.09921000   -5.86175000   7.66142000
C   14.63772000   -5.87467000   7.71556000
C   13.38232000   -5.12658000   7.20526000
H   14.61471000   -5.89571000   8.83059000
H   14.69008000   -2.91317000   6.16050000
C   14.66292000   -2.93478000   7.27547000
C   13.37776000   -3.66982000   7.72712000
H   13.40707000   -5.10712000   6.09022000
C   12.12542000   -2.92136000   7.21081000
C   10.83829000   -3.65341000   7.66318000
C   10.84320000   -5.11654000   7.14716000
H   10.87055000   -5.10075000   6.03211000
H   12.07414000   -5.87937000   8.77639000
H   13.35027000   -3.68932000   8.84205000
H   12.15402000   -2.90338000   6.09590000
H   10.81114000   -3.66929000   8.77821000
C   12.12335000   -1.46425000   7.73207000
C   14.65959000   -1.47901000   7.80087000
C   13.41070000   -0.72957000   7.28352000
C   10.87659000   -0.71380000   7.21080000
H   12.09159000   -1.48244000   8.84691000
H   14.62990000   -1.50048000   8.91574000
H   10.91060000   -0.69713000   6.09570000
H   13.44203000   -0.71000000   6.16846000
C   9.58107000   -1.44108000   7.65684000
C   9.58226000   -2.90378000   7.14688000
C   9.55565000   -5.85281000   7.60123000
C   8.35311000   -0.66982000   7.13497000
C   8.31312000   -3.65011000   7.59943000
C   8.31819000   -5.09344000   7.08676000
H   8.33961000   -0.66872000   6.02281000
H   9.53940000   -1.45337000   8.77035000
H   9.60232000   -2.89136000   6.03276000
H   8.23730000   -3.65155000   8.70901000
H   8.29712000   -5.09157000   5.97481000
H   9.52088000   -5.86490000   8.71493000
C   8.36081000   0.77533000   7.64553000
C   9.64263000   1.49562000   7.21399000
C   10.88075000   0.74716000   7.72957000
C   12.16474000   1.47184000   7.29048000
C   13.40821000   0.72888000   7.80568000
C   14.69191000   1.45766000   7.36848000
H   8.27935000   0.78285000   8.75373000
H   10.84667000   0.74289000   8.84252000
H   13.37478000   0.72201000   8.91855000
H   9.66622000   1.56637000   6.10408000
H   12.19893000   1.54063000   6.17966000
H   14.72512000   1.53033000   6.25794000
C   14.64274000   5.92726000   7.19099000
C   13.36373000   5.19129000   7.65063000
C   12.10689000   5.93889000   7.14089000
H   14.66332000   5.94813000   6.07586000
C   13.37054000   3.73233000   7.12983000
H   13.34265000   5.17265000   8.76587000
C   12.09630000   3.00296000   7.58543000
C   10.84284000   3.74047000   7.08378000
C   10.82858000   5.20186000   7.60113000
H   13.38951000   3.73825000   6.01658000
H   12.12889000   5.95661000   6.02578000
H   10.80797000   5.18578000   8.71657000
H   10.86329000   3.74407000   5.97046000
H   12.07619000   2.93525000   8.69664000
C   14.62498000   2.99102000   7.62693000
H   14.60730000   2.92019000   8.73789000
C   9.56417000   5.94229000   7.09187000
C   9.57316000   3.00541000   7.53803000
C   8.30401000   5.18421000   7.55270000
C   8.32180000   3.73867000   7.04349000
H   9.57739000   5.95429000   5.97762000
H   8.23568000   5.18407000   8.66281000
H   8.29505000   3.73111000   5.93261000
H   9.54133000   2.93540000   8.64779000
N   -2.87966713   0.94972147   -0.98333685
C   -2.66554148   0.47431336   0.51957878
H   -2.97691841   -0.57469366   0.45736402
H   -1.55791350   0.48019148   0.69553270
C   -3.37573758   1.17420040   1.62167449
H   -3.11194553   2.20135598   1.69842785
H   -4.42963962   1.25384091   1.35462166
C   -4.38042934   -0.57569955   5.52067508
H   -3.93227589   0.36611093   5.24334415
H   -5.42956944   -0.37242296   5.22319908
C   -3.81606348   -1.54632286   4.46103270
H   -2.74808495   -1.67965765   4.62322010
H   -4.28543894   -2.53627652   4.60661404
C   -3.92207493   -0.88859271   3.07272588
H   -5.01162045   -0.80705479   2.75078456
H   -3.42609770   -1.53400029   2.40291705
C   -3.20203349   0.44587405   2.98894338
H   -3.49222414   1.13670743   3.87483127
H   -2.11249882   0.25791875   3.12499325
C   -4.35770719   1.06665867   -1.30792632
H   -4.84388907   0.06556103   -1.08799157
H   -4.38053903   1.25014813   -2.39427288
H   -4.78540699   1.91126240   -0.70568229
C   -1.98824052   0.09033885   -1.86713630
H   -2.42342263   -0.87745023   -1.82665435
H   -1.03099771   0.01955317   -1.40680588
H   -1.85244729   0.52811632   -2.85853611
C   -2.32953998   2.33763605   -1.04483528
H   -2.67166429   2.91125512   -1.97625005
H   -1.23268154   2.19009499   -1.05100812
H   -2.70999333   2.94736182   -0.26580563
N   8.99407169   -3.59849886   -0.06080445
C   7.49565990   -3.20824615   0.30124050
H   7.19952668   -2.44664852   -0.47806993
H   6.88109321   -4.13342500   0.27721914
C   7.46002063   -2.49704448   1.70142757
H   7.90861988   -3.11287365   2.47826700
H   8.13187198   -1.63285534   1.70966789
C   5.86987904   -0.60911248   5.61460099
H   6.77091095   -0.07626485   5.39118594
H   5.06522246   0.03372084   5.40557661
C   5.64264051   -1.69528350   4.64891613
H   6.23014525   -2.59747408   4.71821174
H   4.57891698   -1.81214351   4.68979410
C   6.05098673   -1.15359110   3.25314337
H   7.00657511   -0.70008677   3.30217097
H   5.43643994   -0.19670251   3.15771868
C   5.97892382   -2.03603383   1.99468479
H   5.19391755   -2.85947211   2.05602279
H   5.63047325   -1.45634080   1.15910315
C   8.96995956   -3.85726906   -1.51996332
H   9.94799627   -4.24785043   -1.76299057
H   8.88634787   -2.89214279   -1.98026043
H   8.14057547   -4.53230762   -1.78598437
C   9.41575425   -4.97762402   0.54285327
H   9.20183547   -5.84923607   -0.08783974
H   8.86405695   -4.95700264   1.49841478
H   10.36698536   -4.98058675   1.03961953
C   9.99214630   -2.54375889   0.26767254
H   9.60075511   -1.60487442   -0.21271419
H   11.03973049   -2.86075287   0.05063515
H   10.13651972   -2.38120807   1.37138131
O   0.54044399   10.14940353   -3.56932870
H   -0.01962511   10.74801300   -4.16941450
H   -0.00277200   9.47701170   -3.12919748
O   -3.45314450   6.14025170   -1.11649396
H   -2.63481609   5.68223239   -0.73616226
H   -3.37612809   7.25212419   -0.95985411
O   -14.74470568   -4.50675211   -2.69150879
H   -14.03105953   -17.41102202   -2.28173066
H   -15.32749637   -3.92523715   -3.20183059
O   0.44360351   6.97179019   -1.09329052
H   -0.34649483   7.08950321   -1.61834919
H   1.20538479   7.34582135   -1.58674266
O   -6.94388250   5.20459651   -4.01739266
H   -6.00193151   5.50234230   -3.79847417
H   -7.48101608   5.14225745   -3.28268311
O   -26.18225119   -8.18018325   -0.19588657
H   -26.47402559   -7.24515295   -0.22228821
H   -25.70986545   -8.31612349   0.66495585
O   9.26483129   0.46912697   1.66022188
H   8.50112645   0.95661041   1.36999127
H   9.99264078   0.79427668   1.06099882
O   18.30560616   -5.48852472   -3.59116357
H   17.97482422   -6.05004935   -4.28307071
H   17.49131781   -5.18198067   -3.14249157
O   15.04686460   14.36238669   0.28295435
H   15.56852703   13.76949846   -0.19254508
H   14.21036543   14.54454375   -0.23104541
O   -30.96933881   -1.86977120   0.07349449
H   -30.80408420   -2.58562473   0.69720272
H   -30.01119093   -1.78252990   -0.18908448
O   14.46881945   -2.10452832   1.48171847
H   14.09231874   -1.60335777   2.17745618
H   15.37326254   -2.43245716   1.70755261
O   -1.95871134   9.71521144   2.02266272
H   -1.98638060   9.73478802   3.02248643
H   21.44966058   -12.17374746   -3.19930044
O   27.90615182   11.18753733   -3.98201980
H   27.09667254   11.24381816   -3.52371166
H   28.34124921   10.34381146   -3.78417519
O   11.14607859   13.39832971   -0.57177095
H   10.99124489   14.40580478   -0.66548657
H   11.88448032   13.30266494   0.08985833
O   -5.33308616   8.63551402   -2.87922189
H   -4.45331297   8.61423505   -2.51035722
H   -5.67802354   9.51007410   -2.72957701
O   14.74122601   -21.65344788   -1.92446871
H   14.28410096   -20.93265418   -2.38113657
H   14.24480299   -22.21347868   -1.31278868
O   20.99526644   18.50948377   3.04687318
H   20.31318707   19.14119561   3.05854687
H   21.85923322   18.94213034   3.12275406
O   6.89319054   -8.30547999   3.53755486
H   7.21765879   -8.96112817   2.90906749
H   7.51852757   -8.24621781   4.23893642
O   1.62369428   30.97251828   0.32342213
H   -8.43830630   21.48678184   -3.68249988
H   2.34375037   31.49977655   0.06173717
O   0.24795362   -11.66273315   0.64622671
H   -2.83921198   9.78583724   1.59411195
H   1.09563159   -11.11067301   0.62459589
O   -25.89160812   -18.54307716   0.85482693
H   -26.29529031   -17.65016464   0.90396351
H   -26.41971518   -19.04161026   1.48152466
O   22.30291760   3.37782651   1.08513787
H   23.07412595   3.79294931   0.79236727
H   21.88083311   4.03490281   1.72415760
O   8.14307902   -10.45004298   2.10728780
H   8.64672743   -10.61742426   2.94352107
H   8.80562065   -10.68784164   1.41346832
O   -29.77354622   8.52451628   1.26416433
H   -30.63502791   8.75027042   1.67787925
H   -30.07065741   8.04232739   0.42016667
O   21.32034387   13.44309026   3.51762714
H   20.77289690   12.75389559   3.76602640
H   21.01148969   14.13684881   4.12100160
O   2.61693947   -18.48920457   -2.63985625
H   3.14534899   -17.87338917   -2.18455051
H   2.00761018   -18.14856832   -3.26839228
O   20.10353063   24.94016400   1.70847805
H   20.54176652   24.67482376   0.89077748
H   23.85733300   7.43730092   -1.36326098
O   3.28708100   -3.94436037   3.42092729
H   19.19623122   25.00416220   1.44657744
H   3.60958525   -3.92006506   4.34736382
O   9.94272938   -37.58576806   0.13760351
H   12.14434545   -37.53997975   0.22536164
H   10.01829117   -36.66126630   -0.16775810
O   7.67425081   -25.25495478   -1.15743779
H   8.36585387   -24.91241716   -0.50548136
H   6.84140401   -24.83741944   -0.77067930
O   38.03791897   -22.15362853   -0.48808063
H   37.51218938   -21.67557995   0.13061781
H   38.39324826   -23.01443108   -0.07826991
O   25.13317247   8.42143548   3.54690671
H   23.53838289   13.25243523   1.68495198
H   26.05188885   8.12564805   3.58558516
O   15.75747670   3.46498879   1.64815078
H   15.80203779   3.19014749   0.68623367
H   16.12293085   2.66759074   2.05865710
O   16.79263657   -2.20868055   -2.10722895
H   17.70096733   -1.82540237   -2.34718861
H   16.23089455   -1.46178405   -1.96939104
O   12.29686997   -1.48641195   -2.87421520
H   11.75121288   -0.77320967   -2.47749176
H   11.72441924   -1.70593534   -3.64038950
O   19.31222032   -14.07794190   -1.17998125
H   19.82774931   -13.74804680   -1.91401027
H   19.20658665   -13.26828178   -0.62902795
O   23.28799611   33.06376814   2.07755215
H   23.79330200   33.64191150   2.67815906
H   23.07845533   33.53564190   1.24847666
O   -7.45538884   -1.59522979   -1.39568905
H   -8.27876204   -2.09364846   -1.31147725
H   -7.19385958   -1.51301596   -0.47671539
O   11.38520456   17.04117151   2.27020550
H   10.90761931   16.53086341   1.59344602
H   12.25818726   16.65488169   2.41022582
O   18.97543237   20.68454504   2.10411142
H   18.72995747   20.25053759   1.27775381
H   18.23610088   20.57447450   2.77208218
O   3.01150105   -2.77506476   0.75086851
H   3.71609728   -2.27853122   0.34217628
H   3.01721379   -2.95271749   1.66779429
O   -20.11734255   -6.50929805   -2.37898026
H   -19.19992743   -6.48788023   -2.16400473
H   -20.41056173   -7.43028224   -2.54814668
O   -13.73970504   3.23365491   -1.15370924
H   -13.32509793   2.51895013   -0.66176370
H   -13.53382035   3.09306095   -2.09664468
O   -9.00014747   -5.34405470   -2.93474924
H   -9.88131110   -5.42639219   -3.27694368
H   0.54458071   -12.34382397   0.00569206
O   23.99990755   6.66741206   -0.82765148
H   2.43865879   -4.34115820   3.34257727
H   24.95307928   6.39901949   -0.79421921
O   10.04024813   2.66928660   -2.76183224
H   9.18896670   2.27914293   -3.06995884
H   10.01753862   2.46283848   -1.80810855
O   12.57992639   2.56237895   -0.63500586
H   0.92487399   18.20458965   0.14126760
H   11.81881000   2.82676259   -1.13742200
O   -0.82277072   18.87696680   0.81044797
H   -0.51233915   19.66435953   0.36390915
H   -0.68887133   32.24013100   1.74323241
O   -28.46385601   0.56649666   -1.28459535
H   -27.75712854   0.23147191   -0.65529995
H   -28.14404338   0.45869808   -2.18935141
O   34.89764102   1.35700587   -0.22234321
H   34.98905786   2.18306835   -0.75855128
H   34.73381638   1.68501758   0.62380036
O   -11.88130162   15.41858785   0.83735507
H   -12.02296268   16.31968018   0.99937078
H   -10.99200088   15.28736100   1.05498287
O   -4.10809498   -7.16439273   -3.68706888
H   26.58055601   -7.09981405   -2.74279492
H   26.19999588   7.11471773   -3.99532350
O   -21.63915455   -18.30492610   3.60397692
H   -22.49216307   -5.27273943   3.77468907
H   -20.97157493   -5.58426268   3.40402730
O   21.23174203   0.95885905   0.67161419
H   20.89168349   0.25859626   1.18717746
H   21.76124344   1.58117916   1.27057959
O   5.29246634   2.80438096   2.60467916
H   6.23496827   2.69623284   2.46199301
H   5.05271066   3.50764129   3.15029551
O   9.33432696   -14.72074248   -3.22852361
H   9.44075483   -13.87316926   -2.87661384
H   8.42451243   -14.71474372   -3.51815371
O   18.86687855   -34.81553563   -0.55218913
H   18.76391134   -33.89856644   -0.76644642
H   18.14308641   -35.33057693   -0.91017431
O   2.50638050   6.81299819   2.61530378
H   2.13662318   7.28417612   1.83033706
H   2.14936277   5.88745220   2.61344546
O   25.61589671   3.48955462   -3.21643807
H   24.88118319   3.57596048   -3.83963834
H   25.96339618   4.37439310   -3.24867444
O   13.03177571   -32.48954817   -2.05037684
H   13.45279670   -32.04742606   -2.78679017
H   13.68341179   -32.65907060   -1.34044319
O   31.43993841   -22.87218437   3.13013186
H   31.23255818   -22.93286730   2.23669068
H   30.95746714   -23.59412922   3.53495516
O   16.70999709   19.36931914   3.19531071
H   16.41224447   18.71683279   2.54278930
H   16.32492975   19.22240295   4.06940745
O   13.35856453   -9.53368089   -4.17308473
H   12.55114479   -9.48950982   -3.68911092
H   14.09054041   -9.60603846   -3.56127359
O   24.11230634   13.33292474   0.90160226
H   14.15465095   -11.27683158   2.92433240
H   23.51008157   13.67021806   0.27267418
O   5.92916251   25.98953755   -0.92620939
H   6.75605967   26.50708012   -0.95958805
H   5.22798224   26.59807157   -1.18159002
O   -14.80784629   0.85213115   -2.49481173
H   -14.52400368   1.25030102   -3.34436608
H   -15.42532945   0.17491150   -2.90819465
O   -3.26885475   -18.12802995   -0.84979415
H   -1.24162808   -6.30592212   -3.12661148
H   -2.48711461   -17.93329230   -0.27579932
O   -5.26606938   -9.41788705   -0.07480526
H   -5.44679904   -9.50935915   -1.01340409
H   -4.65623492   -8.64986697   -0.06602494
O   26.23579858   -15.58029024   -1.43989254
H   26.33559530   -16.48991586   -1.06944263
H   25.30946810   -15.36073681   -1.68468360
O   -5.24526968   8.91242072   0.89043812
H   -5.62780530   8.01388261   0.72997428
H   -4.56765165   8.90840848   0.10576925
O   21.54250864   -23.90117316   -1.64632260
H   21.95904265   -24.19841875   -0.82152203
H   20.64658935   -23.52872485   -1.46306154
O   -19.84946115   6.32087307   2.53660003
H   -18.89151025   6.34965590   2.66958256
H   -19.92656890   5.45842616   2.16554843
O   -1.40213998   34.76413468   -2.80575757
H   -5.20271980   8.91942182   2.71266273
H   -2.23768541   34.68983702   -2.34781701
O   21.50352389   -13.15127187   -3.43698401
H   22.31389148   -13.59525874   -3.11999063
O   13.38326527   -11.87416019   2.94576168
H   13.70777201   -12.44134606   2.23262827
