859

C   -10.69779000   -5.86175000   -7.33858000
C   -8.15928000   -5.87467000   -7.28444000
C   -9.41468000   -5.12658000   -7.79474000
H   -8.18229000   -5.89571000   -6.16941000
H   -8.10692000   -2.91317000   -8.83950000
C   -8.13408000   -2.93478000   -7.72453000
C   -9.41924000   -3.66982000   -7.27288000
H   -9.38993000   -5.10712000   -8.90978000
C   -10.67158000   -2.92136000   -7.78919000
C   -11.95871000   -3.65341000   -7.33682000
C   -11.95380000   -5.11654000   -7.85284000
H   -11.92645000   -5.10075000   -8.96789000
H   -10.72286000   -5.87937000   -6.22361000
H   -9.44673000   -3.68932000   -6.15795000
H   -10.64298000   -2.90338000   -8.90410000
H   -11.98586000   -3.66929000   -6.22179000
C   -10.67365000   -1.46425000   -7.26793000
C   -8.13741000   -1.47901000   -7.19913000
C   -9.38630000   -0.72957000   -7.71648000
C   -11.92041000   -0.71380000   -7.78920000
H   -10.70541000   -1.48244000   -6.15309000
H   -8.16710000   -1.50048000   -6.08426000
H   -11.88640000   -0.69713000   -8.90430000
H   -9.35497000   -0.71000000   -8.83154000
C   -13.21593000   -1.44108000   -7.34316000
C   -13.21474000   -2.90378000   -7.85312000
C   -13.24135000   -5.85281000   -7.39877000
C   -14.44389000   -0.66982000   -7.86503000
C   -14.48388000   -3.65011000   -7.40057000
C   -14.47881000   -5.09344000   -7.91324000
H   -14.45739000   -0.66872000   -8.97719000
H   -13.25760000   -1.45337000   -6.22965000
H   -13.19468000   -2.89136000   -8.96724000
H   -14.55970000   -3.65155000   -6.29099000
H   -14.49988000   -5.09157000   -9.02519000
H   -13.27612000   -5.86490000   -6.28507000
C   -14.43619000   0.77533000   -7.35447000
C   -13.15437000   1.49562000   -7.78601000
C   -11.91625000   0.74716000   -7.27043000
C   -10.63226000   1.47184000   -7.70952000
C   -9.38879000   0.72888000   -7.19432000
C   -8.10509000   1.45766000   -7.63152000
H   -14.51765000   0.78285000   -6.24627000
H   -11.95033000   0.74289000   -6.15748000
H   -9.42222000   0.72201000   -6.08145000
H   -13.13078000   1.56637000   -8.89592000
H   -10.59807000   1.54063000   -8.82034000
H   -8.07188000   1.53033000   -8.74206000
C   -8.15426000   5.92726000   -7.80901000
C   -9.43327000   5.19129000   -7.34937000
C   -10.69011000   5.93889000   -7.85911000
H   -8.13368000   5.94813000   -8.92414000
C   -9.42646000   3.73233000   -7.87017000
H   -9.45435000   5.17265000   -6.23413000
C   -10.70070000   3.00296000   -7.41457000
C   -11.95416000   3.74047000   -7.91622000
C   -11.96842000   5.20186000   -7.39887000
H   -9.40749000   3.73825000   -8.98342000
H   -10.66811000   5.95661000   -8.97422000
H   -11.98903000   5.18578000   -6.28343000
H   -11.93371000   3.74407000   -9.02954000
H   -10.72081000   2.93525000   -6.30336000
C   -8.17202000   2.99102000   -7.37307000
H   -8.18970000   2.92019000   -6.26211000
C   -13.23283000   5.94229000   -7.90813000
C   -13.22384000   3.00541000   -7.46197000
C   -14.49299000   5.18421000   -7.44730000
C   -14.47520000   3.73867000   -7.95651000
H   -13.21961000   5.95429000   -9.02238000
H   -14.56132000   5.18407000   -6.33719000
H   -14.50195000   3.73111000   -9.06739000
H   -13.25567000   2.93540000   -6.35221000
C   -3.09879000   -5.86175000   -7.33858000
C   -0.56028000   -5.87467000   -7.28444000
C   -1.81568000   -5.12658000   -7.79474000
H   -0.58329000   -5.89571000   -6.16941000
H   -0.50792000   -2.91317000   -8.83950000
C   -0.53508000   -2.93478000   -7.72453000
C   -1.82024000   -3.66982000   -7.27288000
H   -1.79093000   -5.10712000   -8.90978000
C   -3.07258000   -2.92136000   -7.78919000
C   -4.35971000   -3.65341000   -7.33682000
C   -4.35480000   -5.11654000   -7.85284000
H   -4.32745000   -5.10075000   -8.96789000
H   -3.12386000   -5.87937000   -6.22361000
H   -1.84773000   -3.68932000   -6.15795000
H   -3.04398000   -2.90338000   -8.90410000
H   -4.38686000   -3.66929000   -6.22179000
C   -3.07465000   -1.46425000   -7.26793000
C   -0.53841000   -1.47901000   -7.19913000
C   -1.78730000   -0.72957000   -7.71648000
C   -4.32141000   -0.71380000   -7.78920000
H   -3.10641000   -1.48244000   -6.15309000
H   -0.56810000   -1.50048000   -6.08426000
H   -4.28740000   -0.69713000   -8.90430000
H   -1.75597000   -0.71000000   -8.83154000
C   -5.61693000   -1.44108000   -7.34316000
C   -5.61574000   -2.90378000   -7.85312000
C   -5.64235000   -5.85281000   -7.39877000
C   -6.84489000   -0.66982000   -7.86503000
C   -6.88488000   -3.65011000   -7.40057000
C   -6.87981000   -5.09344000   -7.91324000
H   -6.85839000   -0.66872000   -8.97719000
H   -5.65860000   -1.45337000   -6.22965000
H   -5.59568000   -2.89136000   -8.96724000
H   -6.96070000   -3.65155000   -6.29099000
H   -6.90088000   -5.09157000   -9.02519000
H   -5.67712000   -5.86490000   -6.28507000
C   -6.83719000   0.77533000   -7.35447000
C   -5.55537000   1.49562000   -7.78601000
C   -4.31725000   0.74716000   -7.27043000
C   -3.03326000   1.47184000   -7.70952000
C   -1.78979000   0.72888000   -7.19432000
C   -0.50609000   1.45766000   -7.63152000
H   -6.91865000   0.78285000   -6.24627000
H   -4.35133000   0.74289000   -6.15748000
H   -1.82322000   0.72201000   -6.08145000
H   -5.53178000   1.56637000   -8.89592000
H   -2.99907000   1.54063000   -8.82034000
H   -0.47288000   1.53033000   -8.74206000
C   -0.55526000   5.92726000   -7.80901000
C   -1.83427000   5.19129000   -7.34937000
C   -3.09111000   5.93889000   -7.85911000
H   -0.53468000   5.94813000   -8.92414000
C   -1.82746000   3.73233000   -7.87017000
H   -1.85535000   5.17265000   -6.23413000
C   -3.10170000   3.00296000   -7.41457000
C   -4.35516000   3.74047000   -7.91622000
C   -4.36942000   5.20186000   -7.39887000
H   -1.80849000   3.73825000   -8.98342000
H   -3.06911000   5.95661000   -8.97422000
H   -4.39003000   5.18578000   -6.28343000
H   -4.33471000   3.74407000   -9.02954000
H   -3.12181000   2.93525000   -6.30336000
C   -0.57302000   2.99102000   -7.37307000
H   -0.59070000   2.92019000   -6.26211000
C   -5.63383000   5.94229000   -7.90813000
C   -5.62484000   3.00541000   -7.46197000
C   -6.89399000   5.18421000   -7.44730000
C   -6.87620000   3.73867000   -7.95651000
H   -5.62061000   5.95429000   -9.02238000
H   -6.96232000   5.18407000   -6.33719000
H   -6.90295000   3.73111000   -9.06739000
H   -5.65667000   2.93540000   -6.35221000
C   4.50021000   -5.86175000   -7.33858000
C   7.03872000   -5.87467000   -7.28444000
C   5.78332000   -5.12658000   -7.79474000
H   7.01571000   -5.89571000   -6.16941000
H   7.09108000   -2.91317000   -8.83950000
C   7.06392000   -2.93478000   -7.72453000
C   5.77876000   -3.66982000   -7.27288000
H   5.80807000   -5.10712000   -8.90978000
C   4.52642000   -2.92136000   -7.78919000
C   3.23929000   -3.65341000   -7.33682000
C   3.24420000   -5.11654000   -7.85284000
H   3.27155000   -5.10075000   -8.96789000
H   4.47514000   -5.87937000   -6.22361000
H   5.75127000   -3.68932000   -6.15795000
H   4.55502000   -2.90338000   -8.90410000
H   3.21214000   -3.66929000   -6.22179000
C   4.52435000   -1.46425000   -7.26793000
C   7.06059000   -1.47901000   -7.19913000
C   5.81170000   -0.72957000   -7.71648000
C   3.27759000   -0.71380000   -7.78920000
H   4.49259000   -1.48244000   -6.15309000
H   7.03090000   -1.50048000   -6.08426000
H   3.31160000   -0.69713000   -8.90430000
H   5.84303000   -0.71000000   -8.83154000
C   1.98207000   -1.44108000   -7.34316000
C   1.98326000   -2.90378000   -7.85312000
C   1.95665000   -5.85281000   -7.39877000
C   0.75411000   -0.66982000   -7.86503000
C   0.71412000   -3.65011000   -7.40057000
C   0.71919000   -5.09344000   -7.91324000
H   0.74061000   -0.66872000   -8.97719000
H   1.94040000   -1.45337000   -6.22965000
H   2.00332000   -2.89136000   -8.96724000
H   0.63830000   -3.65155000   -6.29099000
H   0.69812000   -5.09157000   -9.02519000
H   1.92188000   -5.86490000   -6.28507000
C   0.76181000   0.77533000   -7.35447000
C   2.04363000   1.49562000   -7.78601000
C   3.28175000   0.74716000   -7.27043000
C   4.56574000   1.47184000   -7.70952000
C   5.80921000   0.72888000   -7.19432000
C   7.09291000   1.45766000   -7.63152000
H   0.68035000   0.78285000   -6.24627000
H   3.24767000   0.74289000   -6.15748000
H   5.77578000   0.72201000   -6.08145000
H   2.06722000   1.56637000   -8.89592000
H   4.59993000   1.54063000   -8.82034000
H   7.12612000   1.53033000   -8.74206000
C   7.04374000   5.92726000   -7.80901000
C   5.76473000   5.19129000   -7.34937000
C   4.50789000   5.93889000   -7.85911000
H   7.06432000   5.94813000   -8.92414000
C   5.77154000   3.73233000   -7.87017000
H   5.74365000   5.17265000   -6.23413000
C   4.49730000   3.00296000   -7.41457000
C   3.24384000   3.74047000   -7.91622000
C   3.22958000   5.20186000   -7.39887000
H   5.79051000   3.73825000   -8.98342000
H   4.52989000   5.95661000   -8.97422000
H   3.20897000   5.18578000   -6.28343000
H   3.26429000   3.74407000   -9.02954000
H   4.47719000   2.93525000   -6.30336000
C   7.02598000   2.99102000   -7.37307000
H   7.00830000   2.92019000   -6.26211000
C   1.96517000   5.94229000   -7.90813000
C   1.97416000   3.00541000   -7.46197000
C   0.70501000   5.18421000   -7.44730000
C   0.72280000   3.73867000   -7.95651000
H   1.97839000   5.95429000   -9.02238000
H   0.63668000   5.18407000   -6.33719000
H   0.69605000   3.73111000   -9.06739000
H   1.94233000   2.93540000   -6.35221000
C   12.09921000   -5.86175000   -7.33858000
C   14.63772000   -5.87467000   -7.28444000
C   13.38232000   -5.12658000   -7.79474000
H   14.61471000   -5.89571000   -6.16941000
H   14.69008000   -2.91317000   -8.83950000
C   14.66292000   -2.93478000   -7.72453000
C   13.37776000   -3.66982000   -7.27288000
H   13.40707000   -5.10712000   -8.90978000
C   12.12542000   -2.92136000   -7.78919000
C   10.83829000   -3.65341000   -7.33682000
C   10.84320000   -5.11654000   -7.85284000
H   10.87055000   -5.10075000   -8.96789000
H   12.07414000   -5.87937000   -6.22361000
H   13.35027000   -3.68932000   -6.15795000
H   12.15402000   -2.90338000   -8.90410000
H   10.81114000   -3.66929000   -6.22179000
C   12.12335000   -1.46425000   -7.26793000
C   14.65959000   -1.47901000   -7.19913000
C   13.41070000   -0.72957000   -7.71648000
C   10.87659000   -0.71380000   -7.78920000
H   12.09159000   -1.48244000   -6.15309000
H   14.62990000   -1.50048000   -6.08426000
H   10.91060000   -0.69713000   -8.90430000
H   13.44203000   -0.71000000   -8.83154000
C   9.58107000   -1.44108000   -7.34316000
C   9.58226000   -2.90378000   -7.85312000
C   9.55565000   -5.85281000   -7.39877000
C   8.35311000   -0.66982000   -7.86503000
C   8.31312000   -3.65011000   -7.40057000
C   8.31819000   -5.09344000   -7.91324000
H   8.33961000   -0.66872000   -8.97719000
H   9.53940000   -1.45337000   -6.22965000
H   9.60232000   -2.89136000   -8.96724000
H   8.23730000   -3.65155000   -6.29099000
H   8.29712000   -5.09157000   -9.02519000
H   9.52088000   -5.86490000   -6.28507000
C   8.36081000   0.77533000   -7.35447000
C   9.64263000   1.49562000   -7.78601000
C   10.88075000   0.74716000   -7.27043000
C   12.16474000   1.47184000   -7.70952000
C   13.40821000   0.72888000   -7.19432000
C   14.69191000   1.45766000   -7.63152000
H   8.27935000   0.78285000   -6.24627000
H   10.84667000   0.74289000   -6.15748000
H   13.37478000   0.72201000   -6.08145000
H   9.66622000   1.56637000   -8.89592000
H   12.19893000   1.54063000   -8.82034000
H   14.72512000   1.53033000   -8.74206000
C   14.64274000   5.92726000   -7.80901000
C   13.36373000   5.19129000   -7.34937000
C   12.10689000   5.93889000   -7.85911000
H   14.66332000   5.94813000   -8.92414000
C   13.37054000   3.73233000   -7.87017000
H   13.34265000   5.17265000   -6.23413000
C   12.09630000   3.00296000   -7.41457000
C   10.84284000   3.74047000   -7.91622000
C   10.82858000   5.20186000   -7.39887000
H   13.38951000   3.73825000   -8.98342000
H   12.12889000   5.95661000   -8.97422000
H   10.80797000   5.18578000   -6.28343000
H   10.86329000   3.74407000   -9.02954000
H   12.07619000   2.93525000   -6.30336000
C   14.62498000   2.99102000   -7.37307000
H   14.60730000   2.92019000   -6.26211000
C   9.56417000   5.94229000   -7.90813000
C   9.57316000   3.00541000   -7.46197000
C   8.30401000   5.18421000   -7.44730000
C   8.32180000   3.73867000   -7.95651000
H   9.57739000   5.95429000   -9.02238000
H   8.23568000   5.18407000   -6.33719000
H   8.29505000   3.73111000   -9.06739000
H   9.54133000   2.93540000   -6.35221000
C   -10.69779000   -5.86175000   7.66142000
C   -8.15928000   -5.87467000   7.71556000
C   -9.41468000   -5.12658000   7.20526000
H   -8.18229000   -5.89571000   8.83059000
H   -8.10692000   -2.91317000   6.16050000
C   -8.13408000   -2.93478000   7.27547000
C   -9.41924000   -3.66982000   7.72712000
H   -9.38993000   -5.10712000   6.09022000
C   -10.67158000   -2.92136000   7.21081000
C   -11.95871000   -3.65341000   7.66318000
C   -11.95380000   -5.11654000   7.14716000
H   -11.92645000   -5.10075000   6.03211000
H   -10.72286000   -5.87937000   8.77639000
H   -9.44673000   -3.68932000   8.84205000
H   -10.64298000   -2.90338000   6.09590000
H   -11.98586000   -3.66929000   8.77821000
C   -10.67365000   -1.46425000   7.73207000
C   -8.13741000   -1.47901000   7.80087000
C   -9.38630000   -0.72957000   7.28352000
C   -11.92041000   -0.71380000   7.21080000
H   -10.70541000   -1.48244000   8.84691000
H   -8.16710000   -1.50048000   8.91574000
H   -11.88640000   -0.69713000   6.09570000
H   -9.35497000   -0.71000000   6.16846000
C   -13.21593000   -1.44108000   7.65684000
C   -13.21474000   -2.90378000   7.14688000
C   -13.24135000   -5.85281000   7.60123000
C   -14.44389000   -0.66982000   7.13497000
C   -14.48388000   -3.65011000   7.59943000
C   -14.47881000   -5.09344000   7.08676000
H   -14.45739000   -0.66872000   6.02281000
H   -13.25760000   -1.45337000   8.77035000
H   -13.19468000   -2.89136000   6.03276000
H   -14.55970000   -3.65155000   8.70901000
H   -14.49988000   -5.09157000   5.97481000
H   -13.27612000   -5.86490000   8.71493000
C   -14.43619000   0.77533000   7.64553000
C   -13.15437000   1.49562000   7.21399000
C   -11.91625000   0.74716000   7.72957000
C   -10.63226000   1.47184000   7.29048000
C   -9.38879000   0.72888000   7.80568000
C   -8.10509000   1.45766000   7.36848000
H   -14.51765000   0.78285000   8.75373000
H   -11.95033000   0.74289000   8.84252000
H   -9.42222000   0.72201000   8.91855000
H   -13.13078000   1.56637000   6.10408000
H   -10.59807000   1.54063000   6.17966000
H   -8.07188000   1.53033000   6.25794000
C   -8.15426000   5.92726000   7.19099000
C   -9.43327000   5.19129000   7.65063000
C   -10.69011000   5.93889000   7.14089000
H   -8.13368000   5.94813000   6.07586000
C   -9.42646000   3.73233000   7.12983000
H   -9.45435000   5.17265000   8.76587000
C   -10.70070000   3.00296000   7.58543000
C   -11.95416000   3.74047000   7.08378000
C   -11.96842000   5.20186000   7.60113000
H   -9.40749000   3.73825000   6.01658000
H   -10.66811000   5.95661000   6.02578000
H   -11.98903000   5.18578000   8.71657000
H   -11.93371000   3.74407000   5.97046000
H   -10.72081000   2.93525000   8.69664000
C   -8.17202000   2.99102000   7.62693000
H   -8.18970000   2.92019000   8.73789000
C   -13.23283000   5.94229000   7.09187000
C   -13.22384000   3.00541000   7.53803000
C   -14.49299000   5.18421000   7.55270000
C   -14.47520000   3.73867000   7.04349000
H   -13.21961000   5.95429000   5.97762000
H   -14.56132000   5.18407000   8.66281000
H   -14.50195000   3.73111000   5.93261000
H   -13.25567000   2.93540000   8.64779000
C   -3.09879000   -5.86175000   7.66142000
C   -0.56028000   -5.87467000   7.71556000
C   -1.81568000   -5.12658000   7.20526000
H   -0.58329000   -5.89571000   8.83059000
H   -0.50792000   -2.91317000   6.16050000
C   -0.53508000   -2.93478000   7.27547000
C   -1.82024000   -3.66982000   7.72712000
H   -1.79093000   -5.10712000   6.09022000
C   -3.07258000   -2.92136000   7.21081000
C   -4.35971000   -3.65341000   7.66318000
C   -4.35480000   -5.11654000   7.14716000
H   -4.32745000   -5.10075000   6.03211000
H   -3.12386000   -5.87937000   8.77639000
H   -1.84773000   -3.68932000   8.84205000
H   -3.04398000   -2.90338000   6.09590000
H   -4.38686000   -3.66929000   8.77821000
C   -3.07465000   -1.46425000   7.73207000
C   -0.53841000   -1.47901000   7.80087000
C   -1.78730000   -0.72957000   7.28352000
C   -4.32141000   -0.71380000   7.21080000
H   -3.10641000   -1.48244000   8.84691000
H   -0.56810000   -1.50048000   8.91574000
H   -1.75597000   -0.71000000   6.16846000
C   -5.61693000   -1.44108000   7.65684000
C   -5.61574000   -2.90378000   7.14688000
C   -5.64235000   -5.85281000   7.60123000
C   -6.84489000   -0.66982000   7.13497000
C   -6.88488000   -3.65011000   7.59943000
C   -6.87981000   -5.09344000   7.08676000
H   -6.85839000   -0.66872000   6.02281000
H   -5.65860000   -1.45337000   8.77035000
H   -5.59568000   -2.89136000   6.03276000
H   -6.96070000   -3.65155000   8.70901000
H   -6.90088000   -5.09157000   5.97481000
H   -5.67712000   -5.86490000   8.71493000
C   -6.83719000   0.77533000   7.64553000
C   -5.55537000   1.49562000   7.21399000
C   -4.31725000   0.74716000   7.72957000
C   -3.03326000   1.47184000   7.29048000
C   -1.78979000   0.72888000   7.80568000
C   -0.50609000   1.45766000   7.36848000
H   -6.91865000   0.78285000   8.75373000
H   -4.35133000   0.74289000   8.84252000
H   -1.82322000   0.72201000   8.91855000
H   -5.53178000   1.56637000   6.10408000
H   -2.99907000   1.54063000   6.17966000
H   -0.47288000   1.53033000   6.25794000
C   -0.55526000   5.92726000   7.19099000
C   -1.83427000   5.19129000   7.65063000
C   -3.09111000   5.93889000   7.14089000
H   -0.53468000   5.94813000   6.07586000
C   -1.82746000   3.73233000   7.12983000
H   -1.85535000   5.17265000   8.76587000
C   -3.10170000   3.00296000   7.58543000
C   -4.35516000   3.74047000   7.08378000
C   -4.36942000   5.20186000   7.60113000
H   -1.80849000   3.73825000   6.01658000
H   -3.06911000   5.95661000   6.02578000
H   -4.39003000   5.18578000   8.71657000
H   -4.33471000   3.74407000   5.97046000
H   -3.12181000   2.93525000   8.69664000
C   -0.57302000   2.99102000   7.62693000
H   -0.59070000   2.92019000   8.73789000
C   -5.63383000   5.94229000   7.09187000
C   -5.62484000   3.00541000   7.53803000
C   -6.89399000   5.18421000   7.55270000
C   -6.87620000   3.73867000   7.04349000
H   -5.62061000   5.95429000   5.97762000
H   -6.96232000   5.18407000   8.66281000
H   -6.90295000   3.73111000   5.93261000
H   -5.65667000   2.93540000   8.64779000
C   4.50021000   -5.86175000   7.66142000
C   7.03872000   -5.87467000   7.71556000
C   5.78332000   -5.12658000   7.20526000
H   7.01571000   -5.89571000   8.83059000
H   7.09108000   -2.91317000   6.16050000
C   7.06392000   -2.93478000   7.27547000
C   5.77876000   -3.66982000   7.72712000
H   5.80807000   -5.10712000   6.09022000
C   4.52642000   -2.92136000   7.21081000
C   3.23929000   -3.65341000   7.66318000
C   3.24420000   -5.11654000   7.14716000
H   3.27155000   -5.10075000   6.03211000
H   4.47514000   -5.87937000   8.77639000
H   5.75127000   -3.68932000   8.84205000
H   4.55502000   -2.90338000   6.09590000
H   3.21214000   -3.66929000   8.77821000
C   4.52435000   -1.46425000   7.73207000
C   7.06059000   -1.47901000   7.80087000
C   5.81170000   -0.72957000   7.28352000
C   3.27759000   -0.71380000   7.21080000
H   4.49259000   -1.48244000   8.84691000
H   7.03090000   -1.50048000   8.91574000
H   3.31160000   -0.69713000   6.09570000
C   1.98207000   -1.44108000   7.65684000
C   1.98326000   -2.90378000   7.14688000
C   1.95665000   -5.85281000   7.60123000
C   0.75411000   -0.66982000   7.13497000
C   0.71412000   -3.65011000   7.59943000
C   0.71919000   -5.09344000   7.08676000
H   0.74061000   -0.66872000   6.02281000
H   1.94040000   -1.45337000   8.77035000
H   2.00332000   -2.89136000   6.03276000
H   0.63830000   -3.65155000   8.70901000
H   0.69812000   -5.09157000   5.97481000
H   1.92188000   -5.86490000   8.71493000
C   0.76181000   0.77533000   7.64553000
C   2.04363000   1.49562000   7.21399000
C   3.28175000   0.74716000   7.72957000
C   4.56574000   1.47184000   7.29048000
C   5.80921000   0.72888000   7.80568000
C   7.09291000   1.45766000   7.36848000
H   0.68035000   0.78285000   8.75373000
H   3.24767000   0.74289000   8.84252000
H   5.77578000   0.72201000   8.91855000
H   2.06722000   1.56637000   6.10408000
H   4.59993000   1.54063000   6.17966000
H   7.12612000   1.53033000   6.25794000
C   7.04374000   5.92726000   7.19099000
C   5.76473000   5.19129000   7.65063000
C   4.50789000   5.93889000   7.14089000
H   7.06432000   5.94813000   6.07586000
C   5.77154000   3.73233000   7.12983000
H   5.74365000   5.17265000   8.76587000
C   4.49730000   3.00296000   7.58543000
C   3.24384000   3.74047000   7.08378000
C   3.22958000   5.20186000   7.60113000
H   5.79051000   3.73825000   6.01658000
H   4.52989000   5.95661000   6.02578000
H   3.20897000   5.18578000   8.71657000
H   3.26429000   3.74407000   5.97046000
H   4.47719000   2.93525000   8.69664000
C   7.02598000   2.99102000   7.62693000
H   7.00830000   2.92019000   8.73789000
C   1.96517000   5.94229000   7.09187000
C   1.97416000   3.00541000   7.53803000
C   0.70501000   5.18421000   7.55270000
C   0.72280000   3.73867000   7.04349000
H   1.97839000   5.95429000   5.97762000
H   0.63668000   5.18407000   8.66281000
H   0.69605000   3.73111000   5.93261000
H   1.94233000   2.93540000   8.64779000
C   12.09921000   -5.86175000   7.66142000
C   14.63772000   -5.87467000   7.71556000
C   13.38232000   -5.12658000   7.20526000
H   14.61471000   -5.89571000   8.83059000
H   14.69008000   -2.91317000   6.16050000
C   14.66292000   -2.93478000   7.27547000
C   13.37776000   -3.66982000   7.72712000
H   13.40707000   -5.10712000   6.09022000
C   12.12542000   -2.92136000   7.21081000
C   10.83829000   -3.65341000   7.66318000
C   10.84320000   -5.11654000   7.14716000
H   10.87055000   -5.10075000   6.03211000
H   12.07414000   -5.87937000   8.77639000
H   13.35027000   -3.68932000   8.84205000
H   12.15402000   -2.90338000   6.09590000
H   10.81114000   -3.66929000   8.77821000
C   12.12335000   -1.46425000   7.73207000
C   14.65959000   -1.47901000   7.80087000
C   13.41070000   -0.72957000   7.28352000
C   10.87659000   -0.71380000   7.21080000
H   12.09159000   -1.48244000   8.84691000
H   14.62990000   -1.50048000   8.91574000
H   10.91060000   -0.69713000   6.09570000
H   13.44203000   -0.71000000   6.16846000
C   9.58107000   -1.44108000   7.65684000
C   9.58226000   -2.90378000   7.14688000
C   9.55565000   -5.85281000   7.60123000
C   8.35311000   -0.66982000   7.13497000
C   8.31312000   -3.65011000   7.59943000
C   8.31819000   -5.09344000   7.08676000
H   8.33961000   -0.66872000   6.02281000
H   9.53940000   -1.45337000   8.77035000
H   9.60232000   -2.89136000   6.03276000
H   8.23730000   -3.65155000   8.70901000
H   8.29712000   -5.09157000   5.97481000
H   9.52088000   -5.86490000   8.71493000
C   8.36081000   0.77533000   7.64553000
C   9.64263000   1.49562000   7.21399000
C   10.88075000   0.74716000   7.72957000
C   12.16474000   1.47184000   7.29048000
C   13.40821000   0.72888000   7.80568000
C   14.69191000   1.45766000   7.36848000
H   8.27935000   0.78285000   8.75373000
H   10.84667000   0.74289000   8.84252000
H   13.37478000   0.72201000   8.91855000
H   9.66622000   1.56637000   6.10408000
H   12.19893000   1.54063000   6.17966000
H   14.72512000   1.53033000   6.25794000
C   14.64274000   5.92726000   7.19099000
C   13.36373000   5.19129000   7.65063000
C   12.10689000   5.93889000   7.14089000
H   14.66332000   5.94813000   6.07586000
C   13.37054000   3.73233000   7.12983000
H   13.34265000   5.17265000   8.76587000
C   12.09630000   3.00296000   7.58543000
C   10.84284000   3.74047000   7.08378000
C   10.82858000   5.20186000   7.60113000
H   13.38951000   3.73825000   6.01658000
H   12.12889000   5.95661000   6.02578000
H   10.80797000   5.18578000   8.71657000
H   10.86329000   3.74407000   5.97046000
H   12.07619000   2.93525000   8.69664000
C   14.62498000   2.99102000   7.62693000
H   14.60730000   2.92019000   8.73789000
C   9.56417000   5.94229000   7.09187000
C   9.57316000   3.00541000   7.53803000
C   8.30401000   5.18421000   7.55270000
C   8.32180000   3.73867000   7.04349000
H   9.57739000   5.95429000   5.97762000
H   8.23568000   5.18407000   8.66281000
H   8.29505000   3.73111000   5.93261000
H   9.54133000   2.93540000   8.64779000
N   -6.91677671   -1.40295285   -0.34035595
C   -6.05741959   -1.31727311   0.91217913
H   -6.82640317   -1.46506915   1.65948542
H   -5.43700140   -2.20264968   0.88497536
C   -5.18101446   -0.05344259   1.04441919
H   -4.35140483   -0.03377861   0.32251088
H   -5.71782396   0.90473697   0.95253137
C   -4.41900879   -0.72528822   5.53688123
H   -5.02905793   0.08998605   5.25257982
H   -4.96956567   -1.63525239   5.30375282
C   -3.26391112   -0.76731990   4.46689000
H   -2.88367950   0.18987281   4.35073968
H   -2.50644194   -1.54033056   4.66012581
C   -3.92432683   -1.10410736   3.07636761
H   -4.75212451   -1.83558273   3.15694071
H   -3.17482999   -1.65534481   2.43920906
C   -4.56142478   0.12208992   2.39301545
H   -5.33241006   0.39731173   3.07239191
H   -3.86371198   0.95033496   2.41819068
C   -8.10909029   -0.45355465   -0.16885030
H   -7.72589672   0.52456424   0.02417528
H   -8.84357963   -0.88790546   0.49651861
H   -8.54683871   -0.37216662   -1.13313834
C   -7.41225466   -2.78752024   -0.43452738
H   -6.55700207   -3.48755771   -0.69555248
H   -7.97971276   -2.78919340   -1.32627706
H   -8.07171756   -3.06427330   0.40132488
C   -6.13456820   -1.09359277   -1.56742276
H   -6.87678772   -0.93915986   -2.28946559
H   -5.48398121   -1.83972336   -1.92238168
H   -5.60673350   -0.18210594   -1.34681277
N   5.11229781   -3.80851924   -0.45187715
C   6.17020527   -3.29775196   0.52589126
H   6.23158189   -3.85289199   1.43787542
H   7.10605162   -3.32707193   -0.00515312
C   5.87685394   -1.82073577   0.96364529
H   6.80378334   -1.27169063   1.13546403
H   5.40924223   -1.21986211   0.21403369
C   5.95769283   -0.66852128   5.65557337
H   6.69211978   -1.41480742   5.29953937
H   6.43099239   0.22049987   5.36302143
C   4.80891689   -0.78164288   4.57518375
H   4.23295664   -1.76116369   4.66400301
H   4.07953843   0.03541065   4.64947455
C   5.45019065   -0.59259015   3.18713433
H   6.54960262   -0.59811164   3.32465476
H   5.09079810   0.38199162   2.90833426
C   5.05165578   -1.78750981   2.22058930
H   5.24637698   -2.62990906   2.80288716
H   3.94199810   -1.68927833   2.00278078
C   3.72414211   -3.67072152   0.15166199
H   3.54817075   -4.27005804   1.04137302
H   3.06753115   -4.05615210   -0.56004060
H   3.44862481   -2.62826746   0.26405414
C   5.35304713   -5.32219484   -0.48713985
H   4.77342990   -5.82034867   -1.22705991
H   5.12443719   -5.79992685   0.43383307
H   6.46560462   -5.50923758   -0.55325052
C   5.26449545   -3.36800059   -1.88891289
H   5.43701621   -2.32989041   -2.02862514
H   4.33602806   -3.63200228   -2.38741193
H   6.04552016   -3.96605569   -2.31246218
O   16.19060730   5.65387819   2.43652863
H   15.56244292   5.76314850   1.69067629
H   16.83893407   6.24782468   2.22340228
O   -2.14548849   -15.12944667   -0.53946213
H   13.63630030   1.20129339   1.22488682
H   -2.30929943   -14.85636163   0.38300330
O   -2.87906635   4.43182572   -2.97518947
H   -2.34584505   4.16503360   -3.75197618
H   -2.33745674   4.66411891   -2.23593340
O   -31.58688776   6.29385024   3.03724250
H   -0.54290782   -6.47311258   2.80689549
H   -32.12480995   -6.77683160   3.75334462
O   4.70800659   -18.97191937   2.73733746
H   4.34438151   -19.90173794   2.69714271
H   4.79981531   -18.70256093   3.66333649
O   -5.16474662   17.06572266   -0.02015840
H   -4.54604838   16.35634512   0.19494713
H   -6.03088136   16.95757837   0.45342040
O   -14.18460806   7.40138093   -0.25275340
H   -1.04654037   -6.96038188   -0.09358845
H   -14.34466154   5.99668831   -0.71699214
O   1.06339138   -18.80426633   3.32175474
H   1.99846984   -18.67891554   3.27580365
H   0.62603314   -17.99617631   3.50110575
O   3.64292705   -8.91618770   -3.23679490
H   3.01842337   -8.78176457   -2.55443322
H   3.28161532   -8.26713475   -3.87315910
O   -10.14692494   -16.07869286   1.82711573
H   -10.65471531   -15.71179573   2.54644180
H   -10.81487756   -16.52854637   1.33914409
O   6.76574056   1.74320192   -1.69263639
H   6.82686380   1.88576572   -0.76955729
H   6.57483406   2.54225540   -2.13035611
O   2.96355387   -0.97297050   -3.71399283
H   -3.75098647   -16.99222948   -0.73635980
H   21.62572199   15.43251409   1.23655189
O   9.61227111   -2.48790449   2.87720451
H   9.17772319   -1.81623909   2.32321814
H   10.41161729   -2.77758361   2.51935773
O   13.53581190   -14.75092056   -0.92539754
H   13.40467122   -14.26031554   -0.07783480
H   14.35165029   -14.45156648   -1.37263622
O   -10.41788916   -38.85169786   0.76783131
H   -10.71269450   -39.04750655   1.70133794
H   -11.03812901   -38.26925923   0.31579416
O   -12.93655273   0.27955430   -2.94161624
H   -13.23168392   1.09642265   -3.30959672
H   -13.78295229   -0.09823371   -2.63351542
O   29.69114334   20.78618823   -3.55414472
H   29.47917819   20.51243588   -2.61969672
H   30.08317477   20.00184912   -3.92317015
O   16.01776156   18.34647387   -0.92875297
H   30.08273078   18.93724024   -1.05917222
H   15.25346381   18.29751075   -1.59638911
O   23.30904420   -5.64391608   3.57753679
H   24.18665173   -5.41547966   3.94078545
H   22.91799843   -4.83255227   3.16802877
O   -4.50655677   -17.20616447   -1.28788632
H   2.41949594   -0.16909562   -3.64916768
H   -4.17862596   -17.86677834   -1.94606500
O   30.23172211   -8.53128876   -3.59562630
H   30.74657668   -9.20778116   -4.15170912
H   30.77654600   -8.48273397   -2.77085380
O   -13.73336983   -21.05386122   -4.11101318
H   -12.99189196   -20.41704769   -4.17116966
H   -14.05523875   -20.99212847   -3.21079729
O   13.55689337   -6.26886591   0.23961876
H   12.97497435   -5.64354809   0.70455028
H   14.43891268   -5.83515825   -0.03357978
O   -21.93666674   -33.74301228   -0.18335665
H   -21.21823960   -47.45880784   0.46304194
H   -22.00723814   -34.44585967   -0.84023207
O   25.46302440   -10.69804225   -2.61000955
H   24.79840058   -10.41815814   -1.95904899
H   26.12448801   -10.06946974   -2.38977590
O   22.78035135   -7.61269535   -0.64052422
H   -8.43517992   -7.10482665   -0.83474087
H   -7.28840440   -8.19558170   -1.38913589
O   1.59821053   -0.57547020   0.18753741
H   0.99355207   0.20453780   0.03569204
H   18.07813954   -47.94779195   -1.09300595
O   15.75845233   -23.96646188   -3.21691037
H   1.84276063   -0.87603543   -0.73187717
H   15.85926825   -23.02861599   -3.10072989
O   25.61294259   -33.69006333   0.13820227
H   26.24948268   -34.34052774   -0.13413762
H   24.75169135   -33.99179115   -0.04064692
O   36.54494968   -19.51674939   -3.22382715
H   35.84109835   -19.88637217   -3.73555106
H   37.26923544   -19.08392611   -3.71214762
O   -7.52768653   18.63299759   2.54665515
H   -7.91696738   19.35278541   3.10055937
H   -7.33438449   18.91896129   1.64076720
O   -6.93170508   4.60473368   -3.30708385
H   -7.55844137   4.63252842   -4.01673094
H   -6.30060345   3.94004723   -3.54068390
O   -15.24373496   -44.00147829   1.09345334
H   -15.51484487   -43.50276337   0.33224073
H   15.78207085   -44.72736722   0.77922767
O   -15.18388009   -43.08169497   -3.55699804
H   -15.33812241   -43.50891010   -2.70672082
H   -15.94036178   -43.40328203   -4.04478824
O   -20.58144353   1.61957721   -2.19450807
H   -19.77804290   1.98594989   -2.60586920
H   -21.26682361   2.23082369   -2.46796146
O   14.70864802   -17.36313517   3.82291030
H   14.57692751   -17.37661898   2.85651671
H   15.36265195   -18.06050755   4.02665976
O   15.16814450   -27.94466225   3.77788272
H   15.15624450   -37.73381313   -2.59497985
H   15.96552280   -28.37598839   3.44693963
O   1.12930240   -2.68978770   -2.21498334
H   0.25022350   -2.79115492   -2.46427329
H   3.66670848   -0.89231663   -3.01834253
O   13.45575273   -13.12299411   1.33725972
H   -13.86627161   -5.59845166   -1.10115187
H   13.80088408   -13.39305273   2.16566528
O   4.03351741   2.51743549   0.31207225
H   4.40096816   3.04556268   1.00893426
H   3.04765289   2.62158981   0.38015322
O   -22.49299617   -22.60834978   -2.29657975
H   -23.14725847   -21.94851500   -2.57009989
H   -21.65628645   -22.15635029   -2.48944821
O   0.42531240   -11.58444562   -0.02525429
H   0.55214938   -10.96489538   0.68358955
H   0.15229430   -11.07221884   -0.78517574
O   -3.83856759   -6.19360052   -3.20345049
H   -4.32693263   -6.99709197   -3.49366036
H   -3.16462646   -6.53681416   -2.53861549
O   11.83586674   23.84556153   1.16109308
H   11.79428174   24.79291041   0.97096476
H   12.71592515   23.58110473   0.85882318
O   14.44248727   3.28280807   1.66894053
H   14.30041806   2.80350029   2.44631808
H   14.48529174   4.17219020   2.04394449
O   15.81520464   -11.73397037   -0.38451157
H   15.24851611   -11.00094675   0.02614483
H   16.13055185   -12.30875888   0.34673031
O   13.43592946   0.41344446   -3.47102429
H   13.39683018   -0.35724250   -2.88449897
H   13.83925508   0.06383692   -4.28243232
O   -19.42573509   -9.22013244   -3.05042267
H   -19.05130048   -9.31540728   -2.12363333
H   -18.72452292   -9.22866690   -3.66998439
O   -1.60030999   -16.59880014   -4.11324420
H   -2.32010901   -16.45472270   -3.49938098
H   -1.42264576   -17.55124474   -4.08456725
O   9.16725159   -41.67186862   -3.33832450
H   8.56614293   -40.99836168   -3.72751731
H   10.03006799   -41.32237538   -3.46860983
O   1.26922355   -9.28369818   1.25304975
H   1.17161089   -9.01029355   0.21804913
H   0.56834518   -8.71568560   1.62198112
O   1.82047198   -14.43095624   3.01201970
H   1.91711882   -14.15746358   2.10312542
H   1.43361835   -13.64253873   3.45574875
O   18.00003072   -25.85898406   3.48629601
H   17.56343994   -24.97855878   3.61172635
H   18.69160061   -25.80804430   4.20098145
O   2.46051074   6.64410561   -0.07726317
H   1.85862535   6.72599183   0.64919680
H   1.99399585   5.93516228   -0.69344272
O   39.60995840   -0.33501790   0.76541537
H   40.11487968   -0.87376961   0.12642906
H   39.35513167   0.45029919   0.28152251
O   -11.76230345   -5.93672007   0.86375071
H   -11.85887600   -5.62482803   1.76856064
H   -12.58747653   -5.77535436   0.31851615
O   -17.65404475   17.93068600   -0.93006771
H   -17.79840357   18.65720620   -0.37476654
H   -16.81069506   17.60381936   -0.55472472
O   35.02137222   -0.01508700   -1.76818089
H   35.91347098   13.80470425   -1.63246674
H   34.41009926   0.67922831   -1.52353314
O   1.21561433   -8.59953913   -1.32600957
H   1.97849459   4.30641628   -1.76923352
H   -1.25196917   -15.47093201   -0.60830223
O   -1.19270668   -20.88857413   -0.89153176
H   -15.77284233   -28.74693560   3.92157677
H   1.68073595   -2.28986530   -2.88574565
O   31.95744188   -11.46736486   3.07331939
H   32.36251592   -10.97251509   2.39006463
H   31.24344236   -10.95950057   3.34952445
O   25.53214775   -17.83439581   1.88013521
H   26.25535312   -18.44139094   2.24498515
H   25.24704079   -18.33785832   1.06996126
O   -1.84352351   -9.60045863   2.81628801
H   -2.21482012   -9.20505927   3.62168224
H   -1.31904333   -8.83966586   2.52109946
O   19.00114479   -47.69918210   -1.19219941
H   1.36032726   -5.83299473   -3.46792901
H   19.19755401   -47.64495320   -0.28551164
O   18.22349693   -16.21255613   -3.95969724
H   17.26806196   -16.46589854   -3.94663891
H   18.12253641   -15.31839674   -3.71140978
O   17.88886865   -9.59923866   0.84825765
H   17.73331830   -9.73910243   -0.11344339
H   17.20353331   -8.90987030   0.97342031
O   4.16338455   18.58301418   1.78560455
H   3.50270506   18.70486196   1.05103940
H   3.77518090   17.93173023   2.33760448
O   20.59687006   -5.14537536   -1.08311357
H   20.25024288   -6.00655706   -1.39493915
H   19.92331204   -4.95481563   -0.42194051
O   19.66697322   -7.91337525   3.82158604
H   18.85856035   -8.00299066   3.24922641
H   20.05556498   -8.80604418   3.95161233
O   -12.01584713   23.68343383   -1.01240491
H   -12.69995140   24.18129725   -1.45202681
H   -11.25237339   23.82868355   -1.61432495
O   13.12485001   -17.99216463   -2.13724874
H   13.55729772   -18.74315799   -1.78123456
H   12.39107428   -18.32981217   -2.65948714
O   -4.83906668   4.87437826   3.29377368
H   -4.65805985   -8.60252829   2.31478713
H   -5.74295386   5.27557484   3.28248321
O   -2.69762099   -11.45356268   0.85773829
H   -2.47166116   -10.90985962   1.60793100
H   -1.90035627   -11.67134773   0.34848821
O   22.49825259   15.56383514   1.57538459
H   -7.90853320   16.29507035   2.24391370
O   2.28456167   -5.97918882   -3.17428931
H   2.59765801   -5.07720558   -2.86305609
