859

C   -10.69779000   -5.86175000   -7.33858000
C   -8.15928000   -5.87467000   -7.28444000
C   -9.41468000   -5.12658000   -7.79474000
H   -8.18229000   -5.89571000   -6.16941000
H   -8.10692000   -2.91317000   -8.83950000
C   -8.13408000   -2.93478000   -7.72453000
C   -9.41924000   -3.66982000   -7.27288000
H   -9.38993000   -5.10712000   -8.90978000
C   -10.67158000   -2.92136000   -7.78919000
C   -11.95871000   -3.65341000   -7.33682000
C   -11.95380000   -5.11654000   -7.85284000
H   -11.92645000   -5.10075000   -8.96789000
H   -10.72286000   -5.87937000   -6.22361000
H   -9.44673000   -3.68932000   -6.15795000
H   -10.64298000   -2.90338000   -8.90410000
H   -11.98586000   -3.66929000   -6.22179000
C   -10.67365000   -1.46425000   -7.26793000
C   -8.13741000   -1.47901000   -7.19913000
C   -9.38630000   -0.72957000   -7.71648000
C   -11.92041000   -0.71380000   -7.78920000
H   -10.70541000   -1.48244000   -6.15309000
H   -8.16710000   -1.50048000   -6.08426000
H   -11.88640000   -0.69713000   -8.90430000
H   -9.35497000   -0.71000000   -8.83154000
C   -13.21593000   -1.44108000   -7.34316000
C   -13.21474000   -2.90378000   -7.85312000
C   -13.24135000   -5.85281000   -7.39877000
C   -14.44389000   -0.66982000   -7.86503000
C   -14.48388000   -3.65011000   -7.40057000
C   -14.47881000   -5.09344000   -7.91324000
H   -14.45739000   -0.66872000   -8.97719000
H   -13.25760000   -1.45337000   -6.22965000
H   -13.19468000   -2.89136000   -8.96724000
H   -14.55970000   -3.65155000   -6.29099000
H   -14.49988000   -5.09157000   -9.02519000
H   -13.27612000   -5.86490000   -6.28507000
C   -14.43619000   0.77533000   -7.35447000
C   -13.15437000   1.49562000   -7.78601000
C   -11.91625000   0.74716000   -7.27043000
C   -10.63226000   1.47184000   -7.70952000
C   -9.38879000   0.72888000   -7.19432000
C   -8.10509000   1.45766000   -7.63152000
H   -14.51765000   0.78285000   -6.24627000
H   -11.95033000   0.74289000   -6.15748000
H   -9.42222000   0.72201000   -6.08145000
H   -13.13078000   1.56637000   -8.89592000
H   -10.59807000   1.54063000   -8.82034000
H   -8.07188000   1.53033000   -8.74206000
C   -8.15426000   5.92726000   -7.80901000
C   -9.43327000   5.19129000   -7.34937000
C   -10.69011000   5.93889000   -7.85911000
H   -8.13368000   5.94813000   -8.92414000
C   -9.42646000   3.73233000   -7.87017000
H   -9.45435000   5.17265000   -6.23413000
C   -10.70070000   3.00296000   -7.41457000
C   -11.95416000   3.74047000   -7.91622000
C   -11.96842000   5.20186000   -7.39887000
H   -9.40749000   3.73825000   -8.98342000
H   -10.66811000   5.95661000   -8.97422000
H   -11.98903000   5.18578000   -6.28343000
H   -11.93371000   3.74407000   -9.02954000
H   -10.72081000   2.93525000   -6.30336000
C   -8.17202000   2.99102000   -7.37307000
H   -8.18970000   2.92019000   -6.26211000
C   -13.23283000   5.94229000   -7.90813000
C   -13.22384000   3.00541000   -7.46197000
C   -14.49299000   5.18421000   -7.44730000
C   -14.47520000   3.73867000   -7.95651000
H   -13.21961000   5.95429000   -9.02238000
H   -14.56132000   5.18407000   -6.33719000
H   -14.50195000   3.73111000   -9.06739000
H   -13.25567000   2.93540000   -6.35221000
C   -3.09879000   -5.86175000   -7.33858000
C   -0.56028000   -5.87467000   -7.28444000
C   -1.81568000   -5.12658000   -7.79474000
H   -0.58329000   -5.89571000   -6.16941000
H   -0.50792000   -2.91317000   -8.83950000
C   -0.53508000   -2.93478000   -7.72453000
C   -1.82024000   -3.66982000   -7.27288000
H   -1.79093000   -5.10712000   -8.90978000
C   -3.07258000   -2.92136000   -7.78919000
C   -4.35971000   -3.65341000   -7.33682000
C   -4.35480000   -5.11654000   -7.85284000
H   -4.32745000   -5.10075000   -8.96789000
H   -3.12386000   -5.87937000   -6.22361000
H   -1.84773000   -3.68932000   -6.15795000
H   -3.04398000   -2.90338000   -8.90410000
H   -4.38686000   -3.66929000   -6.22179000
C   -3.07465000   -1.46425000   -7.26793000
C   -0.53841000   -1.47901000   -7.19913000
C   -1.78730000   -0.72957000   -7.71648000
C   -4.32141000   -0.71380000   -7.78920000
H   -3.10641000   -1.48244000   -6.15309000
H   -0.56810000   -1.50048000   -6.08426000
H   -4.28740000   -0.69713000   -8.90430000
H   -1.75597000   -0.71000000   -8.83154000
C   -5.61693000   -1.44108000   -7.34316000
C   -5.61574000   -2.90378000   -7.85312000
C   -5.64235000   -5.85281000   -7.39877000
C   -6.84489000   -0.66982000   -7.86503000
C   -6.88488000   -3.65011000   -7.40057000
C   -6.87981000   -5.09344000   -7.91324000
H   -6.85839000   -0.66872000   -8.97719000
H   -5.65860000   -1.45337000   -6.22965000
H   -5.59568000   -2.89136000   -8.96724000
H   -6.96070000   -3.65155000   -6.29099000
H   -6.90088000   -5.09157000   -9.02519000
H   -5.67712000   -5.86490000   -6.28507000
C   -6.83719000   0.77533000   -7.35447000
C   -5.55537000   1.49562000   -7.78601000
C   -4.31725000   0.74716000   -7.27043000
C   -3.03326000   1.47184000   -7.70952000
C   -1.78979000   0.72888000   -7.19432000
C   -0.50609000   1.45766000   -7.63152000
H   -6.91865000   0.78285000   -6.24627000
H   -4.35133000   0.74289000   -6.15748000
H   -1.82322000   0.72201000   -6.08145000
H   -5.53178000   1.56637000   -8.89592000
H   -2.99907000   1.54063000   -8.82034000
H   -0.47288000   1.53033000   -8.74206000
C   -0.55526000   5.92726000   -7.80901000
C   -1.83427000   5.19129000   -7.34937000
C   -3.09111000   5.93889000   -7.85911000
H   -0.53468000   5.94813000   -8.92414000
C   -1.82746000   3.73233000   -7.87017000
H   -1.85535000   5.17265000   -6.23413000
C   -3.10170000   3.00296000   -7.41457000
C   -4.35516000   3.74047000   -7.91622000
C   -4.36942000   5.20186000   -7.39887000
H   -1.80849000   3.73825000   -8.98342000
H   -3.06911000   5.95661000   -8.97422000
H   -4.39003000   5.18578000   -6.28343000
H   -4.33471000   3.74407000   -9.02954000
H   -3.12181000   2.93525000   -6.30336000
C   -0.57302000   2.99102000   -7.37307000
H   -0.59070000   2.92019000   -6.26211000
C   -5.63383000   5.94229000   -7.90813000
C   -5.62484000   3.00541000   -7.46197000
C   -6.89399000   5.18421000   -7.44730000
C   -6.87620000   3.73867000   -7.95651000
H   -5.62061000   5.95429000   -9.02238000
H   -6.96232000   5.18407000   -6.33719000
H   -6.90295000   3.73111000   -9.06739000
H   -5.65667000   2.93540000   -6.35221000
C   4.50021000   -5.86175000   -7.33858000
C   7.03872000   -5.87467000   -7.28444000
C   5.78332000   -5.12658000   -7.79474000
H   7.01571000   -5.89571000   -6.16941000
H   7.09108000   -2.91317000   -8.83950000
C   7.06392000   -2.93478000   -7.72453000
C   5.77876000   -3.66982000   -7.27288000
H   5.80807000   -5.10712000   -8.90978000
C   4.52642000   -2.92136000   -7.78919000
C   3.23929000   -3.65341000   -7.33682000
C   3.24420000   -5.11654000   -7.85284000
H   3.27155000   -5.10075000   -8.96789000
H   4.47514000   -5.87937000   -6.22361000
H   5.75127000   -3.68932000   -6.15795000
H   4.55502000   -2.90338000   -8.90410000
H   3.21214000   -3.66929000   -6.22179000
C   4.52435000   -1.46425000   -7.26793000
C   7.06059000   -1.47901000   -7.19913000
C   5.81170000   -0.72957000   -7.71648000
C   3.27759000   -0.71380000   -7.78920000
H   4.49259000   -1.48244000   -6.15309000
H   7.03090000   -1.50048000   -6.08426000
H   3.31160000   -0.69713000   -8.90430000
H   5.84303000   -0.71000000   -8.83154000
C   1.98207000   -1.44108000   -7.34316000
C   1.98326000   -2.90378000   -7.85312000
C   1.95665000   -5.85281000   -7.39877000
C   0.75411000   -0.66982000   -7.86503000
C   0.71412000   -3.65011000   -7.40057000
C   0.71919000   -5.09344000   -7.91324000
H   0.74061000   -0.66872000   -8.97719000
H   1.94040000   -1.45337000   -6.22965000
H   2.00332000   -2.89136000   -8.96724000
H   0.63830000   -3.65155000   -6.29099000
H   0.69812000   -5.09157000   -9.02519000
H   1.92188000   -5.86490000   -6.28507000
C   0.76181000   0.77533000   -7.35447000
C   2.04363000   1.49562000   -7.78601000
C   3.28175000   0.74716000   -7.27043000
C   4.56574000   1.47184000   -7.70952000
C   5.80921000   0.72888000   -7.19432000
C   7.09291000   1.45766000   -7.63152000
H   0.68035000   0.78285000   -6.24627000
H   3.24767000   0.74289000   -6.15748000
H   5.77578000   0.72201000   -6.08145000
H   2.06722000   1.56637000   -8.89592000
H   4.59993000   1.54063000   -8.82034000
H   7.12612000   1.53033000   -8.74206000
C   7.04374000   5.92726000   -7.80901000
C   5.76473000   5.19129000   -7.34937000
C   4.50789000   5.93889000   -7.85911000
H   7.06432000   5.94813000   -8.92414000
C   5.77154000   3.73233000   -7.87017000
H   5.74365000   5.17265000   -6.23413000
C   4.49730000   3.00296000   -7.41457000
C   3.24384000   3.74047000   -7.91622000
C   3.22958000   5.20186000   -7.39887000
H   5.79051000   3.73825000   -8.98342000
H   4.52989000   5.95661000   -8.97422000
H   3.20897000   5.18578000   -6.28343000
H   3.26429000   3.74407000   -9.02954000
H   4.47719000   2.93525000   -6.30336000
C   7.02598000   2.99102000   -7.37307000
H   7.00830000   2.92019000   -6.26211000
C   1.96517000   5.94229000   -7.90813000
C   1.97416000   3.00541000   -7.46197000
C   0.70501000   5.18421000   -7.44730000
C   0.72280000   3.73867000   -7.95651000
H   1.97839000   5.95429000   -9.02238000
H   0.63668000   5.18407000   -6.33719000
H   0.69605000   3.73111000   -9.06739000
H   1.94233000   2.93540000   -6.35221000
C   12.09921000   -5.86175000   -7.33858000
C   14.63772000   -5.87467000   -7.28444000
C   13.38232000   -5.12658000   -7.79474000
H   14.61471000   -5.89571000   -6.16941000
H   14.69008000   -2.91317000   -8.83950000
C   14.66292000   -2.93478000   -7.72453000
C   13.37776000   -3.66982000   -7.27288000
H   13.40707000   -5.10712000   -8.90978000
C   12.12542000   -2.92136000   -7.78919000
C   10.83829000   -3.65341000   -7.33682000
C   10.84320000   -5.11654000   -7.85284000
H   10.87055000   -5.10075000   -8.96789000
H   12.07414000   -5.87937000   -6.22361000
H   13.35027000   -3.68932000   -6.15795000
H   12.15402000   -2.90338000   -8.90410000
H   10.81114000   -3.66929000   -6.22179000
C   12.12335000   -1.46425000   -7.26793000
C   14.65959000   -1.47901000   -7.19913000
C   13.41070000   -0.72957000   -7.71648000
C   10.87659000   -0.71380000   -7.78920000
H   12.09159000   -1.48244000   -6.15309000
H   14.62990000   -1.50048000   -6.08426000
H   10.91060000   -0.69713000   -8.90430000
H   13.44203000   -0.71000000   -8.83154000
C   9.58107000   -1.44108000   -7.34316000
C   9.58226000   -2.90378000   -7.85312000
C   9.55565000   -5.85281000   -7.39877000
C   8.35311000   -0.66982000   -7.86503000
C   8.31312000   -3.65011000   -7.40057000
C   8.31819000   -5.09344000   -7.91324000
H   8.33961000   -0.66872000   -8.97719000
H   9.53940000   -1.45337000   -6.22965000
H   9.60232000   -2.89136000   -8.96724000
H   8.23730000   -3.65155000   -6.29099000
H   8.29712000   -5.09157000   -9.02519000
H   9.52088000   -5.86490000   -6.28507000
C   8.36081000   0.77533000   -7.35447000
C   9.64263000   1.49562000   -7.78601000
C   10.88075000   0.74716000   -7.27043000
C   12.16474000   1.47184000   -7.70952000
C   13.40821000   0.72888000   -7.19432000
C   14.69191000   1.45766000   -7.63152000
H   8.27935000   0.78285000   -6.24627000
H   10.84667000   0.74289000   -6.15748000
H   13.37478000   0.72201000   -6.08145000
H   9.66622000   1.56637000   -8.89592000
H   12.19893000   1.54063000   -8.82034000
H   14.72512000   1.53033000   -8.74206000
C   14.64274000   5.92726000   -7.80901000
C   13.36373000   5.19129000   -7.34937000
C   12.10689000   5.93889000   -7.85911000
H   14.66332000   5.94813000   -8.92414000
C   13.37054000   3.73233000   -7.87017000
H   13.34265000   5.17265000   -6.23413000
C   12.09630000   3.00296000   -7.41457000
C   10.84284000   3.74047000   -7.91622000
C   10.82858000   5.20186000   -7.39887000
H   13.38951000   3.73825000   -8.98342000
H   12.12889000   5.95661000   -8.97422000
H   10.80797000   5.18578000   -6.28343000
H   10.86329000   3.74407000   -9.02954000
H   12.07619000   2.93525000   -6.30336000
C   14.62498000   2.99102000   -7.37307000
H   14.60730000   2.92019000   -6.26211000
C   9.56417000   5.94229000   -7.90813000
C   9.57316000   3.00541000   -7.46197000
C   8.30401000   5.18421000   -7.44730000
C   8.32180000   3.73867000   -7.95651000
H   9.57739000   5.95429000   -9.02238000
H   8.23568000   5.18407000   -6.33719000
H   8.29505000   3.73111000   -9.06739000
H   9.54133000   2.93540000   -6.35221000
C   -10.69779000   -5.86175000   7.66142000
C   -8.15928000   -5.87467000   7.71556000
C   -9.41468000   -5.12658000   7.20526000
H   -8.18229000   -5.89571000   8.83059000
H   -8.10692000   -2.91317000   6.16050000
C   -8.13408000   -2.93478000   7.27547000
C   -9.41924000   -3.66982000   7.72712000
H   -9.38993000   -5.10712000   6.09022000
C   -10.67158000   -2.92136000   7.21081000
C   -11.95871000   -3.65341000   7.66318000
C   -11.95380000   -5.11654000   7.14716000
H   -11.92645000   -5.10075000   6.03211000
H   -10.72286000   -5.87937000   8.77639000
H   -9.44673000   -3.68932000   8.84205000
H   -10.64298000   -2.90338000   6.09590000
H   -11.98586000   -3.66929000   8.77821000
C   -10.67365000   -1.46425000   7.73207000
C   -8.13741000   -1.47901000   7.80087000
C   -9.38630000   -0.72957000   7.28352000
C   -11.92041000   -0.71380000   7.21080000
H   -10.70541000   -1.48244000   8.84691000
H   -8.16710000   -1.50048000   8.91574000
H   -11.88640000   -0.69713000   6.09570000
H   -9.35497000   -0.71000000   6.16846000
C   -13.21593000   -1.44108000   7.65684000
C   -13.21474000   -2.90378000   7.14688000
C   -13.24135000   -5.85281000   7.60123000
C   -14.44389000   -0.66982000   7.13497000
C   -14.48388000   -3.65011000   7.59943000
C   -14.47881000   -5.09344000   7.08676000
H   -14.45739000   -0.66872000   6.02281000
H   -13.25760000   -1.45337000   8.77035000
H   -13.19468000   -2.89136000   6.03276000
H   -14.55970000   -3.65155000   8.70901000
H   -14.49988000   -5.09157000   5.97481000
H   -13.27612000   -5.86490000   8.71493000
C   -14.43619000   0.77533000   7.64553000
C   -13.15437000   1.49562000   7.21399000
C   -11.91625000   0.74716000   7.72957000
C   -10.63226000   1.47184000   7.29048000
C   -9.38879000   0.72888000   7.80568000
C   -8.10509000   1.45766000   7.36848000
H   -14.51765000   0.78285000   8.75373000
H   -11.95033000   0.74289000   8.84252000
H   -9.42222000   0.72201000   8.91855000
H   -13.13078000   1.56637000   6.10408000
H   -10.59807000   1.54063000   6.17966000
H   -8.07188000   1.53033000   6.25794000
C   -8.15426000   5.92726000   7.19099000
C   -9.43327000   5.19129000   7.65063000
C   -10.69011000   5.93889000   7.14089000
H   -8.13368000   5.94813000   6.07586000
C   -9.42646000   3.73233000   7.12983000
H   -9.45435000   5.17265000   8.76587000
C   -10.70070000   3.00296000   7.58543000
C   -11.95416000   3.74047000   7.08378000
C   -11.96842000   5.20186000   7.60113000
H   -9.40749000   3.73825000   6.01658000
H   -10.66811000   5.95661000   6.02578000
H   -11.98903000   5.18578000   8.71657000
H   -11.93371000   3.74407000   5.97046000
H   -10.72081000   2.93525000   8.69664000
C   -8.17202000   2.99102000   7.62693000
H   -8.18970000   2.92019000   8.73789000
C   -13.23283000   5.94229000   7.09187000
C   -13.22384000   3.00541000   7.53803000
C   -14.49299000   5.18421000   7.55270000
C   -14.47520000   3.73867000   7.04349000
H   -13.21961000   5.95429000   5.97762000
H   -14.56132000   5.18407000   8.66281000
H   -14.50195000   3.73111000   5.93261000
H   -13.25567000   2.93540000   8.64779000
C   -3.09879000   -5.86175000   7.66142000
C   -0.56028000   -5.87467000   7.71556000
C   -1.81568000   -5.12658000   7.20526000
H   -0.58329000   -5.89571000   8.83059000
H   -0.50792000   -2.91317000   6.16050000
C   -0.53508000   -2.93478000   7.27547000
C   -1.82024000   -3.66982000   7.72712000
H   -1.79093000   -5.10712000   6.09022000
C   -3.07258000   -2.92136000   7.21081000
C   -4.35971000   -3.65341000   7.66318000
C   -4.35480000   -5.11654000   7.14716000
H   -4.32745000   -5.10075000   6.03211000
H   -3.12386000   -5.87937000   8.77639000
H   -1.84773000   -3.68932000   8.84205000
H   -3.04398000   -2.90338000   6.09590000
H   -4.38686000   -3.66929000   8.77821000
C   -3.07465000   -1.46425000   7.73207000
C   -0.53841000   -1.47901000   7.80087000
C   -1.78730000   -0.72957000   7.28352000
C   -4.32141000   -0.71380000   7.21080000
H   -3.10641000   -1.48244000   8.84691000
H   -0.56810000   -1.50048000   8.91574000
H   -1.75597000   -0.71000000   6.16846000
C   -5.61693000   -1.44108000   7.65684000
C   -5.61574000   -2.90378000   7.14688000
C   -5.64235000   -5.85281000   7.60123000
C   -6.84489000   -0.66982000   7.13497000
C   -6.88488000   -3.65011000   7.59943000
C   -6.87981000   -5.09344000   7.08676000
H   -6.85839000   -0.66872000   6.02281000
H   -5.65860000   -1.45337000   8.77035000
H   -5.59568000   -2.89136000   6.03276000
H   -6.96070000   -3.65155000   8.70901000
H   -6.90088000   -5.09157000   5.97481000
H   -5.67712000   -5.86490000   8.71493000
C   -6.83719000   0.77533000   7.64553000
C   -5.55537000   1.49562000   7.21399000
C   -4.31725000   0.74716000   7.72957000
C   -3.03326000   1.47184000   7.29048000
C   -1.78979000   0.72888000   7.80568000
C   -0.50609000   1.45766000   7.36848000
H   -6.91865000   0.78285000   8.75373000
H   -4.35133000   0.74289000   8.84252000
H   -1.82322000   0.72201000   8.91855000
H   -5.53178000   1.56637000   6.10408000
H   -2.99907000   1.54063000   6.17966000
H   -0.47288000   1.53033000   6.25794000
C   -0.55526000   5.92726000   7.19099000
C   -1.83427000   5.19129000   7.65063000
C   -3.09111000   5.93889000   7.14089000
H   -0.53468000   5.94813000   6.07586000
C   -1.82746000   3.73233000   7.12983000
H   -1.85535000   5.17265000   8.76587000
C   -3.10170000   3.00296000   7.58543000
C   -4.35516000   3.74047000   7.08378000
C   -4.36942000   5.20186000   7.60113000
H   -1.80849000   3.73825000   6.01658000
H   -3.06911000   5.95661000   6.02578000
H   -4.39003000   5.18578000   8.71657000
H   -4.33471000   3.74407000   5.97046000
H   -3.12181000   2.93525000   8.69664000
C   -0.57302000   2.99102000   7.62693000
H   -0.59070000   2.92019000   8.73789000
C   -5.63383000   5.94229000   7.09187000
C   -5.62484000   3.00541000   7.53803000
C   -6.89399000   5.18421000   7.55270000
C   -6.87620000   3.73867000   7.04349000
H   -5.62061000   5.95429000   5.97762000
H   -6.96232000   5.18407000   8.66281000
H   -6.90295000   3.73111000   5.93261000
H   -5.65667000   2.93540000   8.64779000
C   4.50021000   -5.86175000   7.66142000
C   7.03872000   -5.87467000   7.71556000
C   5.78332000   -5.12658000   7.20526000
H   7.01571000   -5.89571000   8.83059000
H   7.09108000   -2.91317000   6.16050000
C   7.06392000   -2.93478000   7.27547000
C   5.77876000   -3.66982000   7.72712000
H   5.80807000   -5.10712000   6.09022000
C   4.52642000   -2.92136000   7.21081000
C   3.23929000   -3.65341000   7.66318000
C   3.24420000   -5.11654000   7.14716000
H   3.27155000   -5.10075000   6.03211000
H   4.47514000   -5.87937000   8.77639000
H   5.75127000   -3.68932000   8.84205000
H   4.55502000   -2.90338000   6.09590000
H   3.21214000   -3.66929000   8.77821000
C   4.52435000   -1.46425000   7.73207000
C   7.06059000   -1.47901000   7.80087000
C   5.81170000   -0.72957000   7.28352000
C   3.27759000   -0.71380000   7.21080000
H   4.49259000   -1.48244000   8.84691000
H   7.03090000   -1.50048000   8.91574000
H   3.31160000   -0.69713000   6.09570000
C   1.98207000   -1.44108000   7.65684000
C   1.98326000   -2.90378000   7.14688000
C   1.95665000   -5.85281000   7.60123000
C   0.75411000   -0.66982000   7.13497000
C   0.71412000   -3.65011000   7.59943000
C   0.71919000   -5.09344000   7.08676000
H   0.74061000   -0.66872000   6.02281000
H   1.94040000   -1.45337000   8.77035000
H   2.00332000   -2.89136000   6.03276000
H   0.63830000   -3.65155000   8.70901000
H   0.69812000   -5.09157000   5.97481000
H   1.92188000   -5.86490000   8.71493000
C   0.76181000   0.77533000   7.64553000
C   2.04363000   1.49562000   7.21399000
C   3.28175000   0.74716000   7.72957000
C   4.56574000   1.47184000   7.29048000
C   5.80921000   0.72888000   7.80568000
C   7.09291000   1.45766000   7.36848000
H   0.68035000   0.78285000   8.75373000
H   3.24767000   0.74289000   8.84252000
H   5.77578000   0.72201000   8.91855000
H   2.06722000   1.56637000   6.10408000
H   4.59993000   1.54063000   6.17966000
H   7.12612000   1.53033000   6.25794000
C   7.04374000   5.92726000   7.19099000
C   5.76473000   5.19129000   7.65063000
C   4.50789000   5.93889000   7.14089000
H   7.06432000   5.94813000   6.07586000
C   5.77154000   3.73233000   7.12983000
H   5.74365000   5.17265000   8.76587000
C   4.49730000   3.00296000   7.58543000
C   3.24384000   3.74047000   7.08378000
C   3.22958000   5.20186000   7.60113000
H   5.79051000   3.73825000   6.01658000
H   4.52989000   5.95661000   6.02578000
H   3.20897000   5.18578000   8.71657000
H   3.26429000   3.74407000   5.97046000
H   4.47719000   2.93525000   8.69664000
C   7.02598000   2.99102000   7.62693000
H   7.00830000   2.92019000   8.73789000
C   1.96517000   5.94229000   7.09187000
C   1.97416000   3.00541000   7.53803000
C   0.70501000   5.18421000   7.55270000
C   0.72280000   3.73867000   7.04349000
H   1.97839000   5.95429000   5.97762000
H   0.63668000   5.18407000   8.66281000
H   0.69605000   3.73111000   5.93261000
H   1.94233000   2.93540000   8.64779000
C   12.09921000   -5.86175000   7.66142000
C   14.63772000   -5.87467000   7.71556000
C   13.38232000   -5.12658000   7.20526000
H   14.61471000   -5.89571000   8.83059000
H   14.69008000   -2.91317000   6.16050000
C   14.66292000   -2.93478000   7.27547000
C   13.37776000   -3.66982000   7.72712000
H   13.40707000   -5.10712000   6.09022000
C   12.12542000   -2.92136000   7.21081000
C   10.83829000   -3.65341000   7.66318000
C   10.84320000   -5.11654000   7.14716000
H   10.87055000   -5.10075000   6.03211000
H   12.07414000   -5.87937000   8.77639000
H   13.35027000   -3.68932000   8.84205000
H   12.15402000   -2.90338000   6.09590000
H   10.81114000   -3.66929000   8.77821000
C   12.12335000   -1.46425000   7.73207000
C   14.65959000   -1.47901000   7.80087000
C   13.41070000   -0.72957000   7.28352000
C   10.87659000   -0.71380000   7.21080000
H   12.09159000   -1.48244000   8.84691000
H   14.62990000   -1.50048000   8.91574000
H   10.91060000   -0.69713000   6.09570000
H   13.44203000   -0.71000000   6.16846000
C   9.58107000   -1.44108000   7.65684000
C   9.58226000   -2.90378000   7.14688000
C   9.55565000   -5.85281000   7.60123000
C   8.35311000   -0.66982000   7.13497000
C   8.31312000   -3.65011000   7.59943000
C   8.31819000   -5.09344000   7.08676000
H   8.33961000   -0.66872000   6.02281000
H   9.53940000   -1.45337000   8.77035000
H   9.60232000   -2.89136000   6.03276000
H   8.23730000   -3.65155000   8.70901000
H   8.29712000   -5.09157000   5.97481000
H   9.52088000   -5.86490000   8.71493000
C   8.36081000   0.77533000   7.64553000
C   9.64263000   1.49562000   7.21399000
C   10.88075000   0.74716000   7.72957000
C   12.16474000   1.47184000   7.29048000
C   13.40821000   0.72888000   7.80568000
C   14.69191000   1.45766000   7.36848000
H   8.27935000   0.78285000   8.75373000
H   10.84667000   0.74289000   8.84252000
H   13.37478000   0.72201000   8.91855000
H   9.66622000   1.56637000   6.10408000
H   12.19893000   1.54063000   6.17966000
H   14.72512000   1.53033000   6.25794000
C   14.64274000   5.92726000   7.19099000
C   13.36373000   5.19129000   7.65063000
C   12.10689000   5.93889000   7.14089000
H   14.66332000   5.94813000   6.07586000
C   13.37054000   3.73233000   7.12983000
H   13.34265000   5.17265000   8.76587000
C   12.09630000   3.00296000   7.58543000
C   10.84284000   3.74047000   7.08378000
C   10.82858000   5.20186000   7.60113000
H   13.38951000   3.73825000   6.01658000
H   12.12889000   5.95661000   6.02578000
H   10.80797000   5.18578000   8.71657000
H   10.86329000   3.74407000   5.97046000
H   12.07619000   2.93525000   8.69664000
C   14.62498000   2.99102000   7.62693000
H   14.60730000   2.92019000   8.73789000
C   9.56417000   5.94229000   7.09187000
C   9.57316000   3.00541000   7.53803000
C   8.30401000   5.18421000   7.55270000
C   8.32180000   3.73867000   7.04349000
H   9.57739000   5.95429000   5.97762000
H   8.23568000   5.18407000   8.66281000
H   8.29505000   3.73111000   5.93261000
H   9.54133000   2.93540000   8.64779000
N   -6.09140527   3.53338052   0.54622057
C   -6.38476575   1.98848807   0.92088410
H   -7.46985720   2.05853516   1.07961835
H   -6.37321438   1.36192073   0.03241999
C   -5.57050007   1.47917375   2.13051129
H   -4.52945350   1.83579853   2.13654420
H   -6.06458887   1.62856836   3.07492333
C   -4.23640987   -0.75456162   5.62113553
H   -4.24252468   -1.84246493   5.39464858
H   -3.19121741   -0.48628384   5.43095579
C   -5.03027834   -0.05084122   4.51220887
H   -6.11339164   -0.32916441   4.51774772
H   -4.81603911   1.05250555   4.56521030
C   -4.46175739   -0.57334594   3.13191054
H   -4.37916308   -1.71924837   3.13952061
H   -3.37744708   -0.28352210   3.17021789
C   -5.38248444   -0.05545967   2.01235053
H   -4.91431765   -0.17781958   0.98736841
H   -6.29209587   -0.57560930   2.08679978
C   -6.27869091   4.48134527   1.72322709
H   -6.31086757   5.50467630   1.32506656
H   -5.51602522   4.39775121   2.48538979
H   -7.26629177   4.16450784   2.08735607
C   -7.01403734   4.01628610   -0.56772371
H   -6.68295278   5.01175696   -0.82642708
H   -8.04537188   3.98612162   -0.23020731
H   -6.82094336   3.33000173   -1.32335757
C   -4.70571053   3.71872676   -0.00065755
H   -4.61550405   4.67560895   -0.44343969
H   -4.51908431   2.95571018   -0.73249940
H   -3.91548541   3.56547728   0.72001565
N   3.90920795   1.52065212   -0.06121034
C   4.30919860   0.98535611   1.32337466
H   5.39259649   1.33215489   1.44273157
H   3.59701546   1.43568796   2.06180160
C   4.29950178   -0.51096877   1.30373926
H   3.30976823   -0.82111411   1.02879928
H   5.00677882   -0.95353635   0.55615031
C   5.71594073   -0.60030318   5.62064262
H   6.28219110   0.31842544   5.38912908
H   4.74929416   -0.26995062   5.31115717
C   6.06068297   -1.63996412   4.56359487
H   7.11349233   -1.95530084   4.64149989
H   5.46209929   -2.56090840   4.64971321
C   5.90131569   -1.06240587   3.15324114
H   6.42783374   -1.67177158   2.44801199
H   6.30338755   -0.05672190   2.98158399
C   4.45280484   -1.15992297   2.65624610
H   4.01889364   -2.19446585   2.53703764
H   3.74133251   -0.76612592   3.34867432
C   4.86205891   1.10486968   -1.07385335
H   4.74120680   1.63693000   -1.99993692
H   4.69945547   0.02777297   -1.35653427
H   5.93327093   1.16808321   -0.80138856
C   3.85541439   3.06072142   0.03107046
H   4.68919015   3.51297745   0.52268609
H   3.03378776   3.20649619   0.71075476
H   3.65183724   3.51926591   -0.89931851
C   2.49333843   1.01862480   -0.50246648
H   2.16198008   1.67045366   -1.30048901
H   1.70402174   1.26632679   0.21417602
H   2.67615817   0.04847239   -0.79233956
O   -11.95005538   -13.15041761   1.08446604
H   -12.83886665   -13.24671251   0.73322945
H   -11.76236621   -12.21752284   1.03001593
O   -12.46771031   -19.00067857   -0.96050958
H   -12.44750209   -18.76420635   -1.89201018
H   -12.38394807   -18.12065749   -0.47293856
O   16.60689950   -0.14680408   -3.54820405
H   17.09273795   0.38988637   -4.21855180
H   16.47350346   0.39475578   -2.76216887
O   -4.13502591   -18.62118773   -3.26554273
H   -3.47073830   -18.25393855   -3.85211896
H   -3.56417832   -18.78658985   -2.50537981
O   -37.28344527   1.00836313   -2.21156069
H   -38.16294357   0.67538493   -2.23814480
H   -36.68407219   0.19598360   -2.22560545
O   -9.50946328   25.36570969   -2.39608427
H   -10.12230082   26.03688421   -2.67304031
H   -9.94387949   24.97659524   -1.59960878
O   -21.22296762   -34.50624522   -2.56732027
H   -20.32443856   -34.64538322   -2.81451051
H   -21.29491799   -21.68775126   -1.83224938
O   -12.86155223   -35.86332033   3.60643131
H   -12.86974466   -34.99948700   3.20130912
H   -13.68139157   -36.29849345   3.16634452
O   -18.48861313   -5.07631645   -2.72446033
H   -18.04320452   -5.91708013   -2.86082958
H   -17.88300516   -4.33011423   -2.57179770
O   -28.05029556   2.65018765   3.29912628
H   -27.91826342   3.58105464   3.06298107
H   -27.78344642   2.47624336   4.25981326
O   -22.77859753   -12.49768347   0.20031406
H   -22.31105912   -12.33955498   1.03911611
H   -22.20798861   -12.94680802   -0.43904009
O   9.34388925   12.27445654   2.14067875
H   8.57098880   11.84992912   2.63979931
H   -22.84850454   8.53575867   -2.78059930
O   10.69414377   -17.03955751   2.69134158
H   10.03359191   -31.14481002   2.75790182
H   11.51866419   -17.53881554   2.82059713
O   25.70750670   9.60923140   -0.51537846
H   26.70966575   9.24458971   -0.59449619
H   25.51757061   9.73157582   0.40876561
O   -13.94144577   -11.83455798   -0.94988646
H   -14.76490239   -11.19633147   -0.93269239
H   -13.21323390   -11.25414288   -1.27669094
O   0.45193890   17.79180878   0.11426472
H   6.47274431   24.46588868   -2.32592099
H   0.09898402   18.67776392   0.23715937
O   -7.37984486   5.90306383   -4.04159436
H   -7.93540407   5.78295713   -4.81916441
H   -6.49795811   5.93515258   -4.38636295
O   -3.91586546   11.17676034   -2.80584587
H   -4.41042586   10.79366087   -2.09473820
H   -3.36189119   10.53062944   -3.22138807
O   15.71012138   29.55737055   -3.68404989
H   15.32053631   29.53913566   -2.76059585
H   15.77550197   30.49149827   -3.85483097
O   -30.94402347   -12.07563061   1.62616584
H   -31.35870589   -12.27617684   2.44214989
H   -31.58109398   -11.83269642   0.97807062
O   8.10087513   20.86444754   -0.28418453
H   8.48283027   20.63130714   -1.10312032
H   8.77309645   21.29214818   0.23028599
O   -5.78178315   7.08256710   -1.04637305
H   -6.30697041   7.37829622   -1.86009694
H   -5.09770542   7.76327213   -1.08485878
O   -0.77179551   -6.37759825   2.73961605
H   -0.89120302   -5.53236221   3.15570938
H   0.12774421   -6.61878293   2.93294303
O   -17.04744806   5.45949543   -2.21741425
H   -16.73379197   4.55167234   -2.30330272
H   -17.20380883   5.67832057   -1.29713940
O   28.21481031   -0.05365160   -2.63465158
H   28.71841781   -0.39665092   -1.84630472
H   27.48172452   -0.65314259   -2.77486690
O   -11.19554472   -25.51753915   -2.80066473
H   -12.13252911   -25.68312771   -3.06769930
H   -10.72133770   -25.26571570   -3.61911555
O   16.05713502   -7.28076657   -2.28573362
H   16.31639137   -7.38154203   -1.35583570
H   -10.18632241   19.23660310   -1.03953750
O   6.37907394   -8.57944201   1.52615289
H   15.24483066   -7.75581565   -2.37829506
H   6.76612010   -8.06702813   0.79986504
O   36.73252476   -3.22879476   0.09943660
H   35.89193554   -3.44659715   -0.23530460
H   37.19610674   -4.06253211   -0.04209174
O   14.65387348   -13.66132084   2.66900456
H   14.82492499   -14.28751985   3.42190696
H   14.87202311   -12.74752091   2.79981046
O   8.86826066   3.32213355   2.03887924
H   9.12709477   4.26680731   1.82394291
H   9.50774542   2.94646778   2.66389164
O   14.33262990   -37.22581593   -1.10815770
H   13.91167155   -38.05910300   -0.87918808
H   15.21011819   -36.00729868   -0.28276615
O   -17.35854902   -3.21181866   -0.27592875
H   13.93116733   -3.58952167   -0.20961526
H   -17.23215184   -2.31276138   -0.59392033
O   15.64029753   -21.91734376   0.27450381
H   15.02822798   -21.23060006   0.56777404
H   6.97705280   -22.75254230   1.80705005
O   -8.86306723   -27.59730625   1.12674813
H   -9.68266943   -27.08607013   0.93900938
H   -8.55892267   -27.90834461   0.21694808
O   -17.39279429   -5.18430950   2.71293383
H   -17.14982578   -17.65774340   2.85590123
H   -17.42732870   -18.98788816   3.58472566
O   -50.89968724   -12.00803758   3.62787262
H   -50.86325876   -12.80100982   3.13456262
H   -50.22273647   -11.93290324   4.28173157
O   -9.04702096   9.37820996   -0.26101490
H   -8.42172910   10.12811074   -0.36189569
H   -9.19686703   9.22487657   -1.20550511
O   13.14572725   6.94065568   0.09257335
H   13.27801579   7.54124916   0.79965574
H   12.21040611   6.90239456   -0.09223284
O   15.53352050   8.31379715   -3.86027786
H   16.00255898   7.43089980   -3.81484811
H   14.61859877   8.04616181   -3.99894399
O   -4.56377396   18.70417833   -4.10203684
H   -4.09593321   19.54539785   -3.93389003
H   -3.95632190   17.90116263   -4.09909826
O   10.78159997   -18.49195186   -0.12952842
H   11.35577679   -17.83692817   0.29876698
H   11.06580928   -18.39079549   -1.03468068
O   5.94190358   11.82245670   -2.63566333
H   9.96381148   11.61334334   2.46543933
H   6.43820165   -1.32434464   -3.44853997
O   -11.86006175   23.60677878   0.34052574
H   -12.29373558   23.50659551   1.20229679
H   -11.01191610   23.22774333   0.51418705
O   -14.62236441   -2.90294777   1.77244929
H   -14.66118029   -3.27983054   0.86718618
H   -14.45855784   -1.98384659   1.86431659
O   -18.23564946   16.11138507   -3.10996125
H   -18.71237319   16.88192299   -2.69503922
H   -17.41922043   15.87474797   -2.61513656
O   -32.16711207   -7.47825034   -2.16336991
H   -31.73401913   -8.04599784   -1.55917727
H   -32.56372764   -6.69560569   -1.72393099
O   14.07516992   13.02355628   -1.54147188
H   14.76909164   13.67592245   -1.34782264
H   13.94752274   13.05166002   -2.48740150
O   -1.23299179   -3.88845108   -3.24507392
H   -1.83259388   -4.33601271   -2.54075531
H   -1.53658572   -2.99373177   -3.23773663
O   3.50158057   -4.86441027   -0.79132930
H   2.54073635   -5.19306397   -0.72303952
H   3.78343043   -4.98000261   -1.70328011
O   0.44480925   8.20496188   -1.40827467
H   -0.36478993   7.86194683   -1.03747812
H   0.14133634   8.90111270   -1.97479840
O   -21.37849854   3.34088885   -1.12755969
H   -21.43843310   2.43000584   -1.47651223
H   -20.61486400   3.36172491   -0.51970842
O   27.07072977   -7.27179299   0.47702723
H   -4.06282786   -6.70175431   0.77918334
H   -2.99958209   -20.06819288   -0.20655370
O   -6.96977123   -4.81295256   -3.22989056
H   -6.47153476   -4.63292646   -3.99430010
H   -7.53747972   -5.60619889   -3.43987069
O   -32.69522537   8.46740172   -0.93746694
H   -32.33281798   -5.28089362   -0.11990809
H   -30.51680480   3.77587947   0.56972994
O   -1.91083496   11.19537653   -0.30130842
H   -2.50682944   11.56194142   -0.92640514
H   -2.21648827   10.24023093   -0.32310769
O   11.93277084   -9.17160496   -0.15399159
H   12.08435455   -8.38501238   0.43966303
H   12.89980912   -9.49496388   -0.26518487
O   1.89307570   8.10176853   2.56291807
H   1.14134787   8.61727283   2.09091228
H   2.59315505   8.69030368   2.82122671
O   -21.23748447   15.30431528   -3.89433720
H   -21.61813123   15.47798365   -4.75478676
H   -20.45238127   15.77834799   -3.76735027
O   -12.02153537   4.77967794   -0.04818756
H   -12.93633303   4.55931636   -0.23852979
H   -12.01120015   5.74250878   0.13016239
O   20.97422651   -17.57012724   -3.37216554
H   21.15034273   -16.61502040   -3.49541771
H   20.03107919   -17.72795819   -3.64159014
O   2.27388244   -8.02266324   -2.29878089
H   2.37120934   -7.13994351   -1.92441192
H   1.38538419   -8.13974942   -2.60991808
O   -12.36358388   -16.58600524   -3.54994391
H   -12.60081452   -15.74090318   -3.16910415
H   -13.22683467   -16.91823273   -3.86687986
O   -9.75162064   19.71316384   -0.33246610
H   -10.15285304   17.69272616   0.84867279
H   -9.91051736   20.69173383   -0.49582714
O   3.07260694   -8.14297117   2.65428010
H   4.01311649   5.15549391   2.71989644
H   2.95387216   -7.16622012   2.50051535
O   15.52372267   -10.77174408   1.74680997
H   14.53855644   -10.78469049   1.58610576
H   15.85731411   -11.34792228   1.01642293
O   23.38837041   -15.71901221   -1.23038631
H   23.86400211   -16.52589871   -1.26352649
H   23.26563139   -15.44484018   -2.08684034
O   -30.03294379   23.35995747   0.95640304
H   -30.58029187   23.96201370   0.47024888
H   -29.89387820   22.62670849   0.37412284
O   -27.52639920   -2.01311557   -1.49903968
H   2.71634147   -2.94900748   -1.19394008
H   -26.60422044   -1.90511621   -1.41929941
O   3.13748231   15.73913536   -3.39207099
H   3.26717892   16.52416916   -2.83377472
H   3.10917708   15.93362036   -4.31220276
O   -6.75442616   7.92232302   1.46463682
H   -6.32717271   8.32276203   0.67939359
H   -7.69548928   8.05375546   1.27273426
O   -11.03512913   4.05106332   -2.72476844
H   -11.34324687   3.22359192   -2.40230961
H   -11.28141017   4.66133810   -1.97682481
O   -14.81247230   -3.30825570   -1.43313567
H   -14.73532022   9.67178273   -2.33772671
H   -14.45115070   -2.44150912   -1.55506539
O   -22.63991811   9.14948768   -3.46477472
H   -21.92058881   8.85274683   -4.01138239
O   -9.56361463   3.55738249   1.01480707
H   -10.17914517   2.93698219   1.38411179
