859

C   -10.69779000   -5.86175000   -7.33858000
C   -8.15928000   -5.87467000   -7.28444000
C   -9.41468000   -5.12658000   -7.79474000
H   -8.18229000   -5.89571000   -6.16941000
H   -8.10692000   -2.91317000   -8.83950000
C   -8.13408000   -2.93478000   -7.72453000
C   -9.41924000   -3.66982000   -7.27288000
H   -9.38993000   -5.10712000   -8.90978000
C   -10.67158000   -2.92136000   -7.78919000
C   -11.95871000   -3.65341000   -7.33682000
C   -11.95380000   -5.11654000   -7.85284000
H   -11.92645000   -5.10075000   -8.96789000
H   -10.72286000   -5.87937000   -6.22361000
H   -9.44673000   -3.68932000   -6.15795000
H   -10.64298000   -2.90338000   -8.90410000
H   -11.98586000   -3.66929000   -6.22179000
C   -10.67365000   -1.46425000   -7.26793000
C   -8.13741000   -1.47901000   -7.19913000
C   -9.38630000   -0.72957000   -7.71648000
C   -11.92041000   -0.71380000   -7.78920000
H   -10.70541000   -1.48244000   -6.15309000
H   -8.16710000   -1.50048000   -6.08426000
H   -11.88640000   -0.69713000   -8.90430000
H   -9.35497000   -0.71000000   -8.83154000
C   -13.21593000   -1.44108000   -7.34316000
C   -13.21474000   -2.90378000   -7.85312000
C   -13.24135000   -5.85281000   -7.39877000
C   -14.44389000   -0.66982000   -7.86503000
C   -14.48388000   -3.65011000   -7.40057000
C   -14.47881000   -5.09344000   -7.91324000
H   -14.45739000   -0.66872000   -8.97719000
H   -13.25760000   -1.45337000   -6.22965000
H   -13.19468000   -2.89136000   -8.96724000
H   -14.55970000   -3.65155000   -6.29099000
H   -14.49988000   -5.09157000   -9.02519000
H   -13.27612000   -5.86490000   -6.28507000
C   -14.43619000   0.77533000   -7.35447000
C   -13.15437000   1.49562000   -7.78601000
C   -11.91625000   0.74716000   -7.27043000
C   -10.63226000   1.47184000   -7.70952000
C   -9.38879000   0.72888000   -7.19432000
C   -8.10509000   1.45766000   -7.63152000
H   -14.51765000   0.78285000   -6.24627000
H   -11.95033000   0.74289000   -6.15748000
H   -9.42222000   0.72201000   -6.08145000
H   -13.13078000   1.56637000   -8.89592000
H   -10.59807000   1.54063000   -8.82034000
H   -8.07188000   1.53033000   -8.74206000
C   -8.15426000   5.92726000   -7.80901000
C   -9.43327000   5.19129000   -7.34937000
C   -10.69011000   5.93889000   -7.85911000
H   -8.13368000   5.94813000   -8.92414000
C   -9.42646000   3.73233000   -7.87017000
H   -9.45435000   5.17265000   -6.23413000
C   -10.70070000   3.00296000   -7.41457000
C   -11.95416000   3.74047000   -7.91622000
C   -11.96842000   5.20186000   -7.39887000
H   -9.40749000   3.73825000   -8.98342000
H   -10.66811000   5.95661000   -8.97422000
H   -11.98903000   5.18578000   -6.28343000
H   -11.93371000   3.74407000   -9.02954000
H   -10.72081000   2.93525000   -6.30336000
C   -8.17202000   2.99102000   -7.37307000
H   -8.18970000   2.92019000   -6.26211000
C   -13.23283000   5.94229000   -7.90813000
C   -13.22384000   3.00541000   -7.46197000
C   -14.49299000   5.18421000   -7.44730000
C   -14.47520000   3.73867000   -7.95651000
H   -13.21961000   5.95429000   -9.02238000
H   -14.56132000   5.18407000   -6.33719000
H   -14.50195000   3.73111000   -9.06739000
H   -13.25567000   2.93540000   -6.35221000
C   -3.09879000   -5.86175000   -7.33858000
C   -0.56028000   -5.87467000   -7.28444000
C   -1.81568000   -5.12658000   -7.79474000
H   -0.58329000   -5.89571000   -6.16941000
H   -0.50792000   -2.91317000   -8.83950000
C   -0.53508000   -2.93478000   -7.72453000
C   -1.82024000   -3.66982000   -7.27288000
H   -1.79093000   -5.10712000   -8.90978000
C   -3.07258000   -2.92136000   -7.78919000
C   -4.35971000   -3.65341000   -7.33682000
C   -4.35480000   -5.11654000   -7.85284000
H   -4.32745000   -5.10075000   -8.96789000
H   -3.12386000   -5.87937000   -6.22361000
H   -1.84773000   -3.68932000   -6.15795000
H   -3.04398000   -2.90338000   -8.90410000
H   -4.38686000   -3.66929000   -6.22179000
C   -3.07465000   -1.46425000   -7.26793000
C   -0.53841000   -1.47901000   -7.19913000
C   -1.78730000   -0.72957000   -7.71648000
C   -4.32141000   -0.71380000   -7.78920000
H   -3.10641000   -1.48244000   -6.15309000
H   -0.56810000   -1.50048000   -6.08426000
H   -4.28740000   -0.69713000   -8.90430000
H   -1.75597000   -0.71000000   -8.83154000
C   -5.61693000   -1.44108000   -7.34316000
C   -5.61574000   -2.90378000   -7.85312000
C   -5.64235000   -5.85281000   -7.39877000
C   -6.84489000   -0.66982000   -7.86503000
C   -6.88488000   -3.65011000   -7.40057000
C   -6.87981000   -5.09344000   -7.91324000
H   -6.85839000   -0.66872000   -8.97719000
H   -5.65860000   -1.45337000   -6.22965000
H   -5.59568000   -2.89136000   -8.96724000
H   -6.96070000   -3.65155000   -6.29099000
H   -6.90088000   -5.09157000   -9.02519000
H   -5.67712000   -5.86490000   -6.28507000
C   -6.83719000   0.77533000   -7.35447000
C   -5.55537000   1.49562000   -7.78601000
C   -4.31725000   0.74716000   -7.27043000
C   -3.03326000   1.47184000   -7.70952000
C   -1.78979000   0.72888000   -7.19432000
C   -0.50609000   1.45766000   -7.63152000
H   -6.91865000   0.78285000   -6.24627000
H   -4.35133000   0.74289000   -6.15748000
H   -1.82322000   0.72201000   -6.08145000
H   -5.53178000   1.56637000   -8.89592000
H   -2.99907000   1.54063000   -8.82034000
H   -0.47288000   1.53033000   -8.74206000
C   -0.55526000   5.92726000   -7.80901000
C   -1.83427000   5.19129000   -7.34937000
C   -3.09111000   5.93889000   -7.85911000
H   -0.53468000   5.94813000   -8.92414000
C   -1.82746000   3.73233000   -7.87017000
H   -1.85535000   5.17265000   -6.23413000
C   -3.10170000   3.00296000   -7.41457000
C   -4.35516000   3.74047000   -7.91622000
C   -4.36942000   5.20186000   -7.39887000
H   -1.80849000   3.73825000   -8.98342000
H   -3.06911000   5.95661000   -8.97422000
H   -4.39003000   5.18578000   -6.28343000
H   -4.33471000   3.74407000   -9.02954000
H   -3.12181000   2.93525000   -6.30336000
C   -0.57302000   2.99102000   -7.37307000
H   -0.59070000   2.92019000   -6.26211000
C   -5.63383000   5.94229000   -7.90813000
C   -5.62484000   3.00541000   -7.46197000
C   -6.89399000   5.18421000   -7.44730000
C   -6.87620000   3.73867000   -7.95651000
H   -5.62061000   5.95429000   -9.02238000
H   -6.96232000   5.18407000   -6.33719000
H   -6.90295000   3.73111000   -9.06739000
H   -5.65667000   2.93540000   -6.35221000
C   4.50021000   -5.86175000   -7.33858000
C   7.03872000   -5.87467000   -7.28444000
C   5.78332000   -5.12658000   -7.79474000
H   7.01571000   -5.89571000   -6.16941000
H   7.09108000   -2.91317000   -8.83950000
C   7.06392000   -2.93478000   -7.72453000
C   5.77876000   -3.66982000   -7.27288000
H   5.80807000   -5.10712000   -8.90978000
C   4.52642000   -2.92136000   -7.78919000
C   3.23929000   -3.65341000   -7.33682000
C   3.24420000   -5.11654000   -7.85284000
H   3.27155000   -5.10075000   -8.96789000
H   4.47514000   -5.87937000   -6.22361000
H   5.75127000   -3.68932000   -6.15795000
H   4.55502000   -2.90338000   -8.90410000
H   3.21214000   -3.66929000   -6.22179000
C   4.52435000   -1.46425000   -7.26793000
C   7.06059000   -1.47901000   -7.19913000
C   5.81170000   -0.72957000   -7.71648000
C   3.27759000   -0.71380000   -7.78920000
H   4.49259000   -1.48244000   -6.15309000
H   7.03090000   -1.50048000   -6.08426000
H   3.31160000   -0.69713000   -8.90430000
H   5.84303000   -0.71000000   -8.83154000
C   1.98207000   -1.44108000   -7.34316000
C   1.98326000   -2.90378000   -7.85312000
C   1.95665000   -5.85281000   -7.39877000
C   0.75411000   -0.66982000   -7.86503000
C   0.71412000   -3.65011000   -7.40057000
C   0.71919000   -5.09344000   -7.91324000
H   0.74061000   -0.66872000   -8.97719000
H   1.94040000   -1.45337000   -6.22965000
H   2.00332000   -2.89136000   -8.96724000
H   0.63830000   -3.65155000   -6.29099000
H   0.69812000   -5.09157000   -9.02519000
H   1.92188000   -5.86490000   -6.28507000
C   0.76181000   0.77533000   -7.35447000
C   2.04363000   1.49562000   -7.78601000
C   3.28175000   0.74716000   -7.27043000
C   4.56574000   1.47184000   -7.70952000
C   5.80921000   0.72888000   -7.19432000
C   7.09291000   1.45766000   -7.63152000
H   0.68035000   0.78285000   -6.24627000
H   3.24767000   0.74289000   -6.15748000
H   5.77578000   0.72201000   -6.08145000
H   2.06722000   1.56637000   -8.89592000
H   4.59993000   1.54063000   -8.82034000
H   7.12612000   1.53033000   -8.74206000
C   7.04374000   5.92726000   -7.80901000
C   5.76473000   5.19129000   -7.34937000
C   4.50789000   5.93889000   -7.85911000
H   7.06432000   5.94813000   -8.92414000
C   5.77154000   3.73233000   -7.87017000
H   5.74365000   5.17265000   -6.23413000
C   4.49730000   3.00296000   -7.41457000
C   3.24384000   3.74047000   -7.91622000
C   3.22958000   5.20186000   -7.39887000
H   5.79051000   3.73825000   -8.98342000
H   4.52989000   5.95661000   -8.97422000
H   3.20897000   5.18578000   -6.28343000
H   3.26429000   3.74407000   -9.02954000
H   4.47719000   2.93525000   -6.30336000
C   7.02598000   2.99102000   -7.37307000
H   7.00830000   2.92019000   -6.26211000
C   1.96517000   5.94229000   -7.90813000
C   1.97416000   3.00541000   -7.46197000
C   0.70501000   5.18421000   -7.44730000
C   0.72280000   3.73867000   -7.95651000
H   1.97839000   5.95429000   -9.02238000
H   0.63668000   5.18407000   -6.33719000
H   0.69605000   3.73111000   -9.06739000
H   1.94233000   2.93540000   -6.35221000
C   12.09921000   -5.86175000   -7.33858000
C   14.63772000   -5.87467000   -7.28444000
C   13.38232000   -5.12658000   -7.79474000
H   14.61471000   -5.89571000   -6.16941000
H   14.69008000   -2.91317000   -8.83950000
C   14.66292000   -2.93478000   -7.72453000
C   13.37776000   -3.66982000   -7.27288000
H   13.40707000   -5.10712000   -8.90978000
C   12.12542000   -2.92136000   -7.78919000
C   10.83829000   -3.65341000   -7.33682000
C   10.84320000   -5.11654000   -7.85284000
H   10.87055000   -5.10075000   -8.96789000
H   12.07414000   -5.87937000   -6.22361000
H   13.35027000   -3.68932000   -6.15795000
H   12.15402000   -2.90338000   -8.90410000
H   10.81114000   -3.66929000   -6.22179000
C   12.12335000   -1.46425000   -7.26793000
C   14.65959000   -1.47901000   -7.19913000
C   13.41070000   -0.72957000   -7.71648000
C   10.87659000   -0.71380000   -7.78920000
H   12.09159000   -1.48244000   -6.15309000
H   14.62990000   -1.50048000   -6.08426000
H   10.91060000   -0.69713000   -8.90430000
H   13.44203000   -0.71000000   -8.83154000
C   9.58107000   -1.44108000   -7.34316000
C   9.58226000   -2.90378000   -7.85312000
C   9.55565000   -5.85281000   -7.39877000
C   8.35311000   -0.66982000   -7.86503000
C   8.31312000   -3.65011000   -7.40057000
C   8.31819000   -5.09344000   -7.91324000
H   8.33961000   -0.66872000   -8.97719000
H   9.53940000   -1.45337000   -6.22965000
H   9.60232000   -2.89136000   -8.96724000
H   8.23730000   -3.65155000   -6.29099000
H   8.29712000   -5.09157000   -9.02519000
H   9.52088000   -5.86490000   -6.28507000
C   8.36081000   0.77533000   -7.35447000
C   9.64263000   1.49562000   -7.78601000
C   10.88075000   0.74716000   -7.27043000
C   12.16474000   1.47184000   -7.70952000
C   13.40821000   0.72888000   -7.19432000
C   14.69191000   1.45766000   -7.63152000
H   8.27935000   0.78285000   -6.24627000
H   10.84667000   0.74289000   -6.15748000
H   13.37478000   0.72201000   -6.08145000
H   9.66622000   1.56637000   -8.89592000
H   12.19893000   1.54063000   -8.82034000
H   14.72512000   1.53033000   -8.74206000
C   14.64274000   5.92726000   -7.80901000
C   13.36373000   5.19129000   -7.34937000
C   12.10689000   5.93889000   -7.85911000
H   14.66332000   5.94813000   -8.92414000
C   13.37054000   3.73233000   -7.87017000
H   13.34265000   5.17265000   -6.23413000
C   12.09630000   3.00296000   -7.41457000
C   10.84284000   3.74047000   -7.91622000
C   10.82858000   5.20186000   -7.39887000
H   13.38951000   3.73825000   -8.98342000
H   12.12889000   5.95661000   -8.97422000
H   10.80797000   5.18578000   -6.28343000
H   10.86329000   3.74407000   -9.02954000
H   12.07619000   2.93525000   -6.30336000
C   14.62498000   2.99102000   -7.37307000
H   14.60730000   2.92019000   -6.26211000
C   9.56417000   5.94229000   -7.90813000
C   9.57316000   3.00541000   -7.46197000
C   8.30401000   5.18421000   -7.44730000
C   8.32180000   3.73867000   -7.95651000
H   9.57739000   5.95429000   -9.02238000
H   8.23568000   5.18407000   -6.33719000
H   8.29505000   3.73111000   -9.06739000
H   9.54133000   2.93540000   -6.35221000
C   -10.69779000   -5.86175000   7.66142000
C   -8.15928000   -5.87467000   7.71556000
C   -9.41468000   -5.12658000   7.20526000
H   -8.18229000   -5.89571000   8.83059000
H   -8.10692000   -2.91317000   6.16050000
C   -8.13408000   -2.93478000   7.27547000
C   -9.41924000   -3.66982000   7.72712000
H   -9.38993000   -5.10712000   6.09022000
C   -10.67158000   -2.92136000   7.21081000
C   -11.95871000   -3.65341000   7.66318000
C   -11.95380000   -5.11654000   7.14716000
H   -11.92645000   -5.10075000   6.03211000
H   -10.72286000   -5.87937000   8.77639000
H   -9.44673000   -3.68932000   8.84205000
H   -10.64298000   -2.90338000   6.09590000
H   -11.98586000   -3.66929000   8.77821000
C   -10.67365000   -1.46425000   7.73207000
C   -8.13741000   -1.47901000   7.80087000
C   -9.38630000   -0.72957000   7.28352000
C   -11.92041000   -0.71380000   7.21080000
H   -10.70541000   -1.48244000   8.84691000
H   -8.16710000   -1.50048000   8.91574000
H   -11.88640000   -0.69713000   6.09570000
H   -9.35497000   -0.71000000   6.16846000
C   -13.21593000   -1.44108000   7.65684000
C   -13.21474000   -2.90378000   7.14688000
C   -13.24135000   -5.85281000   7.60123000
C   -14.44389000   -0.66982000   7.13497000
C   -14.48388000   -3.65011000   7.59943000
C   -14.47881000   -5.09344000   7.08676000
H   -14.45739000   -0.66872000   6.02281000
H   -13.25760000   -1.45337000   8.77035000
H   -13.19468000   -2.89136000   6.03276000
H   -14.55970000   -3.65155000   8.70901000
H   -14.49988000   -5.09157000   5.97481000
H   -13.27612000   -5.86490000   8.71493000
C   -14.43619000   0.77533000   7.64553000
C   -13.15437000   1.49562000   7.21399000
C   -11.91625000   0.74716000   7.72957000
C   -10.63226000   1.47184000   7.29048000
C   -9.38879000   0.72888000   7.80568000
C   -8.10509000   1.45766000   7.36848000
H   -14.51765000   0.78285000   8.75373000
H   -11.95033000   0.74289000   8.84252000
H   -9.42222000   0.72201000   8.91855000
H   -13.13078000   1.56637000   6.10408000
H   -10.59807000   1.54063000   6.17966000
H   -8.07188000   1.53033000   6.25794000
C   -8.15426000   5.92726000   7.19099000
C   -9.43327000   5.19129000   7.65063000
C   -10.69011000   5.93889000   7.14089000
H   -8.13368000   5.94813000   6.07586000
C   -9.42646000   3.73233000   7.12983000
H   -9.45435000   5.17265000   8.76587000
C   -10.70070000   3.00296000   7.58543000
C   -11.95416000   3.74047000   7.08378000
C   -11.96842000   5.20186000   7.60113000
H   -9.40749000   3.73825000   6.01658000
H   -10.66811000   5.95661000   6.02578000
H   -11.98903000   5.18578000   8.71657000
H   -11.93371000   3.74407000   5.97046000
H   -10.72081000   2.93525000   8.69664000
C   -8.17202000   2.99102000   7.62693000
H   -8.18970000   2.92019000   8.73789000
C   -13.23283000   5.94229000   7.09187000
C   -13.22384000   3.00541000   7.53803000
C   -14.49299000   5.18421000   7.55270000
C   -14.47520000   3.73867000   7.04349000
H   -13.21961000   5.95429000   5.97762000
H   -14.56132000   5.18407000   8.66281000
H   -14.50195000   3.73111000   5.93261000
H   -13.25567000   2.93540000   8.64779000
C   -3.09879000   -5.86175000   7.66142000
C   -0.56028000   -5.87467000   7.71556000
C   -1.81568000   -5.12658000   7.20526000
H   -0.58329000   -5.89571000   8.83059000
H   -0.50792000   -2.91317000   6.16050000
C   -0.53508000   -2.93478000   7.27547000
C   -1.82024000   -3.66982000   7.72712000
H   -1.79093000   -5.10712000   6.09022000
C   -3.07258000   -2.92136000   7.21081000
C   -4.35971000   -3.65341000   7.66318000
C   -4.35480000   -5.11654000   7.14716000
H   -4.32745000   -5.10075000   6.03211000
H   -3.12386000   -5.87937000   8.77639000
H   -1.84773000   -3.68932000   8.84205000
H   -3.04398000   -2.90338000   6.09590000
H   -4.38686000   -3.66929000   8.77821000
C   -3.07465000   -1.46425000   7.73207000
C   -0.53841000   -1.47901000   7.80087000
C   -1.78730000   -0.72957000   7.28352000
C   -4.32141000   -0.71380000   7.21080000
H   -3.10641000   -1.48244000   8.84691000
H   -0.56810000   -1.50048000   8.91574000
H   -1.75597000   -0.71000000   6.16846000
C   -5.61693000   -1.44108000   7.65684000
C   -5.61574000   -2.90378000   7.14688000
C   -5.64235000   -5.85281000   7.60123000
C   -6.84489000   -0.66982000   7.13497000
C   -6.88488000   -3.65011000   7.59943000
C   -6.87981000   -5.09344000   7.08676000
H   -6.85839000   -0.66872000   6.02281000
H   -5.65860000   -1.45337000   8.77035000
H   -5.59568000   -2.89136000   6.03276000
H   -6.96070000   -3.65155000   8.70901000
H   -6.90088000   -5.09157000   5.97481000
H   -5.67712000   -5.86490000   8.71493000
C   -6.83719000   0.77533000   7.64553000
C   -5.55537000   1.49562000   7.21399000
C   -4.31725000   0.74716000   7.72957000
C   -3.03326000   1.47184000   7.29048000
C   -1.78979000   0.72888000   7.80568000
C   -0.50609000   1.45766000   7.36848000
H   -6.91865000   0.78285000   8.75373000
H   -4.35133000   0.74289000   8.84252000
H   -1.82322000   0.72201000   8.91855000
H   -5.53178000   1.56637000   6.10408000
H   -2.99907000   1.54063000   6.17966000
H   -0.47288000   1.53033000   6.25794000
C   -0.55526000   5.92726000   7.19099000
C   -1.83427000   5.19129000   7.65063000
C   -3.09111000   5.93889000   7.14089000
H   -0.53468000   5.94813000   6.07586000
C   -1.82746000   3.73233000   7.12983000
H   -1.85535000   5.17265000   8.76587000
C   -3.10170000   3.00296000   7.58543000
C   -4.35516000   3.74047000   7.08378000
C   -4.36942000   5.20186000   7.60113000
H   -1.80849000   3.73825000   6.01658000
H   -3.06911000   5.95661000   6.02578000
H   -4.39003000   5.18578000   8.71657000
H   -4.33471000   3.74407000   5.97046000
H   -3.12181000   2.93525000   8.69664000
C   -0.57302000   2.99102000   7.62693000
H   -0.59070000   2.92019000   8.73789000
C   -5.63383000   5.94229000   7.09187000
C   -5.62484000   3.00541000   7.53803000
C   -6.89399000   5.18421000   7.55270000
C   -6.87620000   3.73867000   7.04349000
H   -5.62061000   5.95429000   5.97762000
H   -6.96232000   5.18407000   8.66281000
H   -6.90295000   3.73111000   5.93261000
H   -5.65667000   2.93540000   8.64779000
C   4.50021000   -5.86175000   7.66142000
C   7.03872000   -5.87467000   7.71556000
C   5.78332000   -5.12658000   7.20526000
H   7.01571000   -5.89571000   8.83059000
H   7.09108000   -2.91317000   6.16050000
C   7.06392000   -2.93478000   7.27547000
C   5.77876000   -3.66982000   7.72712000
H   5.80807000   -5.10712000   6.09022000
C   4.52642000   -2.92136000   7.21081000
C   3.23929000   -3.65341000   7.66318000
C   3.24420000   -5.11654000   7.14716000
H   3.27155000   -5.10075000   6.03211000
H   4.47514000   -5.87937000   8.77639000
H   5.75127000   -3.68932000   8.84205000
H   4.55502000   -2.90338000   6.09590000
H   3.21214000   -3.66929000   8.77821000
C   4.52435000   -1.46425000   7.73207000
C   7.06059000   -1.47901000   7.80087000
C   5.81170000   -0.72957000   7.28352000
C   3.27759000   -0.71380000   7.21080000
H   4.49259000   -1.48244000   8.84691000
H   7.03090000   -1.50048000   8.91574000
H   3.31160000   -0.69713000   6.09570000
C   1.98207000   -1.44108000   7.65684000
C   1.98326000   -2.90378000   7.14688000
C   1.95665000   -5.85281000   7.60123000
C   0.75411000   -0.66982000   7.13497000
C   0.71412000   -3.65011000   7.59943000
C   0.71919000   -5.09344000   7.08676000
H   0.74061000   -0.66872000   6.02281000
H   1.94040000   -1.45337000   8.77035000
H   2.00332000   -2.89136000   6.03276000
H   0.63830000   -3.65155000   8.70901000
H   0.69812000   -5.09157000   5.97481000
H   1.92188000   -5.86490000   8.71493000
C   0.76181000   0.77533000   7.64553000
C   2.04363000   1.49562000   7.21399000
C   3.28175000   0.74716000   7.72957000
C   4.56574000   1.47184000   7.29048000
C   5.80921000   0.72888000   7.80568000
C   7.09291000   1.45766000   7.36848000
H   0.68035000   0.78285000   8.75373000
H   3.24767000   0.74289000   8.84252000
H   5.77578000   0.72201000   8.91855000
H   2.06722000   1.56637000   6.10408000
H   4.59993000   1.54063000   6.17966000
H   7.12612000   1.53033000   6.25794000
C   7.04374000   5.92726000   7.19099000
C   5.76473000   5.19129000   7.65063000
C   4.50789000   5.93889000   7.14089000
H   7.06432000   5.94813000   6.07586000
C   5.77154000   3.73233000   7.12983000
H   5.74365000   5.17265000   8.76587000
C   4.49730000   3.00296000   7.58543000
C   3.24384000   3.74047000   7.08378000
C   3.22958000   5.20186000   7.60113000
H   5.79051000   3.73825000   6.01658000
H   4.52989000   5.95661000   6.02578000
H   3.20897000   5.18578000   8.71657000
H   3.26429000   3.74407000   5.97046000
H   4.47719000   2.93525000   8.69664000
C   7.02598000   2.99102000   7.62693000
H   7.00830000   2.92019000   8.73789000
C   1.96517000   5.94229000   7.09187000
C   1.97416000   3.00541000   7.53803000
C   0.70501000   5.18421000   7.55270000
C   0.72280000   3.73867000   7.04349000
H   1.97839000   5.95429000   5.97762000
H   0.63668000   5.18407000   8.66281000
H   0.69605000   3.73111000   5.93261000
H   1.94233000   2.93540000   8.64779000
C   12.09921000   -5.86175000   7.66142000
C   14.63772000   -5.87467000   7.71556000
C   13.38232000   -5.12658000   7.20526000
H   14.61471000   -5.89571000   8.83059000
H   14.69008000   -2.91317000   6.16050000
C   14.66292000   -2.93478000   7.27547000
C   13.37776000   -3.66982000   7.72712000
H   13.40707000   -5.10712000   6.09022000
C   12.12542000   -2.92136000   7.21081000
C   10.83829000   -3.65341000   7.66318000
C   10.84320000   -5.11654000   7.14716000
H   10.87055000   -5.10075000   6.03211000
H   12.07414000   -5.87937000   8.77639000
H   13.35027000   -3.68932000   8.84205000
H   12.15402000   -2.90338000   6.09590000
H   10.81114000   -3.66929000   8.77821000
C   12.12335000   -1.46425000   7.73207000
C   14.65959000   -1.47901000   7.80087000
C   13.41070000   -0.72957000   7.28352000
C   10.87659000   -0.71380000   7.21080000
H   12.09159000   -1.48244000   8.84691000
H   14.62990000   -1.50048000   8.91574000
H   10.91060000   -0.69713000   6.09570000
H   13.44203000   -0.71000000   6.16846000
C   9.58107000   -1.44108000   7.65684000
C   9.58226000   -2.90378000   7.14688000
C   9.55565000   -5.85281000   7.60123000
C   8.35311000   -0.66982000   7.13497000
C   8.31312000   -3.65011000   7.59943000
C   8.31819000   -5.09344000   7.08676000
H   8.33961000   -0.66872000   6.02281000
H   9.53940000   -1.45337000   8.77035000
H   9.60232000   -2.89136000   6.03276000
H   8.23730000   -3.65155000   8.70901000
H   8.29712000   -5.09157000   5.97481000
H   9.52088000   -5.86490000   8.71493000
C   8.36081000   0.77533000   7.64553000
C   9.64263000   1.49562000   7.21399000
C   10.88075000   0.74716000   7.72957000
C   12.16474000   1.47184000   7.29048000
C   13.40821000   0.72888000   7.80568000
C   14.69191000   1.45766000   7.36848000
H   8.27935000   0.78285000   8.75373000
H   10.84667000   0.74289000   8.84252000
H   13.37478000   0.72201000   8.91855000
H   9.66622000   1.56637000   6.10408000
H   12.19893000   1.54063000   6.17966000
H   14.72512000   1.53033000   6.25794000
C   14.64274000   5.92726000   7.19099000
C   13.36373000   5.19129000   7.65063000
C   12.10689000   5.93889000   7.14089000
H   14.66332000   5.94813000   6.07586000
C   13.37054000   3.73233000   7.12983000
H   13.34265000   5.17265000   8.76587000
C   12.09630000   3.00296000   7.58543000
C   10.84284000   3.74047000   7.08378000
C   10.82858000   5.20186000   7.60113000
H   13.38951000   3.73825000   6.01658000
H   12.12889000   5.95661000   6.02578000
H   10.80797000   5.18578000   8.71657000
H   10.86329000   3.74407000   5.97046000
H   12.07619000   2.93525000   8.69664000
C   14.62498000   2.99102000   7.62693000
H   14.60730000   2.92019000   8.73789000
C   9.56417000   5.94229000   7.09187000
C   9.57316000   3.00541000   7.53803000
C   8.30401000   5.18421000   7.55270000
C   8.32180000   3.73867000   7.04349000
H   9.57739000   5.95429000   5.97762000
H   8.23568000   5.18407000   8.66281000
H   8.29505000   3.73111000   5.93261000
H   9.54133000   2.93540000   8.64779000
N   -6.32392415   2.93774021   0.68632753
C   -5.64029975   1.70490453   1.19432324
H   -5.83827365   0.98615555   0.37395325
H   -4.60500441   1.94753635   1.32275493
C   -6.19679962   1.13204474   2.46505483
H   -5.96931242   1.76840161   3.31715124
H   -7.29714296   1.08229029   2.48340230
C   -4.27873674   -0.74768531   5.58294855
H   -5.33907666   -0.85344138   5.21790909
H   -3.88885122   -1.67279349   5.24503951
C   -3.64755365   0.28483398   4.57961270
H   -3.97005349   1.36637478   4.70530523
H   -2.57995350   0.33433825   4.69334822
C   -4.01375158   -0.10916460   3.08709839
H   -3.52350264   -1.04567616   2.74085595
H   -3.57294935   0.71086366   2.51256140
C   -5.49609153   -0.19098462   2.68701319
H   -5.61657336   -0.76167903   1.73967240
H   -6.07335633   -0.71467460   3.45626820
C   -7.83831913   2.77081637   0.52051970
H   -8.24694034   2.86047074   1.52188393
H   -8.01985738   1.80002357   0.13540100
H   -8.26173649   3.54791689   -0.14331207
C   -5.62976600   3.20365089   -0.57469136
H   -5.88611027   2.49285171   -1.38892809
H   -4.52706098   3.13268312   -0.38328656
H   -5.95467916   4.19853511   -1.07734847
C   -6.18172448   4.09661567   1.56144981
H   -6.48700669   3.82422963   2.58198895
H   -6.79331853   4.88593867   1.16027842
H   -5.13269048   4.32089354   1.63739598
N   4.17273594   -2.49388134   -1.59730832
C   5.32631813   -2.51185743   -0.53863885
H   5.53528480   -3.62983679   -0.32193482
H   6.25727609   -2.14756546   -1.10815518
C   5.05555856   -1.67466492   0.74479933
H   5.06985352   -0.59400152   0.50114372
H   4.00880343   -1.79246349   1.12338761
C   5.80758630   -0.50488394   5.57260250
H   6.38162630   0.35679576   5.28209439
H   4.81175700   -0.14931523   5.34250528
C   6.08512490   -1.56062473   4.49943416
H   7.11461925   -1.96487617   4.62286140
H   5.49407854   -2.43280256   4.72558482
C   5.69229204   -1.08044276   3.07900013
H   6.11488195   -0.05608918   2.89268956
H   4.63746409   -0.91825492   3.03270506
C   6.07026230   -1.90499230   1.84240350
H   7.09802720   -1.72127988   1.44007652
H   6.08082359   -2.95120116   2.16490252
C   2.99136017   -3.24131554   -0.96561968
H   3.22728662   -4.24096488   -0.63119183
H   2.09308648   -3.27595045   -1.67283621
H   2.63443506   -2.73746783   -0.11444446
C   4.68858865   -3.10475520   -2.89288698
H   5.19091070   -4.08950312   -2.61191124
H   5.42658841   -2.48836946   -3.31260008
H   3.81162458   -3.25313545   -3.50290061
C   3.79895010   -1.03880156   -1.91358830
H   4.59679603   -0.44293330   -2.38011287
H   3.45769092   -0.49964648   -1.05221420
H   2.99945645   -1.04883639   -2.63362115
O   1.32266459   2.44501798   2.27497866
H   1.31221894   1.73845084   2.92041750
H   0.43101956   2.20419925   1.85319707
O   -10.89985373   6.50836778   -2.17324293
H   -11.42887925   5.69853951   -2.34557905
H   -11.10315276   -6.57093551   -1.30882994
O   7.26487905   -6.52534639   3.80088455
H   7.84926776   -6.42997179   3.01690894
H   6.95025408   -5.65852511   4.03607555
O   -0.72968233   -6.01619801   2.45750341
H   -0.85476864   6.58472317   1.88557149
H   -1.61845493   -5.66845762   2.52145740
O   -9.15649844   -3.28787777   0.19945587
H   -8.50444576   -3.87778268   0.15035822
H   -9.95838715   -3.80567561   0.19719892
O   -3.89352331   -5.30796110   -3.65802330
H   -4.70727225   -4.86600451   -3.85557707
H   -3.34509187   -5.32613593   -4.45418979
O   3.56976988   3.88292545   -2.87841996
H   3.33374546   2.99902532   -3.08017060
H   2.92172480   4.31696375   -3.42247297
O   0.93137771   3.53098639   -3.75216675
H   0.36136957   2.98718355   -3.23584359
H   0.56304716   4.39139813   -3.60116619
O   -9.16617669   3.99931990   2.94709701
H   -9.46689039   3.53147160   3.72387102
H   -10.03423910   4.16579584   2.47233200
O   -1.67746640   -2.85257066   2.74566099
H   -1.38339061   -3.71593131   2.38405438
H   -2.02523313   -3.10097779   3.58027401
O   5.67828967   -6.20373314   0.42901543
H   6.00173134   6.54476793   1.11243897
H   6.34159070   -6.27351119   -0.35289905
O   6.29348238   4.45878476   -1.10487958
H   5.69431893   4.50343419   -0.37580676
H   -6.78216931   -4.44384563   1.61823111
O   0.72017992   -3.02910797   -3.59881554
H   0.45743075   -2.10047778   -3.76422130
H   -0.04624272   -3.46767074   -3.23650072
O   -8.35121442   -0.43014325   0.20944343
H   -8.06703367   -0.75060282   1.02304850
H   -9.01988342   -1.11101464   -0.03964517
O   -8.46650266   5.79591541   -0.94730360
H   -9.38848491   5.88381556   -1.28421805
H   -8.01136125   6.30213900   -1.62053221
O   -3.25894522   5.41927204   2.00430970
H   -3.56563670   6.23151231   2.45737373
H   -2.31957655   5.29855438   2.22712549
O   9.21477343   -0.05069122   1.08254368
H   9.39196484   0.21718595   2.01399726
H   -2.10301846   0.79140509   -2.13487678
O   3.55925512   3.92634567   3.23249718
H   2.93508833   3.51011242   2.59329564
H   3.17633683   4.31548717   4.02503035
O   -15.00175093   -3.25521103   1.33863076
H   -14.09399859   -3.61692088   1.41951267
H   14.82403852   -4.07700129   1.44408639
O   11.42264197   -5.00239483   1.56772558
H   10.87644850   -5.60551443   2.07697379
H   12.34481588   -5.41392209   1.38315267
O   9.71957143   5.10401283   -3.14708299
H   10.28045164   4.49328192   -2.62593256
H   9.39991667   4.61102430   -3.95016619
O   -6.90948533   0.67541699   -2.15888310
H   -7.00330198   0.13971876   -1.32691874
H   -6.18489841   0.14072684   -2.53495663
O   -4.44050811   -0.41641192   -1.55335743
H   5.88011183   3.93412667   -1.80510926
H   -3.82316483   -0.72299535   -0.83539946
O   -0.72201156   1.30591930   0.83607960
H   -1.54838087   1.77725274   0.97016127
H   13.20097494   0.02667241   -0.80117523
O   12.36218583   0.23669628   -1.19871033
H   11.93130010   -0.54798844   -1.29757005
H   -0.02808361   0.21559720   -4.33715154
O   0.10166385   0.12082134   3.10690541
H   -0.43115094   -0.57852296   3.49309824
H   -0.26013841   0.37937613   2.16603300
O   -13.65794192   -6.47604326   -1.11309086
H   -13.41862322   -5.62397589   -1.54896934
H   -10.79166953   3.25372376   -0.95031582
O   -15.11599405   -0.61036332   -0.90543396
H   -13.07719717   -6.47170251   -0.37851016
H   15.13286532   -1.53085929   -0.75030481
O   0.82771461   6.17838431   -2.55145923
H   0.09220327   6.45149417   -1.95858371
H   1.52193678   6.62732004   -2.13960536
O   -14.79500104   4.73442731   1.01517927
H   15.13150135   4.48462852   1.80831108
H   14.89200891   4.86394529   0.43302726
O   -1.50056295   -0.71225323   -0.65372942
H   -1.25281225   0.12255187   -0.08779724
H   -0.66872889   -1.02190785   -1.05924697
O   -0.42463169   4.67725707   3.39643877
H   0.23107679   5.23853585   3.92679003
H   -0.27061984   3.78222249   3.51726685
O   -9.78399333   -1.94111357   -2.02859562
H   -9.70080627   -2.78678994   -2.53258541
H   -10.73732823   -1.73134299   -1.83407910
O   10.02365535   -4.38300388   -0.77235991
H   10.89973651   -4.67839682   -1.10131501
H   10.15798050   -4.28847183   0.19493400
O   11.14221498   2.69160979   -2.15023252
H   11.84031965   3.27952180   -1.93634750
H   11.40766348   1.82038611   -1.79803492
O   -7.61428640   -3.71154465   3.88005103
H   -8.45424247   -4.23471447   3.91848118
H   -6.82595158   -4.30499614   3.92303998
O   12.24765351   2.41861970   1.26448869
H   12.65380547   2.24309347   0.41999058
H   12.66818096   1.77788249   1.87720401
O   -14.15732225   -0.80287822   2.77163855
H   -13.58555068   -1.56308110   3.03554653
H   8.84383631   0.75085312   0.71613653
O   0.09967996   1.98425853   -1.56764316
H   -0.47043217   1.72642706   -0.69243765
H   0.96526025   2.32765577   -1.22840782
O   5.16152260   -6.22218301   -3.07215416
H   5.01870976   6.21827611   -3.04963705
H   6.10657965   -6.09571054   -2.91569874
O   14.75653413   4.53749019   -1.82902176
H   -15.03713042   3.84941457   -1.50967365
H   -15.12724622   5.36537954   -1.88426989
O   -0.93446601   4.57436394   0.39348919
H   -1.86283003   4.67487392   0.22931489
H   -0.90225546   3.71761227   0.85025286
O   -5.95919721   -2.57458479   -3.23703917
H   -5.47867712   -1.86199249   -2.74865027
H   -6.87353468   -2.48677708   -2.81445481
O   1.90956147   -0.97216779   0.89012841
H   1.45691348   -1.03619964   1.76460831
H   1.38813527   -0.32360196   0.44648115
O   -13.50258764   2.14227388   -1.35667295
H   -14.47114423   2.30533250   -1.51798195
H   -13.25820807   2.12966042   -0.45476714
O   -9.82403519   1.17676955   -2.70368920
H   -9.94121826   0.27061239   -2.42050639
H   -8.95256255   1.33770949   -2.22366699
O   -4.68474930   5.73427634   -2.42554690
H   -4.67972631   6.65604035   -2.51944587
H   -3.97872403   5.43678727   -2.98344903
O   -12.75156790   -4.37138794   2.28920639
H   -12.22944046   -4.87576010   1.58530987
H   -14.90680788   -1.21651355   2.26846029
O   -10.31411976   -2.47856989   3.32265089
H   -9.80191183   -3.08886338   2.71475878
H   -10.50053873   -3.01012196   4.05661907
O   3.78724421   2.25231452   -0.28042554
H   3.10531854   2.47607356   0.40648894
H   3.66377541   2.87549818   -0.98882820
O   12.72892724   4.97289700   2.94811135
H   12.17005032   4.24615807   2.74816269
H   12.87394915   5.52236006   2.18389416
O   -10.01154597   -5.63458698   2.97910464
H   -3.83631179   -0.67016787   -2.27464391
H   -10.87541359   -5.40399038   3.35276220
O   -11.58574993   3.74885041   -3.16493766
H   -11.05874319   3.34288768   -3.85642848
H   -12.04113181   3.02940934   -2.65158762
O   -12.14611572   -3.96737737   -1.18182708
H   -12.00861466   -4.61958751   -0.43457442
H   -12.74584677   -3.22302255   -1.00741453
O   -9.10818816   -4.97345805   -3.19321412
H   -9.80370187   -5.44530271   -3.60064862
H   -9.36734520   -5.01366108   -2.27811404
O   14.21028944   -5.95353375   0.82791956
H   14.06665324   -5.93571382   -0.15954401
H   14.74687497   -6.66869700   1.00664121
O   12.23300598   5.19012606   -0.33604267
H   12.88414159   5.18584070   -1.04713460
H   12.00042569   4.28212982   -0.13648488
O   10.03888878   4.06087450   3.37947764
H   9.51607258   3.37989860   3.93135743
H   9.50227874   4.89417162   3.20810908
O   14.74358033   1.67149069   0.85191210
H   15.02722490   0.80172168   0.58594725
H   15.09039492   1.99146297   1.66548396
O   8.89024451   6.15816520   1.13966942
H   9.58126707   6.43274846   0.56707551
H   8.17443186   6.01265811   0.54254766
O   -11.24541934   -0.91878230   0.60650801
H   -10.60503134   -1.64216914   0.67832768
H   -11.87341921   -1.04373371   1.36049996
O   8.42504463   1.50412590   -3.57483191
H   8.94727827   1.72838256   -2.87084849
H   8.70691264   0.67388952   -3.93080268
O   -2.46136624   1.47307082   -2.79903448
H   10.72497126   -1.54452471   0.41255483
H   -1.87249590   2.25414557   -2.78728582
O   -11.50937192   -5.83912731   0.68977756
H   0.04748977   0.63398654   -2.82656998
H   -11.76553891   6.63901149   0.81330287
O   -7.56742115   6.50686559   3.76840928
H   -8.39206287   -6.34822500   3.70222577
H   -8.02196866   5.65864011   3.81811190
O   -4.06695180   -4.98348822   1.59429845
H   -4.86197079   -4.39361510   1.60267224
H   -3.60534662   -4.75869807   0.74849754
O   7.92700828   -6.18233027   -1.55624756
H   8.67396115   -5.66835927   -1.21154921
H   8.22156594   6.43819753   -1.99327830
O   8.01269252   -1.13268338   -1.33314086
H   8.21228085   -0.83083034   -0.42611519
H   8.89629688   -1.57902587   -1.62198063
O   -10.77209977   3.64181297   -0.06366340
H   -11.18514406   4.45608683   -0.20800844
H   -10.24496246   -5.56550149   2.02081567
O   -9.67497391   0.80765100   2.57896867
H   -9.88179730   0.23917918   3.30957063
H   -10.04713195   0.47016040   1.74043587
O   11.68078927   -1.80407546   0.45592204
H   11.71216819   -2.59605612   1.05838269
H   -15.16848647   -0.35696577   -1.83413330
O   8.10013230   2.40536539   -0.04051432
H   7.90022136   3.18937799   0.51688107
H   7.37712454   2.46864397   -0.66902142
O   6.05493832   4.63477291   2.11582359
H   6.15478228   5.01437103   2.96725000
H   5.12835400   4.42325812   2.06152349
O   -6.42687964   -3.58321258   1.34286492
H   -7.15199936   -3.00661296   1.52712212
O   0.18216488   -0.11217118   -3.43414637
H   -13.14827006   -5.01849654   2.86633454
