859

C   -10.69779000   -5.86175000   -7.33858000
C   -8.15928000   -5.87467000   -7.28444000
C   -9.41468000   -5.12658000   -7.79474000
H   -8.18229000   -5.89571000   -6.16941000
H   -8.10692000   -2.91317000   -8.83950000
C   -8.13408000   -2.93478000   -7.72453000
C   -9.41924000   -3.66982000   -7.27288000
H   -9.38993000   -5.10712000   -8.90978000
C   -10.67158000   -2.92136000   -7.78919000
C   -11.95871000   -3.65341000   -7.33682000
C   -11.95380000   -5.11654000   -7.85284000
H   -11.92645000   -5.10075000   -8.96789000
H   -10.72286000   -5.87937000   -6.22361000
H   -9.44673000   -3.68932000   -6.15795000
H   -10.64298000   -2.90338000   -8.90410000
H   -11.98586000   -3.66929000   -6.22179000
C   -10.67365000   -1.46425000   -7.26793000
C   -8.13741000   -1.47901000   -7.19913000
C   -9.38630000   -0.72957000   -7.71648000
C   -11.92041000   -0.71380000   -7.78920000
H   -10.70541000   -1.48244000   -6.15309000
H   -8.16710000   -1.50048000   -6.08426000
H   -11.88640000   -0.69713000   -8.90430000
H   -9.35497000   -0.71000000   -8.83154000
C   -13.21593000   -1.44108000   -7.34316000
C   -13.21474000   -2.90378000   -7.85312000
C   -13.24135000   -5.85281000   -7.39877000
C   -14.44389000   -0.66982000   -7.86503000
C   -14.48388000   -3.65011000   -7.40057000
C   -14.47881000   -5.09344000   -7.91324000
H   -14.45739000   -0.66872000   -8.97719000
H   -13.25760000   -1.45337000   -6.22965000
H   -13.19468000   -2.89136000   -8.96724000
H   -14.55970000   -3.65155000   -6.29099000
H   -14.49988000   -5.09157000   -9.02519000
H   -13.27612000   -5.86490000   -6.28507000
C   -14.43619000   0.77533000   -7.35447000
C   -13.15437000   1.49562000   -7.78601000
C   -11.91625000   0.74716000   -7.27043000
C   -10.63226000   1.47184000   -7.70952000
C   -9.38879000   0.72888000   -7.19432000
C   -8.10509000   1.45766000   -7.63152000
H   -14.51765000   0.78285000   -6.24627000
H   -11.95033000   0.74289000   -6.15748000
H   -9.42222000   0.72201000   -6.08145000
H   -13.13078000   1.56637000   -8.89592000
H   -10.59807000   1.54063000   -8.82034000
H   -8.07188000   1.53033000   -8.74206000
C   -8.15426000   5.92726000   -7.80901000
C   -9.43327000   5.19129000   -7.34937000
C   -10.69011000   5.93889000   -7.85911000
H   -8.13368000   5.94813000   -8.92414000
C   -9.42646000   3.73233000   -7.87017000
H   -9.45435000   5.17265000   -6.23413000
C   -10.70070000   3.00296000   -7.41457000
C   -11.95416000   3.74047000   -7.91622000
C   -11.96842000   5.20186000   -7.39887000
H   -9.40749000   3.73825000   -8.98342000
H   -10.66811000   5.95661000   -8.97422000
H   -11.98903000   5.18578000   -6.28343000
H   -11.93371000   3.74407000   -9.02954000
H   -10.72081000   2.93525000   -6.30336000
C   -8.17202000   2.99102000   -7.37307000
H   -8.18970000   2.92019000   -6.26211000
C   -13.23283000   5.94229000   -7.90813000
C   -13.22384000   3.00541000   -7.46197000
C   -14.49299000   5.18421000   -7.44730000
C   -14.47520000   3.73867000   -7.95651000
H   -13.21961000   5.95429000   -9.02238000
H   -14.56132000   5.18407000   -6.33719000
H   -14.50195000   3.73111000   -9.06739000
H   -13.25567000   2.93540000   -6.35221000
C   -3.09879000   -5.86175000   -7.33858000
C   -0.56028000   -5.87467000   -7.28444000
C   -1.81568000   -5.12658000   -7.79474000
H   -0.58329000   -5.89571000   -6.16941000
H   -0.50792000   -2.91317000   -8.83950000
C   -0.53508000   -2.93478000   -7.72453000
C   -1.82024000   -3.66982000   -7.27288000
H   -1.79093000   -5.10712000   -8.90978000
C   -3.07258000   -2.92136000   -7.78919000
C   -4.35971000   -3.65341000   -7.33682000
C   -4.35480000   -5.11654000   -7.85284000
H   -4.32745000   -5.10075000   -8.96789000
H   -3.12386000   -5.87937000   -6.22361000
H   -1.84773000   -3.68932000   -6.15795000
H   -3.04398000   -2.90338000   -8.90410000
H   -4.38686000   -3.66929000   -6.22179000
C   -3.07465000   -1.46425000   -7.26793000
C   -0.53841000   -1.47901000   -7.19913000
C   -1.78730000   -0.72957000   -7.71648000
C   -4.32141000   -0.71380000   -7.78920000
H   -3.10641000   -1.48244000   -6.15309000
H   -0.56810000   -1.50048000   -6.08426000
H   -4.28740000   -0.69713000   -8.90430000
H   -1.75597000   -0.71000000   -8.83154000
C   -5.61693000   -1.44108000   -7.34316000
C   -5.61574000   -2.90378000   -7.85312000
C   -5.64235000   -5.85281000   -7.39877000
C   -6.84489000   -0.66982000   -7.86503000
C   -6.88488000   -3.65011000   -7.40057000
C   -6.87981000   -5.09344000   -7.91324000
H   -6.85839000   -0.66872000   -8.97719000
H   -5.65860000   -1.45337000   -6.22965000
H   -5.59568000   -2.89136000   -8.96724000
H   -6.96070000   -3.65155000   -6.29099000
H   -6.90088000   -5.09157000   -9.02519000
H   -5.67712000   -5.86490000   -6.28507000
C   -6.83719000   0.77533000   -7.35447000
C   -5.55537000   1.49562000   -7.78601000
C   -4.31725000   0.74716000   -7.27043000
C   -3.03326000   1.47184000   -7.70952000
C   -1.78979000   0.72888000   -7.19432000
C   -0.50609000   1.45766000   -7.63152000
H   -6.91865000   0.78285000   -6.24627000
H   -4.35133000   0.74289000   -6.15748000
H   -1.82322000   0.72201000   -6.08145000
H   -5.53178000   1.56637000   -8.89592000
H   -2.99907000   1.54063000   -8.82034000
H   -0.47288000   1.53033000   -8.74206000
C   -0.55526000   5.92726000   -7.80901000
C   -1.83427000   5.19129000   -7.34937000
C   -3.09111000   5.93889000   -7.85911000
H   -0.53468000   5.94813000   -8.92414000
C   -1.82746000   3.73233000   -7.87017000
H   -1.85535000   5.17265000   -6.23413000
C   -3.10170000   3.00296000   -7.41457000
C   -4.35516000   3.74047000   -7.91622000
C   -4.36942000   5.20186000   -7.39887000
H   -1.80849000   3.73825000   -8.98342000
H   -3.06911000   5.95661000   -8.97422000
H   -4.39003000   5.18578000   -6.28343000
H   -4.33471000   3.74407000   -9.02954000
H   -3.12181000   2.93525000   -6.30336000
C   -0.57302000   2.99102000   -7.37307000
H   -0.59070000   2.92019000   -6.26211000
C   -5.63383000   5.94229000   -7.90813000
C   -5.62484000   3.00541000   -7.46197000
C   -6.89399000   5.18421000   -7.44730000
C   -6.87620000   3.73867000   -7.95651000
H   -5.62061000   5.95429000   -9.02238000
H   -6.96232000   5.18407000   -6.33719000
H   -6.90295000   3.73111000   -9.06739000
H   -5.65667000   2.93540000   -6.35221000
C   4.50021000   -5.86175000   -7.33858000
C   7.03872000   -5.87467000   -7.28444000
C   5.78332000   -5.12658000   -7.79474000
H   7.01571000   -5.89571000   -6.16941000
H   7.09108000   -2.91317000   -8.83950000
C   7.06392000   -2.93478000   -7.72453000
C   5.77876000   -3.66982000   -7.27288000
H   5.80807000   -5.10712000   -8.90978000
C   4.52642000   -2.92136000   -7.78919000
C   3.23929000   -3.65341000   -7.33682000
C   3.24420000   -5.11654000   -7.85284000
H   3.27155000   -5.10075000   -8.96789000
H   4.47514000   -5.87937000   -6.22361000
H   5.75127000   -3.68932000   -6.15795000
H   4.55502000   -2.90338000   -8.90410000
H   3.21214000   -3.66929000   -6.22179000
C   4.52435000   -1.46425000   -7.26793000
C   7.06059000   -1.47901000   -7.19913000
C   5.81170000   -0.72957000   -7.71648000
C   3.27759000   -0.71380000   -7.78920000
H   4.49259000   -1.48244000   -6.15309000
H   7.03090000   -1.50048000   -6.08426000
H   3.31160000   -0.69713000   -8.90430000
H   5.84303000   -0.71000000   -8.83154000
C   1.98207000   -1.44108000   -7.34316000
C   1.98326000   -2.90378000   -7.85312000
C   1.95665000   -5.85281000   -7.39877000
C   0.75411000   -0.66982000   -7.86503000
C   0.71412000   -3.65011000   -7.40057000
C   0.71919000   -5.09344000   -7.91324000
H   0.74061000   -0.66872000   -8.97719000
H   1.94040000   -1.45337000   -6.22965000
H   2.00332000   -2.89136000   -8.96724000
H   0.63830000   -3.65155000   -6.29099000
H   0.69812000   -5.09157000   -9.02519000
H   1.92188000   -5.86490000   -6.28507000
C   0.76181000   0.77533000   -7.35447000
C   2.04363000   1.49562000   -7.78601000
C   3.28175000   0.74716000   -7.27043000
C   4.56574000   1.47184000   -7.70952000
C   5.80921000   0.72888000   -7.19432000
C   7.09291000   1.45766000   -7.63152000
H   0.68035000   0.78285000   -6.24627000
H   3.24767000   0.74289000   -6.15748000
H   5.77578000   0.72201000   -6.08145000
H   2.06722000   1.56637000   -8.89592000
H   4.59993000   1.54063000   -8.82034000
H   7.12612000   1.53033000   -8.74206000
C   7.04374000   5.92726000   -7.80901000
C   5.76473000   5.19129000   -7.34937000
C   4.50789000   5.93889000   -7.85911000
H   7.06432000   5.94813000   -8.92414000
C   5.77154000   3.73233000   -7.87017000
H   5.74365000   5.17265000   -6.23413000
C   4.49730000   3.00296000   -7.41457000
C   3.24384000   3.74047000   -7.91622000
C   3.22958000   5.20186000   -7.39887000
H   5.79051000   3.73825000   -8.98342000
H   4.52989000   5.95661000   -8.97422000
H   3.20897000   5.18578000   -6.28343000
H   3.26429000   3.74407000   -9.02954000
H   4.47719000   2.93525000   -6.30336000
C   7.02598000   2.99102000   -7.37307000
H   7.00830000   2.92019000   -6.26211000
C   1.96517000   5.94229000   -7.90813000
C   1.97416000   3.00541000   -7.46197000
C   0.70501000   5.18421000   -7.44730000
C   0.72280000   3.73867000   -7.95651000
H   1.97839000   5.95429000   -9.02238000
H   0.63668000   5.18407000   -6.33719000
H   0.69605000   3.73111000   -9.06739000
H   1.94233000   2.93540000   -6.35221000
C   12.09921000   -5.86175000   -7.33858000
C   14.63772000   -5.87467000   -7.28444000
C   13.38232000   -5.12658000   -7.79474000
H   14.61471000   -5.89571000   -6.16941000
H   14.69008000   -2.91317000   -8.83950000
C   14.66292000   -2.93478000   -7.72453000
C   13.37776000   -3.66982000   -7.27288000
H   13.40707000   -5.10712000   -8.90978000
C   12.12542000   -2.92136000   -7.78919000
C   10.83829000   -3.65341000   -7.33682000
C   10.84320000   -5.11654000   -7.85284000
H   10.87055000   -5.10075000   -8.96789000
H   12.07414000   -5.87937000   -6.22361000
H   13.35027000   -3.68932000   -6.15795000
H   12.15402000   -2.90338000   -8.90410000
H   10.81114000   -3.66929000   -6.22179000
C   12.12335000   -1.46425000   -7.26793000
C   14.65959000   -1.47901000   -7.19913000
C   13.41070000   -0.72957000   -7.71648000
C   10.87659000   -0.71380000   -7.78920000
H   12.09159000   -1.48244000   -6.15309000
H   14.62990000   -1.50048000   -6.08426000
H   10.91060000   -0.69713000   -8.90430000
H   13.44203000   -0.71000000   -8.83154000
C   9.58107000   -1.44108000   -7.34316000
C   9.58226000   -2.90378000   -7.85312000
C   9.55565000   -5.85281000   -7.39877000
C   8.35311000   -0.66982000   -7.86503000
C   8.31312000   -3.65011000   -7.40057000
C   8.31819000   -5.09344000   -7.91324000
H   8.33961000   -0.66872000   -8.97719000
H   9.53940000   -1.45337000   -6.22965000
H   9.60232000   -2.89136000   -8.96724000
H   8.23730000   -3.65155000   -6.29099000
H   8.29712000   -5.09157000   -9.02519000
H   9.52088000   -5.86490000   -6.28507000
C   8.36081000   0.77533000   -7.35447000
C   9.64263000   1.49562000   -7.78601000
C   10.88075000   0.74716000   -7.27043000
C   12.16474000   1.47184000   -7.70952000
C   13.40821000   0.72888000   -7.19432000
C   14.69191000   1.45766000   -7.63152000
H   8.27935000   0.78285000   -6.24627000
H   10.84667000   0.74289000   -6.15748000
H   13.37478000   0.72201000   -6.08145000
H   9.66622000   1.56637000   -8.89592000
H   12.19893000   1.54063000   -8.82034000
H   14.72512000   1.53033000   -8.74206000
C   14.64274000   5.92726000   -7.80901000
C   13.36373000   5.19129000   -7.34937000
C   12.10689000   5.93889000   -7.85911000
H   14.66332000   5.94813000   -8.92414000
C   13.37054000   3.73233000   -7.87017000
H   13.34265000   5.17265000   -6.23413000
C   12.09630000   3.00296000   -7.41457000
C   10.84284000   3.74047000   -7.91622000
C   10.82858000   5.20186000   -7.39887000
H   13.38951000   3.73825000   -8.98342000
H   12.12889000   5.95661000   -8.97422000
H   10.80797000   5.18578000   -6.28343000
H   10.86329000   3.74407000   -9.02954000
H   12.07619000   2.93525000   -6.30336000
C   14.62498000   2.99102000   -7.37307000
H   14.60730000   2.92019000   -6.26211000
C   9.56417000   5.94229000   -7.90813000
C   9.57316000   3.00541000   -7.46197000
C   8.30401000   5.18421000   -7.44730000
C   8.32180000   3.73867000   -7.95651000
H   9.57739000   5.95429000   -9.02238000
H   8.23568000   5.18407000   -6.33719000
H   8.29505000   3.73111000   -9.06739000
H   9.54133000   2.93540000   -6.35221000
C   -10.69779000   -5.86175000   7.66142000
C   -8.15928000   -5.87467000   7.71556000
C   -9.41468000   -5.12658000   7.20526000
H   -8.18229000   -5.89571000   8.83059000
H   -8.10692000   -2.91317000   6.16050000
C   -8.13408000   -2.93478000   7.27547000
C   -9.41924000   -3.66982000   7.72712000
H   -9.38993000   -5.10712000   6.09022000
C   -10.67158000   -2.92136000   7.21081000
C   -11.95871000   -3.65341000   7.66318000
C   -11.95380000   -5.11654000   7.14716000
H   -11.92645000   -5.10075000   6.03211000
H   -10.72286000   -5.87937000   8.77639000
H   -9.44673000   -3.68932000   8.84205000
H   -10.64298000   -2.90338000   6.09590000
H   -11.98586000   -3.66929000   8.77821000
C   -10.67365000   -1.46425000   7.73207000
C   -8.13741000   -1.47901000   7.80087000
C   -9.38630000   -0.72957000   7.28352000
C   -11.92041000   -0.71380000   7.21080000
H   -10.70541000   -1.48244000   8.84691000
H   -8.16710000   -1.50048000   8.91574000
H   -11.88640000   -0.69713000   6.09570000
H   -9.35497000   -0.71000000   6.16846000
C   -13.21593000   -1.44108000   7.65684000
C   -13.21474000   -2.90378000   7.14688000
C   -13.24135000   -5.85281000   7.60123000
C   -14.44389000   -0.66982000   7.13497000
C   -14.48388000   -3.65011000   7.59943000
C   -14.47881000   -5.09344000   7.08676000
H   -14.45739000   -0.66872000   6.02281000
H   -13.25760000   -1.45337000   8.77035000
H   -13.19468000   -2.89136000   6.03276000
H   -14.55970000   -3.65155000   8.70901000
H   -14.49988000   -5.09157000   5.97481000
H   -13.27612000   -5.86490000   8.71493000
C   -14.43619000   0.77533000   7.64553000
C   -13.15437000   1.49562000   7.21399000
C   -11.91625000   0.74716000   7.72957000
C   -10.63226000   1.47184000   7.29048000
C   -9.38879000   0.72888000   7.80568000
C   -8.10509000   1.45766000   7.36848000
H   -14.51765000   0.78285000   8.75373000
H   -11.95033000   0.74289000   8.84252000
H   -9.42222000   0.72201000   8.91855000
H   -13.13078000   1.56637000   6.10408000
H   -10.59807000   1.54063000   6.17966000
H   -8.07188000   1.53033000   6.25794000
C   -8.15426000   5.92726000   7.19099000
C   -9.43327000   5.19129000   7.65063000
C   -10.69011000   5.93889000   7.14089000
H   -8.13368000   5.94813000   6.07586000
C   -9.42646000   3.73233000   7.12983000
H   -9.45435000   5.17265000   8.76587000
C   -10.70070000   3.00296000   7.58543000
C   -11.95416000   3.74047000   7.08378000
C   -11.96842000   5.20186000   7.60113000
H   -9.40749000   3.73825000   6.01658000
H   -10.66811000   5.95661000   6.02578000
H   -11.98903000   5.18578000   8.71657000
H   -11.93371000   3.74407000   5.97046000
H   -10.72081000   2.93525000   8.69664000
C   -8.17202000   2.99102000   7.62693000
H   -8.18970000   2.92019000   8.73789000
C   -13.23283000   5.94229000   7.09187000
C   -13.22384000   3.00541000   7.53803000
C   -14.49299000   5.18421000   7.55270000
C   -14.47520000   3.73867000   7.04349000
H   -13.21961000   5.95429000   5.97762000
H   -14.56132000   5.18407000   8.66281000
H   -14.50195000   3.73111000   5.93261000
H   -13.25567000   2.93540000   8.64779000
C   -3.09879000   -5.86175000   7.66142000
C   -0.56028000   -5.87467000   7.71556000
C   -1.81568000   -5.12658000   7.20526000
H   -0.58329000   -5.89571000   8.83059000
H   -0.50792000   -2.91317000   6.16050000
C   -0.53508000   -2.93478000   7.27547000
C   -1.82024000   -3.66982000   7.72712000
H   -1.79093000   -5.10712000   6.09022000
C   -3.07258000   -2.92136000   7.21081000
C   -4.35971000   -3.65341000   7.66318000
C   -4.35480000   -5.11654000   7.14716000
H   -4.32745000   -5.10075000   6.03211000
H   -3.12386000   -5.87937000   8.77639000
H   -1.84773000   -3.68932000   8.84205000
H   -3.04398000   -2.90338000   6.09590000
H   -4.38686000   -3.66929000   8.77821000
C   -3.07465000   -1.46425000   7.73207000
C   -0.53841000   -1.47901000   7.80087000
C   -1.78730000   -0.72957000   7.28352000
C   -4.32141000   -0.71380000   7.21080000
H   -3.10641000   -1.48244000   8.84691000
H   -0.56810000   -1.50048000   8.91574000
H   -1.75597000   -0.71000000   6.16846000
C   -5.61693000   -1.44108000   7.65684000
C   -5.61574000   -2.90378000   7.14688000
C   -5.64235000   -5.85281000   7.60123000
C   -6.84489000   -0.66982000   7.13497000
C   -6.88488000   -3.65011000   7.59943000
C   -6.87981000   -5.09344000   7.08676000
H   -6.85839000   -0.66872000   6.02281000
H   -5.65860000   -1.45337000   8.77035000
H   -5.59568000   -2.89136000   6.03276000
H   -6.96070000   -3.65155000   8.70901000
H   -6.90088000   -5.09157000   5.97481000
H   -5.67712000   -5.86490000   8.71493000
C   -6.83719000   0.77533000   7.64553000
C   -5.55537000   1.49562000   7.21399000
C   -4.31725000   0.74716000   7.72957000
C   -3.03326000   1.47184000   7.29048000
C   -1.78979000   0.72888000   7.80568000
C   -0.50609000   1.45766000   7.36848000
H   -6.91865000   0.78285000   8.75373000
H   -4.35133000   0.74289000   8.84252000
H   -1.82322000   0.72201000   8.91855000
H   -5.53178000   1.56637000   6.10408000
H   -2.99907000   1.54063000   6.17966000
H   -0.47288000   1.53033000   6.25794000
C   -0.55526000   5.92726000   7.19099000
C   -1.83427000   5.19129000   7.65063000
C   -3.09111000   5.93889000   7.14089000
H   -0.53468000   5.94813000   6.07586000
C   -1.82746000   3.73233000   7.12983000
H   -1.85535000   5.17265000   8.76587000
C   -3.10170000   3.00296000   7.58543000
C   -4.35516000   3.74047000   7.08378000
C   -4.36942000   5.20186000   7.60113000
H   -1.80849000   3.73825000   6.01658000
H   -3.06911000   5.95661000   6.02578000
H   -4.39003000   5.18578000   8.71657000
H   -4.33471000   3.74407000   5.97046000
H   -3.12181000   2.93525000   8.69664000
C   -0.57302000   2.99102000   7.62693000
H   -0.59070000   2.92019000   8.73789000
C   -5.63383000   5.94229000   7.09187000
C   -5.62484000   3.00541000   7.53803000
C   -6.89399000   5.18421000   7.55270000
C   -6.87620000   3.73867000   7.04349000
H   -5.62061000   5.95429000   5.97762000
H   -6.96232000   5.18407000   8.66281000
H   -6.90295000   3.73111000   5.93261000
H   -5.65667000   2.93540000   8.64779000
C   4.50021000   -5.86175000   7.66142000
C   7.03872000   -5.87467000   7.71556000
C   5.78332000   -5.12658000   7.20526000
H   7.01571000   -5.89571000   8.83059000
H   7.09108000   -2.91317000   6.16050000
C   7.06392000   -2.93478000   7.27547000
C   5.77876000   -3.66982000   7.72712000
H   5.80807000   -5.10712000   6.09022000
C   4.52642000   -2.92136000   7.21081000
C   3.23929000   -3.65341000   7.66318000
C   3.24420000   -5.11654000   7.14716000
H   3.27155000   -5.10075000   6.03211000
H   4.47514000   -5.87937000   8.77639000
H   5.75127000   -3.68932000   8.84205000
H   4.55502000   -2.90338000   6.09590000
H   3.21214000   -3.66929000   8.77821000
C   4.52435000   -1.46425000   7.73207000
C   7.06059000   -1.47901000   7.80087000
C   5.81170000   -0.72957000   7.28352000
C   3.27759000   -0.71380000   7.21080000
H   4.49259000   -1.48244000   8.84691000
H   7.03090000   -1.50048000   8.91574000
H   3.31160000   -0.69713000   6.09570000
C   1.98207000   -1.44108000   7.65684000
C   1.98326000   -2.90378000   7.14688000
C   1.95665000   -5.85281000   7.60123000
C   0.75411000   -0.66982000   7.13497000
C   0.71412000   -3.65011000   7.59943000
C   0.71919000   -5.09344000   7.08676000
H   0.74061000   -0.66872000   6.02281000
H   1.94040000   -1.45337000   8.77035000
H   2.00332000   -2.89136000   6.03276000
H   0.63830000   -3.65155000   8.70901000
H   0.69812000   -5.09157000   5.97481000
H   1.92188000   -5.86490000   8.71493000
C   0.76181000   0.77533000   7.64553000
C   2.04363000   1.49562000   7.21399000
C   3.28175000   0.74716000   7.72957000
C   4.56574000   1.47184000   7.29048000
C   5.80921000   0.72888000   7.80568000
C   7.09291000   1.45766000   7.36848000
H   0.68035000   0.78285000   8.75373000
H   3.24767000   0.74289000   8.84252000
H   5.77578000   0.72201000   8.91855000
H   2.06722000   1.56637000   6.10408000
H   4.59993000   1.54063000   6.17966000
H   7.12612000   1.53033000   6.25794000
C   7.04374000   5.92726000   7.19099000
C   5.76473000   5.19129000   7.65063000
C   4.50789000   5.93889000   7.14089000
H   7.06432000   5.94813000   6.07586000
C   5.77154000   3.73233000   7.12983000
H   5.74365000   5.17265000   8.76587000
C   4.49730000   3.00296000   7.58543000
C   3.24384000   3.74047000   7.08378000
C   3.22958000   5.20186000   7.60113000
H   5.79051000   3.73825000   6.01658000
H   4.52989000   5.95661000   6.02578000
H   3.20897000   5.18578000   8.71657000
H   3.26429000   3.74407000   5.97046000
H   4.47719000   2.93525000   8.69664000
C   7.02598000   2.99102000   7.62693000
H   7.00830000   2.92019000   8.73789000
C   1.96517000   5.94229000   7.09187000
C   1.97416000   3.00541000   7.53803000
C   0.70501000   5.18421000   7.55270000
C   0.72280000   3.73867000   7.04349000
H   1.97839000   5.95429000   5.97762000
H   0.63668000   5.18407000   8.66281000
H   0.69605000   3.73111000   5.93261000
H   1.94233000   2.93540000   8.64779000
C   12.09921000   -5.86175000   7.66142000
C   14.63772000   -5.87467000   7.71556000
C   13.38232000   -5.12658000   7.20526000
H   14.61471000   -5.89571000   8.83059000
H   14.69008000   -2.91317000   6.16050000
C   14.66292000   -2.93478000   7.27547000
C   13.37776000   -3.66982000   7.72712000
H   13.40707000   -5.10712000   6.09022000
C   12.12542000   -2.92136000   7.21081000
C   10.83829000   -3.65341000   7.66318000
C   10.84320000   -5.11654000   7.14716000
H   10.87055000   -5.10075000   6.03211000
H   12.07414000   -5.87937000   8.77639000
H   13.35027000   -3.68932000   8.84205000
H   12.15402000   -2.90338000   6.09590000
H   10.81114000   -3.66929000   8.77821000
C   12.12335000   -1.46425000   7.73207000
C   14.65959000   -1.47901000   7.80087000
C   13.41070000   -0.72957000   7.28352000
C   10.87659000   -0.71380000   7.21080000
H   12.09159000   -1.48244000   8.84691000
H   14.62990000   -1.50048000   8.91574000
H   10.91060000   -0.69713000   6.09570000
H   13.44203000   -0.71000000   6.16846000
C   9.58107000   -1.44108000   7.65684000
C   9.58226000   -2.90378000   7.14688000
C   9.55565000   -5.85281000   7.60123000
C   8.35311000   -0.66982000   7.13497000
C   8.31312000   -3.65011000   7.59943000
C   8.31819000   -5.09344000   7.08676000
H   8.33961000   -0.66872000   6.02281000
H   9.53940000   -1.45337000   8.77035000
H   9.60232000   -2.89136000   6.03276000
H   8.23730000   -3.65155000   8.70901000
H   8.29712000   -5.09157000   5.97481000
H   9.52088000   -5.86490000   8.71493000
C   8.36081000   0.77533000   7.64553000
C   9.64263000   1.49562000   7.21399000
C   10.88075000   0.74716000   7.72957000
C   12.16474000   1.47184000   7.29048000
C   13.40821000   0.72888000   7.80568000
C   14.69191000   1.45766000   7.36848000
H   8.27935000   0.78285000   8.75373000
H   10.84667000   0.74289000   8.84252000
H   13.37478000   0.72201000   8.91855000
H   9.66622000   1.56637000   6.10408000
H   12.19893000   1.54063000   6.17966000
H   14.72512000   1.53033000   6.25794000
C   14.64274000   5.92726000   7.19099000
C   13.36373000   5.19129000   7.65063000
C   12.10689000   5.93889000   7.14089000
H   14.66332000   5.94813000   6.07586000
C   13.37054000   3.73233000   7.12983000
H   13.34265000   5.17265000   8.76587000
C   12.09630000   3.00296000   7.58543000
C   10.84284000   3.74047000   7.08378000
C   10.82858000   5.20186000   7.60113000
H   13.38951000   3.73825000   6.01658000
H   12.12889000   5.95661000   6.02578000
H   10.80797000   5.18578000   8.71657000
H   10.86329000   3.74407000   5.97046000
H   12.07619000   2.93525000   8.69664000
C   14.62498000   2.99102000   7.62693000
H   14.60730000   2.92019000   8.73789000
C   9.56417000   5.94229000   7.09187000
C   9.57316000   3.00541000   7.53803000
C   8.30401000   5.18421000   7.55270000
C   8.32180000   3.73867000   7.04349000
H   9.57739000   5.95429000   5.97762000
H   8.23568000   5.18407000   8.66281000
H   8.29505000   3.73111000   5.93261000
H   9.54133000   2.93540000   8.64779000
N   -3.22356137   -4.89884425   0.26986233
C   -3.46242596   -3.44979552   0.69692222
H   -2.46900131   -3.06902352   1.06694995
H   -3.66122088   -2.81471177   -0.18459476
C   -4.55494483   -3.40643506   1.76535222
H   -5.32686334   -4.15231085   1.55754269
H   -4.04199609   -3.81908146   2.64116506
C   -4.24863085   -0.61349887   5.52617013
H   -3.18981221   -0.52448745   5.27177252
H   -4.72830381   0.30468739   5.26392099
C   -4.83170214   -1.55879406   4.47819014
H   -4.31120943   -2.53589968   4.48065914
H   -5.94663230   -1.74604185   4.60742472
C   -4.62557691   -1.03160160   3.10577034
H   -3.51789285   -0.79850850   2.95756098
H   -5.09508028   -0.07470659   2.92634921
C   -5.13783482   -1.96880429   1.90248124
H   -6.24354967   -2.07029168   2.15091714
H   -5.06982122   -1.55356784   0.89947085
C   -1.96531198   -4.97881306   -0.47195622
H   -2.07057167   -4.40844400   -1.36263213
H   -1.80996357   -6.04004037   -0.65025594
H   -1.10373187   -4.48548064   -0.02892819
C   -4.31626360   -5.41948862   -0.60976096
H   -4.26746156   -6.45802871   -0.64161687
H   -4.25780854   -4.90612484   -1.56881072
H   -5.28108568   -5.28618769   -0.10680078
C   -3.14687214   -6.00416750   1.43561798
H   -3.35324514   6.45318566   0.89106609
H   -3.92356406   -5.84368865   2.14599079
H   -2.20541456   -5.79908085   1.96122493
N   7.36286693   -0.20960374   -0.65135504
C   6.59600002   -0.11247031   0.60307084
H   7.34596814   -0.28791873   1.41692540
H   6.24045744   0.90604368   0.63493631
C   5.35300587   -1.00640039   0.63882270
H   4.68614242   -0.69565866   -0.24087500
H   5.60297283   -2.11315849   0.70046324
C   5.87949202   -0.72257908   5.57275086
H   6.45590268   -1.59076257   5.32392791
H   6.48321373   0.17327218   5.25570438
C   4.79429579   -0.69214255   4.42290634
H   4.10934025   -1.54439651   4.47508215
H   4.08889096   0.13921109   4.42578179
C   5.61574937   -0.68014130   3.16156343
H   6.23364975   -1.56025287   3.13643934
H   6.31941784   0.19839305   3.11543165
C   4.58257434   -0.63489875   1.90784617
H   3.68062549   -1.26899968   2.03057900
H   4.19251411   0.37867961   1.91172674
C   7.92974075   -1.56886609   -0.83627540
H   8.50762625   -1.74229941   0.09532753
H   8.60742848   -1.62343924   -1.64371857
H   7.11220387   -2.31375882   -0.94379279
C   8.44126889   0.76728356   -0.60035208
H   8.89896337   0.65447395   0.36334968
H   8.15649123   1.79253093   -0.71271055
H   9.20771356   0.55793386   -1.31046252
C   6.50665119   0.07903533   -1.88663452
H   6.02940948   1.03650007   -1.89038896
H   5.66446884   -0.65988939   -1.97247885
H   7.04185724   -0.03552128   -2.81195174
O   14.57872812   -0.45939597   -2.48893921
H   -14.94776680   -0.28072665   -2.73634335
H   14.68386613   -1.16248493   -1.76791917
O   14.77226116   0.92887926   0.66212855
H   13.85882524   0.92201653   0.31123150
H   -15.17489018   0.04871397   0.41145854
O   12.09083669   -4.26932115   3.60276317
H   11.91542715   -5.23926446   3.60198442
H   12.96294622   -4.10095062   3.36101674
O   -7.18185991   4.43862319   1.57104044
H   -7.45188907   5.33485480   1.31458657
H   -7.02840020   3.99454278   0.70253596
O   11.56441917   3.00407552   0.37968317
H   11.08704045   3.82843035   0.52102223
H   12.12260997   3.08319479   -0.35828146
O   -10.68317176   6.17068271   -3.57676198
H   -11.33751919   6.58419038   -2.98908813
H   -11.03082138   6.22068166   -4.47264830
O   7.30930309   2.98613875   -2.85449117
H   6.37045737   2.99119214   -3.09496676
H   7.72871665   3.74604176   -3.30502845
O   -14.30347135   -3.70290920   -0.02011081
H   -13.47387772   -3.98267563   0.34266330
H   -14.39231836   -2.67449188   0.07224575
O   12.20869612   0.25782577   -0.97315888
H   11.99738890   -0.32360889   -0.23963877
H   12.36868414   -0.32225219   -1.77123335
O   0.33469807   4.42482743   1.69896321
H   0.00636477   3.83469464   2.43130293
H   1.13423801   3.93640886   1.49174873
O   -1.35945656   3.46347479   -0.47088975
H   -0.64183537   2.74159718   -0.61111276
H   -1.54372638   3.26902089   0.48850370
O   -8.45293496   4.43333949   -3.75290336
H   -6.14848451   -4.97498376   -3.57266540
H   12.94561639   -0.98790004   -3.98355819
O   13.72284700   -4.78297089   1.30628335
H   14.42139506   -4.21915419   0.96961030
H   13.96344918   -5.62068521   0.97673560
O   -12.02973927   3.23580066   2.41554465
H   -12.18459163   3.81871853   1.68150406
H   -11.10953463   2.98238333   2.42100666
O   0.13985596   1.03037659   -1.30311873
H   -8.49411424   3.83560569   -3.00885426
H   0.35680654   0.16449976   -1.73492042
O   0.26731936   -5.70547187   -3.76528376
H   -0.32814943   -6.12691580   -3.09667177
H   1.10682760   -6.17902367   -3.65170881
O   11.83511453   -1.97522398   0.95394756
H   12.02188770   -2.73949591   1.53957896
H   11.30921832   -2.21437690   0.14343001
O   -1.11158219   0.62634975   1.19895494
H   -2.04952693   0.78653223   1.00973074
H   -0.79202696   0.56453906   0.26194808
O   -8.67921681   -0.42689424   1.26692479
H   -9.34731657   -1.09322994   1.45992451
H   -8.30327354   -0.25295041   2.11805551
O   4.71124476   2.46787421   0.86821598
H   -9.25541933   4.96064806   -3.63797397
H   3.79294833   2.19763656   1.12088082
O   -10.58481035   -2.09225558   2.88817613
H   -10.95867055   -1.17455419   2.91099081
H   -11.33521258   -2.63440921   3.17013635
O   2.76377652   -0.43202203   -1.20569527
H   2.70401159   0.51586237   -1.48402478
H   1.95581417   -0.59275469   -0.71666931
O   -7.47404149   -6.20483300   -2.48970795
H   -7.12086401   6.67613333   -1.71690839
H   -8.03296048   6.53864115   -2.94659260
O   -1.69004725   -2.33752746   -2.41636614
H   -0.74138615   -2.38797871   -2.29524290
H   -1.84290533   -1.93999915   -3.25346830
O   15.00078955   6.00622482   0.96062806
H   -14.40593293   6.11331983   1.13389705
H   14.78517860   5.08716510   0.81999407
O   -2.64801708   5.85081504   -4.04753097
H   -2.67981189   6.21397580   -4.93260159
H   -2.14428658   6.45724786   -3.46986325
O   -14.01687423   3.01037225   -0.50646624
H   -13.07808848   2.97670032   -0.73741394
H   11.89497703   0.16708993   2.71850578
O   -13.45215784   -2.44020507   3.56956693
H   -14.38104899   2.13368605   -0.26346656
H   -13.21671283   -1.69656442   3.04546347
O   -9.65247000   -3.85678712   -3.28002545
H   -9.21495703   -3.88046233   -2.45462123
H   -9.52515243   -4.78389965   -3.59961611
O   -2.39402944   1.16242638   -1.96665553
H   -1.41251428   1.09990678   -1.66032671
H   -2.62811203   2.08516044   -2.01335811
O   -9.17024329   1.34159793   -2.29368351
H   -9.31423117   1.12055187   -3.24635981
H   -9.91489304   0.86420988   -1.84420064
O   8.76165231   -1.22849864   2.53155487
H   9.63937166   -0.94520696   2.85951749
H   8.37137761   -1.71187012   3.27724734
O   9.70873134   -4.23911426   0.90219705
H   10.50793004   -4.51346563   1.34544956
H   9.00000045   -3.76339402   1.32145162
O   13.05739797   2.24484056   -3.10815453
H   13.52120395   2.98259275   -2.81655292
H   12.90949093   1.76898428   -2.27568922
O   11.94657129   6.34788167   3.31994493
H   12.24709442   5.42943556   3.55845235
H   11.20090505   6.21340485   2.68800046
O   10.27558318   -2.85679719   -3.29463600
H   11.13215022   -2.60975515   -2.96414487
H   10.37965165   -2.66798754   -4.22848746
O   -12.40585270   0.11841979   1.82802878
H   -13.04567736   -0.43559382   1.27911094
H   14.74553712   -4.86924927   4.27373107
O   1.45343199   5.38486085   -3.68254957
H   0.90113761   5.04388097   -2.94342985
H   1.39814588   4.85293725   -4.42716716
O   1.54033635   1.95737371   0.80741798
H   1.03277404   1.56210249   1.51576177
H   1.23620180   1.74925070   -0.15407498
O   -14.95442177   -5.04473287   3.62010545
H   15.01821829   1.68368214   2.59921524
H   15.02679785   -5.47639718   2.82251108
O   -7.17745164   -1.63893298   -3.70310475
H   -6.22446518   -1.85444203   -3.46759155
H   -7.70936292   -2.29036101   -3.29483321
O   4.10940259   4.79335994   -3.47452034
H   3.90333181   5.67628953   -3.73199592
H   3.18202666   4.48749161   -3.39379183
O   -4.91869065   4.43340500   -0.35925582
H   -4.86758880   4.08282556   -1.22404888
H   -4.60901701   3.69792351   0.18572419
O   8.60996206   -5.85707962   -1.71105631
H   8.98300166   -5.59462061   -2.54045543
H   8.71118867   -5.16722070   -1.09261771
O   -15.09699938   2.25676510   3.27106721
H   -14.25866097   -2.71529001   3.19229606
H   -14.32119311   2.69746619   2.94332180
O   -6.87060263   1.57315284   -0.65750738
H   -7.37994152   1.85851489   -1.47196210
H   -7.52009850   1.27233977   0.06756595
O   -0.26194651   6.02549053   -1.17595453
H   -0.71815247   5.18464627   -1.43657918
H   0.19305382   5.76820553   -0.39406867
O   13.33473656   -2.90224843   -1.65898838
H   13.53838715   -2.63840978   -0.73068307
H   13.94220689   -3.69017832   -1.93429112
O   -5.54755501   2.73501291   3.51093178
H   -5.34776164   2.12735100   2.75349680
H   -5.90230765   3.57579822   3.22301256
O   -14.36232173   4.46918525   -2.74650975
H   -14.55916709   3.87536917   -2.01421455
H   -13.75497127   3.98138188   -3.27961283
O   1.26304808   2.86682356   -2.83861405
H   0.73907047   2.29197949   -2.22037158
H   1.22917627   2.28912145   -3.65603491
O   -1.55091139   2.81157532   3.72966337
H   -0.84847181   2.57467695   4.31552648
H   -2.10020184   2.06697130   3.50258881
O   -12.95835599   0.10397661   -3.40336869
H   -12.59716265   -0.71592225   -3.76195861
H   -12.31436837   0.70307645   -3.00922382
O   -4.71389425   -0.50070874   -1.95076411
H   -3.84090585   -0.05228274   -2.14697058
H   -5.49653818   0.06335376   -2.06904524
O   12.89464341   3.59673938   3.53211022
H   12.35584799   3.40070587   2.77400353
H   13.46737957   2.83011198   3.64799644
O   -5.19357370   -4.85491320   -3.59035775
H   4.47748435   3.08842941   0.18348191
H   -4.86336237   -5.50558059   -4.17680496
O   -11.52436327   -2.01427438   -0.00762840
H   -11.28667382   -1.41913283   0.73182308
H   -12.46828337   -2.19534040   0.00807132
O   -3.77293049   1.04663439   0.42378129
H   -3.42404135   1.72025498   -0.15661587
H   -4.35524164   0.50095647   -0.06161728
O   -9.79099258   -1.10595611   -3.35007315
H   -9.44734544   -1.75603823   -3.90347213
H   -10.06600531   -1.55192147   -2.58931691
O   -2.07306324   -0.27700411   -4.29612848
H   -2.90933223   -0.81875606   -4.34600897
H   -2.00597365   0.14677674   -3.41818388
O   -9.60282929   3.35171498   -0.06898601
H   -9.55943054   2.83650183   -0.87397257
H   -9.13439588   2.76583282   0.57069731
O   14.63511447   -5.60439138   -1.75399225
H   15.02560209   -6.51151409   -1.48380280
H   15.00773519   -5.03753174   -1.05676857
O   10.63701209   5.69733467   0.64444597
H   11.07133813   6.09545829   -0.11195175
H   9.87925612   6.23602838   0.81562924
O   11.25769247   -0.04945628   3.47205617
H   4.56261839   2.67324533   3.01216824
H   11.69133348   -0.52984514   4.18473461
O   -12.19772203   -4.92783510   2.49800140
H   -12.95688788   -4.48083095   2.80417665
H   -11.69188162   -5.04002142   3.34451531
O   -12.73636074   5.84950138   1.52444517
H   -12.47949865   6.35693529   0.72639457
H   -12.81460845   1.00389542   1.89350285
O   -11.49858732   1.03685601   -0.43575251
H   -11.63901978   0.05564568   -0.42480943
H   -11.26242299   1.37155953   0.43084120
O   -14.34532422   -1.19957895   0.06565655
H   -12.57206897   6.48253755   2.25146745
H   -13.68985306   -1.07404099   -0.62390679
O   4.43069038   -5.16905004   -0.27696558
H   5.01911025   -5.12166507   -1.11565910
H   4.69654509   -5.89865104   0.29799516
O   -0.91214993   -5.61602169   3.37396288
H   -0.08486799   -5.19208524   3.42957695
H   -1.13590491   -5.83539838   4.37520694
O   11.48399833   -5.77966432   -1.31255525
H   11.64597133   -4.90492335   -1.00553436
H   12.20319358   -5.88954705   -1.92402829
O   -12.31123978   -2.81453045   -2.68033078
H   -12.52420768   -2.16354123   -1.97382684
H   -12.98865471   -3.46926150   -2.55307111
O   -12.09766276   -5.45776284   -1.40336029
H   -12.89491542   -5.48781076   -0.89480315
H   -11.64909929   -4.65813412   -1.20242221
O   12.12508195   -0.47426925   -3.86438962
H   12.41739270   0.40354785   -4.13276199
O   4.47558849   3.13067887   3.87834676
H   5.39339745   3.44186553   3.87100533
