859

C   -10.69779000   -5.86175000   -7.33858000
C   -8.15928000   -5.87467000   -7.28444000
C   -9.41468000   -5.12658000   -7.79474000
H   -8.18229000   -5.89571000   -6.16941000
H   -8.10692000   -2.91317000   -8.83950000
C   -8.13408000   -2.93478000   -7.72453000
C   -9.41924000   -3.66982000   -7.27288000
H   -9.38993000   -5.10712000   -8.90978000
C   -10.67158000   -2.92136000   -7.78919000
C   -11.95871000   -3.65341000   -7.33682000
C   -11.95380000   -5.11654000   -7.85284000
H   -11.92645000   -5.10075000   -8.96789000
H   -10.72286000   -5.87937000   -6.22361000
H   -9.44673000   -3.68932000   -6.15795000
H   -10.64298000   -2.90338000   -8.90410000
H   -11.98586000   -3.66929000   -6.22179000
C   -10.67365000   -1.46425000   -7.26793000
C   -8.13741000   -1.47901000   -7.19913000
C   -9.38630000   -0.72957000   -7.71648000
C   -11.92041000   -0.71380000   -7.78920000
H   -10.70541000   -1.48244000   -6.15309000
H   -8.16710000   -1.50048000   -6.08426000
H   -11.88640000   -0.69713000   -8.90430000
H   -9.35497000   -0.71000000   -8.83154000
C   -13.21593000   -1.44108000   -7.34316000
C   -13.21474000   -2.90378000   -7.85312000
C   -13.24135000   -5.85281000   -7.39877000
C   -14.44389000   -0.66982000   -7.86503000
C   -14.48388000   -3.65011000   -7.40057000
C   -14.47881000   -5.09344000   -7.91324000
H   -14.45739000   -0.66872000   -8.97719000
H   -13.25760000   -1.45337000   -6.22965000
H   -13.19468000   -2.89136000   -8.96724000
H   -14.55970000   -3.65155000   -6.29099000
H   -14.49988000   -5.09157000   -9.02519000
H   -13.27612000   -5.86490000   -6.28507000
C   -14.43619000   0.77533000   -7.35447000
C   -13.15437000   1.49562000   -7.78601000
C   -11.91625000   0.74716000   -7.27043000
C   -10.63226000   1.47184000   -7.70952000
C   -9.38879000   0.72888000   -7.19432000
C   -8.10509000   1.45766000   -7.63152000
H   -14.51765000   0.78285000   -6.24627000
H   -11.95033000   0.74289000   -6.15748000
H   -9.42222000   0.72201000   -6.08145000
H   -13.13078000   1.56637000   -8.89592000
H   -10.59807000   1.54063000   -8.82034000
H   -8.07188000   1.53033000   -8.74206000
C   -8.15426000   5.92726000   -7.80901000
C   -9.43327000   5.19129000   -7.34937000
C   -10.69011000   5.93889000   -7.85911000
H   -8.13368000   5.94813000   -8.92414000
C   -9.42646000   3.73233000   -7.87017000
H   -9.45435000   5.17265000   -6.23413000
C   -10.70070000   3.00296000   -7.41457000
C   -11.95416000   3.74047000   -7.91622000
C   -11.96842000   5.20186000   -7.39887000
H   -9.40749000   3.73825000   -8.98342000
H   -10.66811000   5.95661000   -8.97422000
H   -11.98903000   5.18578000   -6.28343000
H   -11.93371000   3.74407000   -9.02954000
H   -10.72081000   2.93525000   -6.30336000
C   -8.17202000   2.99102000   -7.37307000
H   -8.18970000   2.92019000   -6.26211000
C   -13.23283000   5.94229000   -7.90813000
C   -13.22384000   3.00541000   -7.46197000
C   -14.49299000   5.18421000   -7.44730000
C   -14.47520000   3.73867000   -7.95651000
H   -13.21961000   5.95429000   -9.02238000
H   -14.56132000   5.18407000   -6.33719000
H   -14.50195000   3.73111000   -9.06739000
H   -13.25567000   2.93540000   -6.35221000
C   -3.09879000   -5.86175000   -7.33858000
C   -0.56028000   -5.87467000   -7.28444000
C   -1.81568000   -5.12658000   -7.79474000
H   -0.58329000   -5.89571000   -6.16941000
H   -0.50792000   -2.91317000   -8.83950000
C   -0.53508000   -2.93478000   -7.72453000
C   -1.82024000   -3.66982000   -7.27288000
H   -1.79093000   -5.10712000   -8.90978000
C   -3.07258000   -2.92136000   -7.78919000
C   -4.35971000   -3.65341000   -7.33682000
C   -4.35480000   -5.11654000   -7.85284000
H   -4.32745000   -5.10075000   -8.96789000
H   -3.12386000   -5.87937000   -6.22361000
H   -1.84773000   -3.68932000   -6.15795000
H   -3.04398000   -2.90338000   -8.90410000
H   -4.38686000   -3.66929000   -6.22179000
C   -3.07465000   -1.46425000   -7.26793000
C   -0.53841000   -1.47901000   -7.19913000
C   -1.78730000   -0.72957000   -7.71648000
C   -4.32141000   -0.71380000   -7.78920000
H   -3.10641000   -1.48244000   -6.15309000
H   -0.56810000   -1.50048000   -6.08426000
H   -4.28740000   -0.69713000   -8.90430000
H   -1.75597000   -0.71000000   -8.83154000
C   -5.61693000   -1.44108000   -7.34316000
C   -5.61574000   -2.90378000   -7.85312000
C   -5.64235000   -5.85281000   -7.39877000
C   -6.84489000   -0.66982000   -7.86503000
C   -6.88488000   -3.65011000   -7.40057000
C   -6.87981000   -5.09344000   -7.91324000
H   -6.85839000   -0.66872000   -8.97719000
H   -5.65860000   -1.45337000   -6.22965000
H   -5.59568000   -2.89136000   -8.96724000
H   -6.96070000   -3.65155000   -6.29099000
H   -6.90088000   -5.09157000   -9.02519000
H   -5.67712000   -5.86490000   -6.28507000
C   -6.83719000   0.77533000   -7.35447000
C   -5.55537000   1.49562000   -7.78601000
C   -4.31725000   0.74716000   -7.27043000
C   -3.03326000   1.47184000   -7.70952000
C   -1.78979000   0.72888000   -7.19432000
C   -0.50609000   1.45766000   -7.63152000
H   -6.91865000   0.78285000   -6.24627000
H   -4.35133000   0.74289000   -6.15748000
H   -1.82322000   0.72201000   -6.08145000
H   -5.53178000   1.56637000   -8.89592000
H   -2.99907000   1.54063000   -8.82034000
H   -0.47288000   1.53033000   -8.74206000
C   -0.55526000   5.92726000   -7.80901000
C   -1.83427000   5.19129000   -7.34937000
C   -3.09111000   5.93889000   -7.85911000
H   -0.53468000   5.94813000   -8.92414000
C   -1.82746000   3.73233000   -7.87017000
H   -1.85535000   5.17265000   -6.23413000
C   -3.10170000   3.00296000   -7.41457000
C   -4.35516000   3.74047000   -7.91622000
C   -4.36942000   5.20186000   -7.39887000
H   -1.80849000   3.73825000   -8.98342000
H   -3.06911000   5.95661000   -8.97422000
H   -4.39003000   5.18578000   -6.28343000
H   -4.33471000   3.74407000   -9.02954000
H   -3.12181000   2.93525000   -6.30336000
C   -0.57302000   2.99102000   -7.37307000
H   -0.59070000   2.92019000   -6.26211000
C   -5.63383000   5.94229000   -7.90813000
C   -5.62484000   3.00541000   -7.46197000
C   -6.89399000   5.18421000   -7.44730000
C   -6.87620000   3.73867000   -7.95651000
H   -5.62061000   5.95429000   -9.02238000
H   -6.96232000   5.18407000   -6.33719000
H   -6.90295000   3.73111000   -9.06739000
H   -5.65667000   2.93540000   -6.35221000
C   4.50021000   -5.86175000   -7.33858000
C   7.03872000   -5.87467000   -7.28444000
C   5.78332000   -5.12658000   -7.79474000
H   7.01571000   -5.89571000   -6.16941000
H   7.09108000   -2.91317000   -8.83950000
C   7.06392000   -2.93478000   -7.72453000
C   5.77876000   -3.66982000   -7.27288000
H   5.80807000   -5.10712000   -8.90978000
C   4.52642000   -2.92136000   -7.78919000
C   3.23929000   -3.65341000   -7.33682000
C   3.24420000   -5.11654000   -7.85284000
H   3.27155000   -5.10075000   -8.96789000
H   4.47514000   -5.87937000   -6.22361000
H   5.75127000   -3.68932000   -6.15795000
H   4.55502000   -2.90338000   -8.90410000
H   3.21214000   -3.66929000   -6.22179000
C   4.52435000   -1.46425000   -7.26793000
C   7.06059000   -1.47901000   -7.19913000
C   5.81170000   -0.72957000   -7.71648000
C   3.27759000   -0.71380000   -7.78920000
H   4.49259000   -1.48244000   -6.15309000
H   7.03090000   -1.50048000   -6.08426000
H   3.31160000   -0.69713000   -8.90430000
H   5.84303000   -0.71000000   -8.83154000
C   1.98207000   -1.44108000   -7.34316000
C   1.98326000   -2.90378000   -7.85312000
C   1.95665000   -5.85281000   -7.39877000
C   0.75411000   -0.66982000   -7.86503000
C   0.71412000   -3.65011000   -7.40057000
C   0.71919000   -5.09344000   -7.91324000
H   0.74061000   -0.66872000   -8.97719000
H   1.94040000   -1.45337000   -6.22965000
H   2.00332000   -2.89136000   -8.96724000
H   0.63830000   -3.65155000   -6.29099000
H   0.69812000   -5.09157000   -9.02519000
H   1.92188000   -5.86490000   -6.28507000
C   0.76181000   0.77533000   -7.35447000
C   2.04363000   1.49562000   -7.78601000
C   3.28175000   0.74716000   -7.27043000
C   4.56574000   1.47184000   -7.70952000
C   5.80921000   0.72888000   -7.19432000
C   7.09291000   1.45766000   -7.63152000
H   0.68035000   0.78285000   -6.24627000
H   3.24767000   0.74289000   -6.15748000
H   5.77578000   0.72201000   -6.08145000
H   2.06722000   1.56637000   -8.89592000
H   4.59993000   1.54063000   -8.82034000
H   7.12612000   1.53033000   -8.74206000
C   7.04374000   5.92726000   -7.80901000
C   5.76473000   5.19129000   -7.34937000
C   4.50789000   5.93889000   -7.85911000
H   7.06432000   5.94813000   -8.92414000
C   5.77154000   3.73233000   -7.87017000
H   5.74365000   5.17265000   -6.23413000
C   4.49730000   3.00296000   -7.41457000
C   3.24384000   3.74047000   -7.91622000
C   3.22958000   5.20186000   -7.39887000
H   5.79051000   3.73825000   -8.98342000
H   4.52989000   5.95661000   -8.97422000
H   3.20897000   5.18578000   -6.28343000
H   3.26429000   3.74407000   -9.02954000
H   4.47719000   2.93525000   -6.30336000
C   7.02598000   2.99102000   -7.37307000
H   7.00830000   2.92019000   -6.26211000
C   1.96517000   5.94229000   -7.90813000
C   1.97416000   3.00541000   -7.46197000
C   0.70501000   5.18421000   -7.44730000
C   0.72280000   3.73867000   -7.95651000
H   1.97839000   5.95429000   -9.02238000
H   0.63668000   5.18407000   -6.33719000
H   0.69605000   3.73111000   -9.06739000
H   1.94233000   2.93540000   -6.35221000
C   12.09921000   -5.86175000   -7.33858000
C   14.63772000   -5.87467000   -7.28444000
C   13.38232000   -5.12658000   -7.79474000
H   14.61471000   -5.89571000   -6.16941000
H   14.69008000   -2.91317000   -8.83950000
C   14.66292000   -2.93478000   -7.72453000
C   13.37776000   -3.66982000   -7.27288000
H   13.40707000   -5.10712000   -8.90978000
C   12.12542000   -2.92136000   -7.78919000
C   10.83829000   -3.65341000   -7.33682000
C   10.84320000   -5.11654000   -7.85284000
H   10.87055000   -5.10075000   -8.96789000
H   12.07414000   -5.87937000   -6.22361000
H   13.35027000   -3.68932000   -6.15795000
H   12.15402000   -2.90338000   -8.90410000
H   10.81114000   -3.66929000   -6.22179000
C   12.12335000   -1.46425000   -7.26793000
C   14.65959000   -1.47901000   -7.19913000
C   13.41070000   -0.72957000   -7.71648000
C   10.87659000   -0.71380000   -7.78920000
H   12.09159000   -1.48244000   -6.15309000
H   14.62990000   -1.50048000   -6.08426000
H   10.91060000   -0.69713000   -8.90430000
H   13.44203000   -0.71000000   -8.83154000
C   9.58107000   -1.44108000   -7.34316000
C   9.58226000   -2.90378000   -7.85312000
C   9.55565000   -5.85281000   -7.39877000
C   8.35311000   -0.66982000   -7.86503000
C   8.31312000   -3.65011000   -7.40057000
C   8.31819000   -5.09344000   -7.91324000
H   8.33961000   -0.66872000   -8.97719000
H   9.53940000   -1.45337000   -6.22965000
H   9.60232000   -2.89136000   -8.96724000
H   8.23730000   -3.65155000   -6.29099000
H   8.29712000   -5.09157000   -9.02519000
H   9.52088000   -5.86490000   -6.28507000
C   8.36081000   0.77533000   -7.35447000
C   9.64263000   1.49562000   -7.78601000
C   10.88075000   0.74716000   -7.27043000
C   12.16474000   1.47184000   -7.70952000
C   13.40821000   0.72888000   -7.19432000
C   14.69191000   1.45766000   -7.63152000
H   8.27935000   0.78285000   -6.24627000
H   10.84667000   0.74289000   -6.15748000
H   13.37478000   0.72201000   -6.08145000
H   9.66622000   1.56637000   -8.89592000
H   12.19893000   1.54063000   -8.82034000
H   14.72512000   1.53033000   -8.74206000
C   14.64274000   5.92726000   -7.80901000
C   13.36373000   5.19129000   -7.34937000
C   12.10689000   5.93889000   -7.85911000
H   14.66332000   5.94813000   -8.92414000
C   13.37054000   3.73233000   -7.87017000
H   13.34265000   5.17265000   -6.23413000
C   12.09630000   3.00296000   -7.41457000
C   10.84284000   3.74047000   -7.91622000
C   10.82858000   5.20186000   -7.39887000
H   13.38951000   3.73825000   -8.98342000
H   12.12889000   5.95661000   -8.97422000
H   10.80797000   5.18578000   -6.28343000
H   10.86329000   3.74407000   -9.02954000
H   12.07619000   2.93525000   -6.30336000
C   14.62498000   2.99102000   -7.37307000
H   14.60730000   2.92019000   -6.26211000
C   9.56417000   5.94229000   -7.90813000
C   9.57316000   3.00541000   -7.46197000
C   8.30401000   5.18421000   -7.44730000
C   8.32180000   3.73867000   -7.95651000
H   9.57739000   5.95429000   -9.02238000
H   8.23568000   5.18407000   -6.33719000
H   8.29505000   3.73111000   -9.06739000
H   9.54133000   2.93540000   -6.35221000
C   -10.69779000   -5.86175000   7.66142000
C   -8.15928000   -5.87467000   7.71556000
C   -9.41468000   -5.12658000   7.20526000
H   -8.18229000   -5.89571000   8.83059000
H   -8.10692000   -2.91317000   6.16050000
C   -8.13408000   -2.93478000   7.27547000
C   -9.41924000   -3.66982000   7.72712000
H   -9.38993000   -5.10712000   6.09022000
C   -10.67158000   -2.92136000   7.21081000
C   -11.95871000   -3.65341000   7.66318000
C   -11.95380000   -5.11654000   7.14716000
H   -11.92645000   -5.10075000   6.03211000
H   -10.72286000   -5.87937000   8.77639000
H   -9.44673000   -3.68932000   8.84205000
H   -10.64298000   -2.90338000   6.09590000
H   -11.98586000   -3.66929000   8.77821000
C   -10.67365000   -1.46425000   7.73207000
C   -8.13741000   -1.47901000   7.80087000
C   -9.38630000   -0.72957000   7.28352000
C   -11.92041000   -0.71380000   7.21080000
H   -10.70541000   -1.48244000   8.84691000
H   -8.16710000   -1.50048000   8.91574000
H   -11.88640000   -0.69713000   6.09570000
H   -9.35497000   -0.71000000   6.16846000
C   -13.21593000   -1.44108000   7.65684000
C   -13.21474000   -2.90378000   7.14688000
C   -13.24135000   -5.85281000   7.60123000
C   -14.44389000   -0.66982000   7.13497000
C   -14.48388000   -3.65011000   7.59943000
C   -14.47881000   -5.09344000   7.08676000
H   -14.45739000   -0.66872000   6.02281000
H   -13.25760000   -1.45337000   8.77035000
H   -13.19468000   -2.89136000   6.03276000
H   -14.55970000   -3.65155000   8.70901000
H   -14.49988000   -5.09157000   5.97481000
H   -13.27612000   -5.86490000   8.71493000
C   -14.43619000   0.77533000   7.64553000
C   -13.15437000   1.49562000   7.21399000
C   -11.91625000   0.74716000   7.72957000
C   -10.63226000   1.47184000   7.29048000
C   -9.38879000   0.72888000   7.80568000
C   -8.10509000   1.45766000   7.36848000
H   -14.51765000   0.78285000   8.75373000
H   -11.95033000   0.74289000   8.84252000
H   -9.42222000   0.72201000   8.91855000
H   -13.13078000   1.56637000   6.10408000
H   -10.59807000   1.54063000   6.17966000
H   -8.07188000   1.53033000   6.25794000
C   -8.15426000   5.92726000   7.19099000
C   -9.43327000   5.19129000   7.65063000
C   -10.69011000   5.93889000   7.14089000
H   -8.13368000   5.94813000   6.07586000
C   -9.42646000   3.73233000   7.12983000
H   -9.45435000   5.17265000   8.76587000
C   -10.70070000   3.00296000   7.58543000
C   -11.95416000   3.74047000   7.08378000
C   -11.96842000   5.20186000   7.60113000
H   -9.40749000   3.73825000   6.01658000
H   -10.66811000   5.95661000   6.02578000
H   -11.98903000   5.18578000   8.71657000
H   -11.93371000   3.74407000   5.97046000
H   -10.72081000   2.93525000   8.69664000
C   -8.17202000   2.99102000   7.62693000
H   -8.18970000   2.92019000   8.73789000
C   -13.23283000   5.94229000   7.09187000
C   -13.22384000   3.00541000   7.53803000
C   -14.49299000   5.18421000   7.55270000
C   -14.47520000   3.73867000   7.04349000
H   -13.21961000   5.95429000   5.97762000
H   -14.56132000   5.18407000   8.66281000
H   -14.50195000   3.73111000   5.93261000
H   -13.25567000   2.93540000   8.64779000
C   -3.09879000   -5.86175000   7.66142000
C   -0.56028000   -5.87467000   7.71556000
C   -1.81568000   -5.12658000   7.20526000
H   -0.58329000   -5.89571000   8.83059000
H   -0.50792000   -2.91317000   6.16050000
C   -0.53508000   -2.93478000   7.27547000
C   -1.82024000   -3.66982000   7.72712000
H   -1.79093000   -5.10712000   6.09022000
C   -3.07258000   -2.92136000   7.21081000
C   -4.35971000   -3.65341000   7.66318000
C   -4.35480000   -5.11654000   7.14716000
H   -4.32745000   -5.10075000   6.03211000
H   -3.12386000   -5.87937000   8.77639000
H   -1.84773000   -3.68932000   8.84205000
H   -3.04398000   -2.90338000   6.09590000
H   -4.38686000   -3.66929000   8.77821000
C   -3.07465000   -1.46425000   7.73207000
C   -0.53841000   -1.47901000   7.80087000
C   -1.78730000   -0.72957000   7.28352000
C   -4.32141000   -0.71380000   7.21080000
H   -3.10641000   -1.48244000   8.84691000
H   -0.56810000   -1.50048000   8.91574000
H   -1.75597000   -0.71000000   6.16846000
C   -5.61693000   -1.44108000   7.65684000
C   -5.61574000   -2.90378000   7.14688000
C   -5.64235000   -5.85281000   7.60123000
C   -6.84489000   -0.66982000   7.13497000
C   -6.88488000   -3.65011000   7.59943000
C   -6.87981000   -5.09344000   7.08676000
H   -6.85839000   -0.66872000   6.02281000
H   -5.65860000   -1.45337000   8.77035000
H   -5.59568000   -2.89136000   6.03276000
H   -6.96070000   -3.65155000   8.70901000
H   -6.90088000   -5.09157000   5.97481000
H   -5.67712000   -5.86490000   8.71493000
C   -6.83719000   0.77533000   7.64553000
C   -5.55537000   1.49562000   7.21399000
C   -4.31725000   0.74716000   7.72957000
C   -3.03326000   1.47184000   7.29048000
C   -1.78979000   0.72888000   7.80568000
C   -0.50609000   1.45766000   7.36848000
H   -6.91865000   0.78285000   8.75373000
H   -4.35133000   0.74289000   8.84252000
H   -1.82322000   0.72201000   8.91855000
H   -5.53178000   1.56637000   6.10408000
H   -2.99907000   1.54063000   6.17966000
H   -0.47288000   1.53033000   6.25794000
C   -0.55526000   5.92726000   7.19099000
C   -1.83427000   5.19129000   7.65063000
C   -3.09111000   5.93889000   7.14089000
H   -0.53468000   5.94813000   6.07586000
C   -1.82746000   3.73233000   7.12983000
H   -1.85535000   5.17265000   8.76587000
C   -3.10170000   3.00296000   7.58543000
C   -4.35516000   3.74047000   7.08378000
C   -4.36942000   5.20186000   7.60113000
H   -1.80849000   3.73825000   6.01658000
H   -3.06911000   5.95661000   6.02578000
H   -4.39003000   5.18578000   8.71657000
H   -4.33471000   3.74407000   5.97046000
H   -3.12181000   2.93525000   8.69664000
C   -0.57302000   2.99102000   7.62693000
H   -0.59070000   2.92019000   8.73789000
C   -5.63383000   5.94229000   7.09187000
C   -5.62484000   3.00541000   7.53803000
C   -6.89399000   5.18421000   7.55270000
C   -6.87620000   3.73867000   7.04349000
H   -5.62061000   5.95429000   5.97762000
H   -6.96232000   5.18407000   8.66281000
H   -6.90295000   3.73111000   5.93261000
H   -5.65667000   2.93540000   8.64779000
C   4.50021000   -5.86175000   7.66142000
C   7.03872000   -5.87467000   7.71556000
C   5.78332000   -5.12658000   7.20526000
H   7.01571000   -5.89571000   8.83059000
H   7.09108000   -2.91317000   6.16050000
C   7.06392000   -2.93478000   7.27547000
C   5.77876000   -3.66982000   7.72712000
H   5.80807000   -5.10712000   6.09022000
C   4.52642000   -2.92136000   7.21081000
C   3.23929000   -3.65341000   7.66318000
C   3.24420000   -5.11654000   7.14716000
H   3.27155000   -5.10075000   6.03211000
H   4.47514000   -5.87937000   8.77639000
H   5.75127000   -3.68932000   8.84205000
H   4.55502000   -2.90338000   6.09590000
H   3.21214000   -3.66929000   8.77821000
C   4.52435000   -1.46425000   7.73207000
C   7.06059000   -1.47901000   7.80087000
C   5.81170000   -0.72957000   7.28352000
C   3.27759000   -0.71380000   7.21080000
H   4.49259000   -1.48244000   8.84691000
H   7.03090000   -1.50048000   8.91574000
H   3.31160000   -0.69713000   6.09570000
C   1.98207000   -1.44108000   7.65684000
C   1.98326000   -2.90378000   7.14688000
C   1.95665000   -5.85281000   7.60123000
C   0.75411000   -0.66982000   7.13497000
C   0.71412000   -3.65011000   7.59943000
C   0.71919000   -5.09344000   7.08676000
H   0.74061000   -0.66872000   6.02281000
H   1.94040000   -1.45337000   8.77035000
H   2.00332000   -2.89136000   6.03276000
H   0.63830000   -3.65155000   8.70901000
H   0.69812000   -5.09157000   5.97481000
H   1.92188000   -5.86490000   8.71493000
C   0.76181000   0.77533000   7.64553000
C   2.04363000   1.49562000   7.21399000
C   3.28175000   0.74716000   7.72957000
C   4.56574000   1.47184000   7.29048000
C   5.80921000   0.72888000   7.80568000
C   7.09291000   1.45766000   7.36848000
H   0.68035000   0.78285000   8.75373000
H   3.24767000   0.74289000   8.84252000
H   5.77578000   0.72201000   8.91855000
H   2.06722000   1.56637000   6.10408000
H   4.59993000   1.54063000   6.17966000
H   7.12612000   1.53033000   6.25794000
C   7.04374000   5.92726000   7.19099000
C   5.76473000   5.19129000   7.65063000
C   4.50789000   5.93889000   7.14089000
H   7.06432000   5.94813000   6.07586000
C   5.77154000   3.73233000   7.12983000
H   5.74365000   5.17265000   8.76587000
C   4.49730000   3.00296000   7.58543000
C   3.24384000   3.74047000   7.08378000
C   3.22958000   5.20186000   7.60113000
H   5.79051000   3.73825000   6.01658000
H   4.52989000   5.95661000   6.02578000
H   3.20897000   5.18578000   8.71657000
H   3.26429000   3.74407000   5.97046000
H   4.47719000   2.93525000   8.69664000
C   7.02598000   2.99102000   7.62693000
H   7.00830000   2.92019000   8.73789000
C   1.96517000   5.94229000   7.09187000
C   1.97416000   3.00541000   7.53803000
C   0.70501000   5.18421000   7.55270000
C   0.72280000   3.73867000   7.04349000
H   1.97839000   5.95429000   5.97762000
H   0.63668000   5.18407000   8.66281000
H   0.69605000   3.73111000   5.93261000
H   1.94233000   2.93540000   8.64779000
C   12.09921000   -5.86175000   7.66142000
C   14.63772000   -5.87467000   7.71556000
C   13.38232000   -5.12658000   7.20526000
H   14.61471000   -5.89571000   8.83059000
H   14.69008000   -2.91317000   6.16050000
C   14.66292000   -2.93478000   7.27547000
C   13.37776000   -3.66982000   7.72712000
H   13.40707000   -5.10712000   6.09022000
C   12.12542000   -2.92136000   7.21081000
C   10.83829000   -3.65341000   7.66318000
C   10.84320000   -5.11654000   7.14716000
H   10.87055000   -5.10075000   6.03211000
H   12.07414000   -5.87937000   8.77639000
H   13.35027000   -3.68932000   8.84205000
H   12.15402000   -2.90338000   6.09590000
H   10.81114000   -3.66929000   8.77821000
C   12.12335000   -1.46425000   7.73207000
C   14.65959000   -1.47901000   7.80087000
C   13.41070000   -0.72957000   7.28352000
C   10.87659000   -0.71380000   7.21080000
H   12.09159000   -1.48244000   8.84691000
H   14.62990000   -1.50048000   8.91574000
H   10.91060000   -0.69713000   6.09570000
H   13.44203000   -0.71000000   6.16846000
C   9.58107000   -1.44108000   7.65684000
C   9.58226000   -2.90378000   7.14688000
C   9.55565000   -5.85281000   7.60123000
C   8.35311000   -0.66982000   7.13497000
C   8.31312000   -3.65011000   7.59943000
C   8.31819000   -5.09344000   7.08676000
H   8.33961000   -0.66872000   6.02281000
H   9.53940000   -1.45337000   8.77035000
H   9.60232000   -2.89136000   6.03276000
H   8.23730000   -3.65155000   8.70901000
H   8.29712000   -5.09157000   5.97481000
H   9.52088000   -5.86490000   8.71493000
C   8.36081000   0.77533000   7.64553000
C   9.64263000   1.49562000   7.21399000
C   10.88075000   0.74716000   7.72957000
C   12.16474000   1.47184000   7.29048000
C   13.40821000   0.72888000   7.80568000
C   14.69191000   1.45766000   7.36848000
H   8.27935000   0.78285000   8.75373000
H   10.84667000   0.74289000   8.84252000
H   13.37478000   0.72201000   8.91855000
H   9.66622000   1.56637000   6.10408000
H   12.19893000   1.54063000   6.17966000
H   14.72512000   1.53033000   6.25794000
C   14.64274000   5.92726000   7.19099000
C   13.36373000   5.19129000   7.65063000
C   12.10689000   5.93889000   7.14089000
H   14.66332000   5.94813000   6.07586000
C   13.37054000   3.73233000   7.12983000
H   13.34265000   5.17265000   8.76587000
C   12.09630000   3.00296000   7.58543000
C   10.84284000   3.74047000   7.08378000
C   10.82858000   5.20186000   7.60113000
H   13.38951000   3.73825000   6.01658000
H   12.12889000   5.95661000   6.02578000
H   10.80797000   5.18578000   8.71657000
H   10.86329000   3.74407000   5.97046000
H   12.07619000   2.93525000   8.69664000
C   14.62498000   2.99102000   7.62693000
H   14.60730000   2.92019000   8.73789000
C   9.56417000   5.94229000   7.09187000
C   9.57316000   3.00541000   7.53803000
C   8.30401000   5.18421000   7.55270000
C   8.32180000   3.73867000   7.04349000
H   9.57739000   5.95429000   5.97762000
H   8.23568000   5.18407000   8.66281000
H   8.29505000   3.73111000   5.93261000
H   9.54133000   2.93540000   8.64779000
N   -7.67135674   0.76259316   -0.31856968
C   -6.26052923   0.23163451   0.17970931
H   -5.79519274   -0.25485740   -0.71105120
H   -5.69414219   1.16315332   0.59797707
C   -6.34749929   -0.87819540   1.30024549
H   -6.86061457   -0.61554938   2.24581439
H   -6.82538314   -1.78303005   0.87478176
C   -4.08339343   -0.68672931   5.48773974
H   -3.02891268   -0.93554769   5.27227317
H   -4.16633795   0.35518163   5.28297468
C   -4.93934826   -1.28612912   4.38599111
H   -4.80541005   -2.41642290   4.49241045
H   -5.97896307   -0.89242675   4.50874812
C   -4.41824404   -0.66759289   3.02684214
H   -3.31458895   -0.69219711   3.08324505
H   -4.71015322   0.41593919   2.92347440
C   -4.90249515   -1.30977331   1.69502424
H   -4.21167476   -1.04940808   0.90884573
H   -4.97578677   -2.43346539   1.59118209
C   -8.41524818   1.50241176   0.71836603
H   -8.50148772   1.07648679   1.70652551
H   -9.44214867   1.48648489   0.35008297
H   -8.07588621   2.59740388   0.81095510
C   -8.43009522   -0.39170368   -0.80784192
H   -7.81379593   -1.07339407   -1.55891720
H   -9.24904843   -0.11001024   -1.49837400
H   -8.82511107   -1.04663069   0.00279944
C   -7.46255230   1.71650981   -1.45905769
H   -6.65628076   2.42695216   -1.35910294
H   -8.44247841   2.09856301   -1.68155446
H   -7.07554400   1.12233327   -2.39344368
N   3.43778828   0.89888989   -1.10507545
C   3.65041153   1.74281329   0.09645605
H   3.87094092   2.79838722   -0.16891191
H   2.66994660   1.69950121   0.53559364
C   4.71550178   1.15912517   1.00798090
H   5.40475847   0.59388390   0.35165814
H   5.28125145   2.03290808   1.37930605
C   5.98860596   -0.64214246   5.62549051
H   6.41851599   -1.55467665   5.27205235
H   6.66430915   0.12876117   5.41015965
C   4.78752680   -0.36771084   4.59170812
H   4.38096106   -1.39082535   4.36247283
H   3.98127639   0.31085050   4.91972869
C   5.31039487   0.30827194   3.27817827
H   6.23069033   -0.12931397   2.97467877
H   5.63251945   1.34142358   3.50610453
C   4.27660098   0.25177269   2.19835655
H   4.24933954   -0.86835901   1.87031350
H   3.35485508   0.53253628   2.62811377
C   4.56052086   1.20071271   -2.24654086
H   5.45947245   0.85102142   -1.79893771
H   4.59261432   2.28800981   -2.44251306
H   4.18070685   0.57113996   -3.02549809
C   2.25830897   1.44917511   -1.79460127
H   2.59347699   2.40595870   -2.12342492
H   1.36787947   1.54118566   -1.16336606
H   2.01940774   0.84681542   -2.67115463
C   3.44306847   -0.54106440   -0.87939559
H   4.34718698   -0.88292882   -0.50042681
H   3.35517677   -1.01167660   -1.91943199
H   2.51128545   -0.69119756   -0.39111643
O   5.79429590   3.62743075   3.32046518
H   5.66798200   3.90115755   2.42052927
H   -10.12757082   5.42042954   2.15147904
O   -8.50734572   4.93487479   -2.19531239
H   -9.31855306   4.45595215   -2.08565804
H   -8.46221046   5.10795830   -3.15337665
O   12.71621444   3.55289646   3.56884467
H   13.55511103   3.59347686   3.99951761
H   12.68691915   2.63667280   3.19141170
O   12.68957605   6.61387712   -3.35869825
H   13.51764406   6.18494090   -3.57043175
H   12.87623805   -6.06296366   -2.75732805
O   13.03055270   2.32618485   0.09858301
H   12.34101699   2.38416381   -0.56664003
H   13.08786319   3.18334391   0.49275395
O   10.46786921   5.82834714   3.88462381
H   11.38353100   5.82806190   4.22293824
H   14.57822092   0.00182346   -3.29470482
O   9.79578785   -2.53917043   -2.86539066
H   10.40585693   -1.77058814   -2.77508607
H   8.41213805   3.61032848   -0.23363001
O   7.74322584   3.30971035   -0.90824873
H   8.27816567   2.74458788   -1.50760180
H   4.92403902   3.42563410   3.70017135
O   -14.90583324   -4.74919254   1.74294388
H   -13.94217577   -4.66772709   1.82709804
H   15.11068438   -5.08446710   2.61167979
O   7.42423254   -2.91389544   -1.33606332
H   6.96613985   -3.45409786   -1.97740762
H   8.18559940   -2.49721146   -1.80756121
O   11.57696567   -0.37887708   -3.19107678
H   12.52060701   -0.57914413   -3.30023289
H   11.44619762   0.50129588   -3.60568817
O   12.16000315   -4.53948060   1.19029529
H   11.36410059   -4.03319534   1.25407642
H   12.32065602   -4.46827637   0.22844857
O   1.72779674   -4.05810203   -1.30387439
H   6.91475329   -4.69096212   -4.81595942
H   2.26441676   -3.79372334   -0.50960972
O   12.14438033   2.45794991   -3.85837800
H   11.29940327   2.59937856   -3.39589797
H   12.09766199   1.75519775   -4.49011671
O   8.42720072   2.42820542   3.37978081
H   8.89970409   3.14916678   2.98918293
H   7.55130655   2.81110662   3.52418232
O   -0.46743722   -6.47343759   3.18970422
H   9.72469933   -2.62032905   -3.83060560
H   -0.66314278   -6.09674686   4.11550197
O   14.27579761   -0.81080245   -3.78001557
H   15.07854517   -1.33857949   -3.92584898
H   1.23690184   -3.42037730   -4.24575684
O   8.72486906   -4.33326830   0.58463137
H   8.25355141   -4.69823729   1.34972803
H   8.19708719   -3.62261689   0.19539084
O   -12.70873169   -0.47694311   -2.57975326
H   -12.83434996   -0.35730480   -1.63333397
H   -13.54626491   -0.52848421   -2.94597446
O   -6.94862659   -3.70026381   -3.48524033
H   -6.43328793   -4.11447262   -4.16151740
H   -7.19147028   -4.35161478   -2.85842990
O   -13.26424730   2.99360194   -1.31276550
H   10.36694476   -6.68394589   3.48844552
H   -12.94564924   2.10832127   -1.48310398
O   -9.95264598   0.23120742   3.29437482
H   -9.60985185   0.82169514   3.97850162
H   -10.79746422   0.64928183   3.03972935
O   6.26941003   -3.94893836   3.27507436
H   5.94786552   -4.26949174   2.44330732
H   6.26515733   -2.99611697   3.22725557
O   -10.43287087   1.60577874   -2.58399287
H   -11.17636352   1.06868940   -2.89175630
H   -10.75801477   2.53649710   -2.62151697
O   0.60706521   1.12889791   1.30613631
H   0.22166938   1.68578849   1.98874746
H   -0.08051469   0.95440549   0.63533045
O   -14.44749967   4.28339387   -3.61751191
H   -14.02692875   3.71821092   -2.98532434
H   -15.02671812   3.74009733   -4.17742123
O   8.79441082   2.67836138   -3.64377609
H   9.70064629   3.08805644   -3.62588312
H   8.51905360   2.73109154   -4.61557237
O   9.22780043   6.20818992   -0.36409171
H   8.63117868   5.71874122   0.26179512
H   9.12068348   -6.23808083   -0.26654190
O   -1.56625676   0.10617361   -1.35789532
H   -3.97669333   -4.82176354   0.87750568
H   -1.87147432   -0.76670203   -1.21570205
O   15.12146029   2.86575601   2.29264360
H   -14.77275583   3.68713113   1.97844833
H   -14.95950317   2.05196100   1.91765322
O   0.15308167   -2.18299478   -0.07038833
H   0.68644900   -2.85923994   -0.57882749
H   -0.69674498   -2.17188580   -0.57461843
O   -1.68187545   -3.40220832   -2.33387037
H   -1.58307895   0.32497741   -2.25104366
H   -1.24870944   -4.10622799   -1.84954215
O   -8.32200946   -4.96814755   -1.28573423
H   -9.00560458   -5.24748453   -1.94341323
H   -8.35817466   -5.67604123   -0.59443108
O   -10.33834357   5.41531512   0.09080337
H   -9.91780064   4.97623602   -0.63375167
H   -11.04179956   4.79507400   0.25150104
O   -10.36019548   -6.14245464   -2.68665931
H   -10.41843331   6.44558824   -3.15759466
H   -11.26510900   -6.13224880   -2.32519029
O   -5.98041236   -2.15235757   -1.52597588
H   -6.06514320   -2.78329445   -0.78532787
H   -5.98933449   -2.71945431   -2.31270501
O   5.53635077   -2.46179695   0.82830294
H   5.43630744   -3.05236205   0.12513507
H   6.39117256   -2.06711791   0.54118994
O   -11.34842445   4.22063992   -2.57036412
H   -12.05604346   3.72940151   -2.00312358
H   -11.79123341   5.00248269   -2.82068857
O   15.13054352   4.81905881   -0.28531328
H   14.57213662   4.06498464   -0.03493160
H   -14.50055560   4.34862658   -0.64772657
O   3.32843210   -4.38211541   -3.46362533
H   3.34924166   -5.34817841   -3.30604376
H   2.87836063   -4.05921974   -2.55493385
O   -12.77482579   6.50611703   -1.35820210
H   -13.36317418   -6.21002131   -0.99311770
H   -12.99022778   5.78571664   -0.77879015
O   -6.93105719   5.64434164   3.26572069
H   -6.72712858   6.02283851   4.10216128
H   -6.12850398   5.67458855   2.71388523
O   -11.86099675   -5.12946044   2.12168416
H   -11.73697620   -5.81206915   2.77392727
H   -11.39404665   -5.43790547   1.34383942
O   -2.90885803   1.09162823   -4.06643388
H   -2.50088609   1.98226174   -4.03855238
H   -3.86122527   1.15538148   -3.93259248
O   5.00905444   -2.01061436   -2.90431280
H   5.90714842   -2.34723129   -3.10893904
H   4.42900917   -2.35664968   -3.54367993
O   9.69953847   -6.41775867   -3.31143591
H   10.53063483   -6.57182548   -3.75014475
H   9.68231754   6.47828741   -2.47877424
O   -11.50125974   2.96047561   3.29949670
H   -10.80804038   3.56760234   3.55682228
H   -12.11410131   3.40126718   2.74329757
O   10.74248985   4.42617493   -1.96475562
H   11.42827522   5.01902186   -2.23713356
H   10.51428502   4.77176579   -1.07274090
O   -4.95493304   3.41856137   -2.43504892
H   -4.05821135   3.81690614   -2.22860270
H   -5.38984637   4.09913824   -2.84982293
O   6.02926390   -6.38806087   0.76163562
H   6.73658791   -6.16544031   0.13316450
H   6.11838872   -6.17886922   1.67381317
O   3.92691205   4.60796649   -2.02814941
H   3.36117671   5.39534121   -1.89786965
H   4.62384689   4.60298353   -1.39787526
O   10.87552502   1.03774463   3.02479686
H   10.26140275   1.72627964   3.24447173
H   11.29230167   0.70873117   3.83945152
O   -3.53633260   -5.21928257   -3.81871906
H   -3.03542718   -4.40087206   -3.60566100
H   -3.22968909   -5.90558061   -3.24601435
O   -12.66410281   3.88073398   1.13650368
H   -12.97393540   3.32291970   0.37985570
H   -13.11632423   4.72341197   1.10570263
O   5.24151831   4.38649454   0.68902974
H   6.02515379   3.75371491   0.56608271
H   5.56687716   5.34034916   0.54371633
O   1.46235158   -1.53651632   2.41791546
H   0.73957079   -1.17995455   1.89517907
H   1.58304368   -0.88816086   3.11994271
O   9.97128039   4.00484717   1.18270939
H   10.16689443   4.85048329   1.55565273
H   10.59256445   3.26901593   1.21700121
O   1.88992868   -6.51325867   -1.88733500
H   1.83499408   -5.46748767   -1.67596372
H   1.52080092   6.46981962   -1.12154703
O   -0.65088169   3.71673742   2.08093696
H   -0.22728323   4.32913067   1.49756523
H   -1.26765409   4.26741101   2.58019652
O   9.44140970   0.40757395   0.34090163
H   9.48574809   0.10040883   1.22090146
H   10.14259252   1.03635490   0.16321898
O   -15.17786503   1.27298151   -2.22971999
H   -14.53746844   1.97232768   -1.99136470
H   14.38136964   1.64272156   -2.03707548
O   0.92964585   4.44559256   -3.76635993
H   1.26362596   5.17875144   -3.23030719
H   1.73869940   3.97218592   -3.99850864
O   7.30454303   -4.62215208   -3.94725862
H   -0.18349230   -5.65915299   2.76023523
H   8.13071257   -5.17288959   -3.88812920
O   -2.43075226   4.39479024   -3.40827648
H   -2.17913861   5.32382978   -3.28204317
H   -1.63432744   4.00340555   -3.69553938
O   -0.49508826   -6.62489039   -3.48187384
H   0.12181439   -6.24285325   -2.92254956
H   0.03322100   6.42204666   -4.14576319
O   0.83318207   -2.79843741   -3.61029262
H   1.06256365   -3.07531180   -2.69272962
H   -0.95623554   -2.91949116   -2.78292593
O   14.31404911   5.71158824   2.13388022
H   13.56404902   5.86869797   2.74919984
H   14.54090050   6.48523145   1.58804003
O   0.67136215   -3.90746944   2.03381485
H   0.32937953   -3.38903522   1.26987787
H   1.43752887   -3.46727922   2.21808247
O   7.68119841   6.23518451   3.42136070
H   8.39448233   5.73233983   3.85399828
H   7.14993893   -6.55814838   3.94902188
O   -5.03520127   3.56024899   0.63912928
H   -4.63823611   4.42868595   0.54692429
H   -5.00717945   3.25520305   -0.30977197
O   -0.32156173   -5.63840143   -0.49108309
H   -0.45180167   -6.24074192   0.29494652
H   0.38579784   -4.97957633   -0.29515408
O   -9.21598849   -3.05053284   0.85874898
H   -9.97242432   -3.27164915   1.35322832
H   -8.90006776   -3.78057002   0.36470945
O   14.49581607   -4.96584772   -1.60741497
H   -15.09909496   -5.47634758   -1.90887097
H   13.86724876   -5.43737631   -1.08666878
O   -9.85682150   5.35025434   3.09395807
H   -8.92515326   5.59726670   3.19562878
O   -3.76137448   -5.74908066   0.98893027
H   -2.94276900   -5.90757561   0.57086340
