859

C   -10.69779000   -5.86175000   -7.33858000
C   -8.15928000   -5.87467000   -7.28444000
C   -9.41468000   -5.12658000   -7.79474000
H   -8.18229000   -5.89571000   -6.16941000
H   -8.10692000   -2.91317000   -8.83950000
C   -8.13408000   -2.93478000   -7.72453000
C   -9.41924000   -3.66982000   -7.27288000
H   -9.38993000   -5.10712000   -8.90978000
C   -10.67158000   -2.92136000   -7.78919000
C   -11.95871000   -3.65341000   -7.33682000
C   -11.95380000   -5.11654000   -7.85284000
H   -11.92645000   -5.10075000   -8.96789000
H   -10.72286000   -5.87937000   -6.22361000
H   -9.44673000   -3.68932000   -6.15795000
H   -10.64298000   -2.90338000   -8.90410000
H   -11.98586000   -3.66929000   -6.22179000
C   -10.67365000   -1.46425000   -7.26793000
C   -8.13741000   -1.47901000   -7.19913000
C   -9.38630000   -0.72957000   -7.71648000
C   -11.92041000   -0.71380000   -7.78920000
H   -10.70541000   -1.48244000   -6.15309000
H   -8.16710000   -1.50048000   -6.08426000
H   -11.88640000   -0.69713000   -8.90430000
H   -9.35497000   -0.71000000   -8.83154000
C   -13.21593000   -1.44108000   -7.34316000
C   -13.21474000   -2.90378000   -7.85312000
C   -13.24135000   -5.85281000   -7.39877000
C   -14.44389000   -0.66982000   -7.86503000
C   -14.48388000   -3.65011000   -7.40057000
C   -14.47881000   -5.09344000   -7.91324000
H   -14.45739000   -0.66872000   -8.97719000
H   -13.25760000   -1.45337000   -6.22965000
H   -13.19468000   -2.89136000   -8.96724000
H   -14.55970000   -3.65155000   -6.29099000
H   -14.49988000   -5.09157000   -9.02519000
H   -13.27612000   -5.86490000   -6.28507000
C   -14.43619000   0.77533000   -7.35447000
C   -13.15437000   1.49562000   -7.78601000
C   -11.91625000   0.74716000   -7.27043000
C   -10.63226000   1.47184000   -7.70952000
C   -9.38879000   0.72888000   -7.19432000
C   -8.10509000   1.45766000   -7.63152000
H   -14.51765000   0.78285000   -6.24627000
H   -11.95033000   0.74289000   -6.15748000
H   -9.42222000   0.72201000   -6.08145000
H   -13.13078000   1.56637000   -8.89592000
H   -10.59807000   1.54063000   -8.82034000
H   -8.07188000   1.53033000   -8.74206000
C   -8.15426000   5.92726000   -7.80901000
C   -9.43327000   5.19129000   -7.34937000
C   -10.69011000   5.93889000   -7.85911000
H   -8.13368000   5.94813000   -8.92414000
C   -9.42646000   3.73233000   -7.87017000
H   -9.45435000   5.17265000   -6.23413000
C   -10.70070000   3.00296000   -7.41457000
C   -11.95416000   3.74047000   -7.91622000
C   -11.96842000   5.20186000   -7.39887000
H   -9.40749000   3.73825000   -8.98342000
H   -10.66811000   5.95661000   -8.97422000
H   -11.98903000   5.18578000   -6.28343000
H   -11.93371000   3.74407000   -9.02954000
H   -10.72081000   2.93525000   -6.30336000
C   -8.17202000   2.99102000   -7.37307000
H   -8.18970000   2.92019000   -6.26211000
C   -13.23283000   5.94229000   -7.90813000
C   -13.22384000   3.00541000   -7.46197000
C   -14.49299000   5.18421000   -7.44730000
C   -14.47520000   3.73867000   -7.95651000
H   -13.21961000   5.95429000   -9.02238000
H   -14.56132000   5.18407000   -6.33719000
H   -14.50195000   3.73111000   -9.06739000
H   -13.25567000   2.93540000   -6.35221000
C   -3.09879000   -5.86175000   -7.33858000
C   -0.56028000   -5.87467000   -7.28444000
C   -1.81568000   -5.12658000   -7.79474000
H   -0.58329000   -5.89571000   -6.16941000
H   -0.50792000   -2.91317000   -8.83950000
C   -0.53508000   -2.93478000   -7.72453000
C   -1.82024000   -3.66982000   -7.27288000
H   -1.79093000   -5.10712000   -8.90978000
C   -3.07258000   -2.92136000   -7.78919000
C   -4.35971000   -3.65341000   -7.33682000
C   -4.35480000   -5.11654000   -7.85284000
H   -4.32745000   -5.10075000   -8.96789000
H   -3.12386000   -5.87937000   -6.22361000
H   -1.84773000   -3.68932000   -6.15795000
H   -3.04398000   -2.90338000   -8.90410000
H   -4.38686000   -3.66929000   -6.22179000
C   -3.07465000   -1.46425000   -7.26793000
C   -0.53841000   -1.47901000   -7.19913000
C   -1.78730000   -0.72957000   -7.71648000
C   -4.32141000   -0.71380000   -7.78920000
H   -3.10641000   -1.48244000   -6.15309000
H   -0.56810000   -1.50048000   -6.08426000
H   -4.28740000   -0.69713000   -8.90430000
H   -1.75597000   -0.71000000   -8.83154000
C   -5.61693000   -1.44108000   -7.34316000
C   -5.61574000   -2.90378000   -7.85312000
C   -5.64235000   -5.85281000   -7.39877000
C   -6.84489000   -0.66982000   -7.86503000
C   -6.88488000   -3.65011000   -7.40057000
C   -6.87981000   -5.09344000   -7.91324000
H   -6.85839000   -0.66872000   -8.97719000
H   -5.65860000   -1.45337000   -6.22965000
H   -5.59568000   -2.89136000   -8.96724000
H   -6.96070000   -3.65155000   -6.29099000
H   -6.90088000   -5.09157000   -9.02519000
H   -5.67712000   -5.86490000   -6.28507000
C   -6.83719000   0.77533000   -7.35447000
C   -5.55537000   1.49562000   -7.78601000
C   -4.31725000   0.74716000   -7.27043000
C   -3.03326000   1.47184000   -7.70952000
C   -1.78979000   0.72888000   -7.19432000
C   -0.50609000   1.45766000   -7.63152000
H   -6.91865000   0.78285000   -6.24627000
H   -4.35133000   0.74289000   -6.15748000
H   -1.82322000   0.72201000   -6.08145000
H   -5.53178000   1.56637000   -8.89592000
H   -2.99907000   1.54063000   -8.82034000
H   -0.47288000   1.53033000   -8.74206000
C   -0.55526000   5.92726000   -7.80901000
C   -1.83427000   5.19129000   -7.34937000
C   -3.09111000   5.93889000   -7.85911000
H   -0.53468000   5.94813000   -8.92414000
C   -1.82746000   3.73233000   -7.87017000
H   -1.85535000   5.17265000   -6.23413000
C   -3.10170000   3.00296000   -7.41457000
C   -4.35516000   3.74047000   -7.91622000
C   -4.36942000   5.20186000   -7.39887000
H   -1.80849000   3.73825000   -8.98342000
H   -3.06911000   5.95661000   -8.97422000
H   -4.39003000   5.18578000   -6.28343000
H   -4.33471000   3.74407000   -9.02954000
H   -3.12181000   2.93525000   -6.30336000
C   -0.57302000   2.99102000   -7.37307000
H   -0.59070000   2.92019000   -6.26211000
C   -5.63383000   5.94229000   -7.90813000
C   -5.62484000   3.00541000   -7.46197000
C   -6.89399000   5.18421000   -7.44730000
C   -6.87620000   3.73867000   -7.95651000
H   -5.62061000   5.95429000   -9.02238000
H   -6.96232000   5.18407000   -6.33719000
H   -6.90295000   3.73111000   -9.06739000
H   -5.65667000   2.93540000   -6.35221000
C   4.50021000   -5.86175000   -7.33858000
C   7.03872000   -5.87467000   -7.28444000
C   5.78332000   -5.12658000   -7.79474000
H   7.01571000   -5.89571000   -6.16941000
H   7.09108000   -2.91317000   -8.83950000
C   7.06392000   -2.93478000   -7.72453000
C   5.77876000   -3.66982000   -7.27288000
H   5.80807000   -5.10712000   -8.90978000
C   4.52642000   -2.92136000   -7.78919000
C   3.23929000   -3.65341000   -7.33682000
C   3.24420000   -5.11654000   -7.85284000
H   3.27155000   -5.10075000   -8.96789000
H   4.47514000   -5.87937000   -6.22361000
H   5.75127000   -3.68932000   -6.15795000
H   4.55502000   -2.90338000   -8.90410000
H   3.21214000   -3.66929000   -6.22179000
C   4.52435000   -1.46425000   -7.26793000
C   7.06059000   -1.47901000   -7.19913000
C   5.81170000   -0.72957000   -7.71648000
C   3.27759000   -0.71380000   -7.78920000
H   4.49259000   -1.48244000   -6.15309000
H   7.03090000   -1.50048000   -6.08426000
H   3.31160000   -0.69713000   -8.90430000
H   5.84303000   -0.71000000   -8.83154000
C   1.98207000   -1.44108000   -7.34316000
C   1.98326000   -2.90378000   -7.85312000
C   1.95665000   -5.85281000   -7.39877000
C   0.75411000   -0.66982000   -7.86503000
C   0.71412000   -3.65011000   -7.40057000
C   0.71919000   -5.09344000   -7.91324000
H   0.74061000   -0.66872000   -8.97719000
H   1.94040000   -1.45337000   -6.22965000
H   2.00332000   -2.89136000   -8.96724000
H   0.63830000   -3.65155000   -6.29099000
H   0.69812000   -5.09157000   -9.02519000
H   1.92188000   -5.86490000   -6.28507000
C   0.76181000   0.77533000   -7.35447000
C   2.04363000   1.49562000   -7.78601000
C   3.28175000   0.74716000   -7.27043000
C   4.56574000   1.47184000   -7.70952000
C   5.80921000   0.72888000   -7.19432000
C   7.09291000   1.45766000   -7.63152000
H   0.68035000   0.78285000   -6.24627000
H   3.24767000   0.74289000   -6.15748000
H   5.77578000   0.72201000   -6.08145000
H   2.06722000   1.56637000   -8.89592000
H   4.59993000   1.54063000   -8.82034000
H   7.12612000   1.53033000   -8.74206000
C   7.04374000   5.92726000   -7.80901000
C   5.76473000   5.19129000   -7.34937000
C   4.50789000   5.93889000   -7.85911000
H   7.06432000   5.94813000   -8.92414000
C   5.77154000   3.73233000   -7.87017000
H   5.74365000   5.17265000   -6.23413000
C   4.49730000   3.00296000   -7.41457000
C   3.24384000   3.74047000   -7.91622000
C   3.22958000   5.20186000   -7.39887000
H   5.79051000   3.73825000   -8.98342000
H   4.52989000   5.95661000   -8.97422000
H   3.20897000   5.18578000   -6.28343000
H   3.26429000   3.74407000   -9.02954000
H   4.47719000   2.93525000   -6.30336000
C   7.02598000   2.99102000   -7.37307000
H   7.00830000   2.92019000   -6.26211000
C   1.96517000   5.94229000   -7.90813000
C   1.97416000   3.00541000   -7.46197000
C   0.70501000   5.18421000   -7.44730000
C   0.72280000   3.73867000   -7.95651000
H   1.97839000   5.95429000   -9.02238000
H   0.63668000   5.18407000   -6.33719000
H   0.69605000   3.73111000   -9.06739000
H   1.94233000   2.93540000   -6.35221000
C   12.09921000   -5.86175000   -7.33858000
C   14.63772000   -5.87467000   -7.28444000
C   13.38232000   -5.12658000   -7.79474000
H   14.61471000   -5.89571000   -6.16941000
H   14.69008000   -2.91317000   -8.83950000
C   14.66292000   -2.93478000   -7.72453000
C   13.37776000   -3.66982000   -7.27288000
H   13.40707000   -5.10712000   -8.90978000
C   12.12542000   -2.92136000   -7.78919000
C   10.83829000   -3.65341000   -7.33682000
C   10.84320000   -5.11654000   -7.85284000
H   10.87055000   -5.10075000   -8.96789000
H   12.07414000   -5.87937000   -6.22361000
H   13.35027000   -3.68932000   -6.15795000
H   12.15402000   -2.90338000   -8.90410000
H   10.81114000   -3.66929000   -6.22179000
C   12.12335000   -1.46425000   -7.26793000
C   14.65959000   -1.47901000   -7.19913000
C   13.41070000   -0.72957000   -7.71648000
C   10.87659000   -0.71380000   -7.78920000
H   12.09159000   -1.48244000   -6.15309000
H   14.62990000   -1.50048000   -6.08426000
H   10.91060000   -0.69713000   -8.90430000
H   13.44203000   -0.71000000   -8.83154000
C   9.58107000   -1.44108000   -7.34316000
C   9.58226000   -2.90378000   -7.85312000
C   9.55565000   -5.85281000   -7.39877000
C   8.35311000   -0.66982000   -7.86503000
C   8.31312000   -3.65011000   -7.40057000
C   8.31819000   -5.09344000   -7.91324000
H   8.33961000   -0.66872000   -8.97719000
H   9.53940000   -1.45337000   -6.22965000
H   9.60232000   -2.89136000   -8.96724000
H   8.23730000   -3.65155000   -6.29099000
H   8.29712000   -5.09157000   -9.02519000
H   9.52088000   -5.86490000   -6.28507000
C   8.36081000   0.77533000   -7.35447000
C   9.64263000   1.49562000   -7.78601000
C   10.88075000   0.74716000   -7.27043000
C   12.16474000   1.47184000   -7.70952000
C   13.40821000   0.72888000   -7.19432000
C   14.69191000   1.45766000   -7.63152000
H   8.27935000   0.78285000   -6.24627000
H   10.84667000   0.74289000   -6.15748000
H   13.37478000   0.72201000   -6.08145000
H   9.66622000   1.56637000   -8.89592000
H   12.19893000   1.54063000   -8.82034000
H   14.72512000   1.53033000   -8.74206000
C   14.64274000   5.92726000   -7.80901000
C   13.36373000   5.19129000   -7.34937000
C   12.10689000   5.93889000   -7.85911000
H   14.66332000   5.94813000   -8.92414000
C   13.37054000   3.73233000   -7.87017000
H   13.34265000   5.17265000   -6.23413000
C   12.09630000   3.00296000   -7.41457000
C   10.84284000   3.74047000   -7.91622000
C   10.82858000   5.20186000   -7.39887000
H   13.38951000   3.73825000   -8.98342000
H   12.12889000   5.95661000   -8.97422000
H   10.80797000   5.18578000   -6.28343000
H   10.86329000   3.74407000   -9.02954000
H   12.07619000   2.93525000   -6.30336000
C   14.62498000   2.99102000   -7.37307000
H   14.60730000   2.92019000   -6.26211000
C   9.56417000   5.94229000   -7.90813000
C   9.57316000   3.00541000   -7.46197000
C   8.30401000   5.18421000   -7.44730000
C   8.32180000   3.73867000   -7.95651000
H   9.57739000   5.95429000   -9.02238000
H   8.23568000   5.18407000   -6.33719000
H   8.29505000   3.73111000   -9.06739000
H   9.54133000   2.93540000   -6.35221000
C   -10.69779000   -5.86175000   7.66142000
C   -8.15928000   -5.87467000   7.71556000
C   -9.41468000   -5.12658000   7.20526000
H   -8.18229000   -5.89571000   8.83059000
H   -8.10692000   -2.91317000   6.16050000
C   -8.13408000   -2.93478000   7.27547000
C   -9.41924000   -3.66982000   7.72712000
H   -9.38993000   -5.10712000   6.09022000
C   -10.67158000   -2.92136000   7.21081000
C   -11.95871000   -3.65341000   7.66318000
C   -11.95380000   -5.11654000   7.14716000
H   -11.92645000   -5.10075000   6.03211000
H   -10.72286000   -5.87937000   8.77639000
H   -9.44673000   -3.68932000   8.84205000
H   -10.64298000   -2.90338000   6.09590000
H   -11.98586000   -3.66929000   8.77821000
C   -10.67365000   -1.46425000   7.73207000
C   -8.13741000   -1.47901000   7.80087000
C   -9.38630000   -0.72957000   7.28352000
C   -11.92041000   -0.71380000   7.21080000
H   -10.70541000   -1.48244000   8.84691000
H   -8.16710000   -1.50048000   8.91574000
H   -11.88640000   -0.69713000   6.09570000
H   -9.35497000   -0.71000000   6.16846000
C   -13.21593000   -1.44108000   7.65684000
C   -13.21474000   -2.90378000   7.14688000
C   -13.24135000   -5.85281000   7.60123000
C   -14.44389000   -0.66982000   7.13497000
C   -14.48388000   -3.65011000   7.59943000
C   -14.47881000   -5.09344000   7.08676000
H   -14.45739000   -0.66872000   6.02281000
H   -13.25760000   -1.45337000   8.77035000
H   -13.19468000   -2.89136000   6.03276000
H   -14.55970000   -3.65155000   8.70901000
H   -14.49988000   -5.09157000   5.97481000
H   -13.27612000   -5.86490000   8.71493000
C   -14.43619000   0.77533000   7.64553000
C   -13.15437000   1.49562000   7.21399000
C   -11.91625000   0.74716000   7.72957000
C   -10.63226000   1.47184000   7.29048000
C   -9.38879000   0.72888000   7.80568000
C   -8.10509000   1.45766000   7.36848000
H   -14.51765000   0.78285000   8.75373000
H   -11.95033000   0.74289000   8.84252000
H   -9.42222000   0.72201000   8.91855000
H   -13.13078000   1.56637000   6.10408000
H   -10.59807000   1.54063000   6.17966000
H   -8.07188000   1.53033000   6.25794000
C   -8.15426000   5.92726000   7.19099000
C   -9.43327000   5.19129000   7.65063000
C   -10.69011000   5.93889000   7.14089000
H   -8.13368000   5.94813000   6.07586000
C   -9.42646000   3.73233000   7.12983000
H   -9.45435000   5.17265000   8.76587000
C   -10.70070000   3.00296000   7.58543000
C   -11.95416000   3.74047000   7.08378000
C   -11.96842000   5.20186000   7.60113000
H   -9.40749000   3.73825000   6.01658000
H   -10.66811000   5.95661000   6.02578000
H   -11.98903000   5.18578000   8.71657000
H   -11.93371000   3.74407000   5.97046000
H   -10.72081000   2.93525000   8.69664000
C   -8.17202000   2.99102000   7.62693000
H   -8.18970000   2.92019000   8.73789000
C   -13.23283000   5.94229000   7.09187000
C   -13.22384000   3.00541000   7.53803000
C   -14.49299000   5.18421000   7.55270000
C   -14.47520000   3.73867000   7.04349000
H   -13.21961000   5.95429000   5.97762000
H   -14.56132000   5.18407000   8.66281000
H   -14.50195000   3.73111000   5.93261000
H   -13.25567000   2.93540000   8.64779000
C   -3.09879000   -5.86175000   7.66142000
C   -0.56028000   -5.87467000   7.71556000
C   -1.81568000   -5.12658000   7.20526000
H   -0.58329000   -5.89571000   8.83059000
H   -0.50792000   -2.91317000   6.16050000
C   -0.53508000   -2.93478000   7.27547000
C   -1.82024000   -3.66982000   7.72712000
H   -1.79093000   -5.10712000   6.09022000
C   -3.07258000   -2.92136000   7.21081000
C   -4.35971000   -3.65341000   7.66318000
C   -4.35480000   -5.11654000   7.14716000
H   -4.32745000   -5.10075000   6.03211000
H   -3.12386000   -5.87937000   8.77639000
H   -1.84773000   -3.68932000   8.84205000
H   -3.04398000   -2.90338000   6.09590000
H   -4.38686000   -3.66929000   8.77821000
C   -3.07465000   -1.46425000   7.73207000
C   -0.53841000   -1.47901000   7.80087000
C   -1.78730000   -0.72957000   7.28352000
C   -4.32141000   -0.71380000   7.21080000
H   -3.10641000   -1.48244000   8.84691000
H   -0.56810000   -1.50048000   8.91574000
H   -1.75597000   -0.71000000   6.16846000
C   -5.61693000   -1.44108000   7.65684000
C   -5.61574000   -2.90378000   7.14688000
C   -5.64235000   -5.85281000   7.60123000
C   -6.84489000   -0.66982000   7.13497000
C   -6.88488000   -3.65011000   7.59943000
C   -6.87981000   -5.09344000   7.08676000
H   -6.85839000   -0.66872000   6.02281000
H   -5.65860000   -1.45337000   8.77035000
H   -5.59568000   -2.89136000   6.03276000
H   -6.96070000   -3.65155000   8.70901000
H   -6.90088000   -5.09157000   5.97481000
H   -5.67712000   -5.86490000   8.71493000
C   -6.83719000   0.77533000   7.64553000
C   -5.55537000   1.49562000   7.21399000
C   -4.31725000   0.74716000   7.72957000
C   -3.03326000   1.47184000   7.29048000
C   -1.78979000   0.72888000   7.80568000
C   -0.50609000   1.45766000   7.36848000
H   -6.91865000   0.78285000   8.75373000
H   -4.35133000   0.74289000   8.84252000
H   -1.82322000   0.72201000   8.91855000
H   -5.53178000   1.56637000   6.10408000
H   -2.99907000   1.54063000   6.17966000
H   -0.47288000   1.53033000   6.25794000
C   -0.55526000   5.92726000   7.19099000
C   -1.83427000   5.19129000   7.65063000
C   -3.09111000   5.93889000   7.14089000
H   -0.53468000   5.94813000   6.07586000
C   -1.82746000   3.73233000   7.12983000
H   -1.85535000   5.17265000   8.76587000
C   -3.10170000   3.00296000   7.58543000
C   -4.35516000   3.74047000   7.08378000
C   -4.36942000   5.20186000   7.60113000
H   -1.80849000   3.73825000   6.01658000
H   -3.06911000   5.95661000   6.02578000
H   -4.39003000   5.18578000   8.71657000
H   -4.33471000   3.74407000   5.97046000
H   -3.12181000   2.93525000   8.69664000
C   -0.57302000   2.99102000   7.62693000
H   -0.59070000   2.92019000   8.73789000
C   -5.63383000   5.94229000   7.09187000
C   -5.62484000   3.00541000   7.53803000
C   -6.89399000   5.18421000   7.55270000
C   -6.87620000   3.73867000   7.04349000
H   -5.62061000   5.95429000   5.97762000
H   -6.96232000   5.18407000   8.66281000
H   -6.90295000   3.73111000   5.93261000
H   -5.65667000   2.93540000   8.64779000
C   4.50021000   -5.86175000   7.66142000
C   7.03872000   -5.87467000   7.71556000
C   5.78332000   -5.12658000   7.20526000
H   7.01571000   -5.89571000   8.83059000
H   7.09108000   -2.91317000   6.16050000
C   7.06392000   -2.93478000   7.27547000
C   5.77876000   -3.66982000   7.72712000
H   5.80807000   -5.10712000   6.09022000
C   4.52642000   -2.92136000   7.21081000
C   3.23929000   -3.65341000   7.66318000
C   3.24420000   -5.11654000   7.14716000
H   3.27155000   -5.10075000   6.03211000
H   4.47514000   -5.87937000   8.77639000
H   5.75127000   -3.68932000   8.84205000
H   4.55502000   -2.90338000   6.09590000
H   3.21214000   -3.66929000   8.77821000
C   4.52435000   -1.46425000   7.73207000
C   7.06059000   -1.47901000   7.80087000
C   5.81170000   -0.72957000   7.28352000
C   3.27759000   -0.71380000   7.21080000
H   4.49259000   -1.48244000   8.84691000
H   7.03090000   -1.50048000   8.91574000
H   3.31160000   -0.69713000   6.09570000
C   1.98207000   -1.44108000   7.65684000
C   1.98326000   -2.90378000   7.14688000
C   1.95665000   -5.85281000   7.60123000
C   0.75411000   -0.66982000   7.13497000
C   0.71412000   -3.65011000   7.59943000
C   0.71919000   -5.09344000   7.08676000
H   0.74061000   -0.66872000   6.02281000
H   1.94040000   -1.45337000   8.77035000
H   2.00332000   -2.89136000   6.03276000
H   0.63830000   -3.65155000   8.70901000
H   0.69812000   -5.09157000   5.97481000
H   1.92188000   -5.86490000   8.71493000
C   0.76181000   0.77533000   7.64553000
C   2.04363000   1.49562000   7.21399000
C   3.28175000   0.74716000   7.72957000
C   4.56574000   1.47184000   7.29048000
C   5.80921000   0.72888000   7.80568000
C   7.09291000   1.45766000   7.36848000
H   0.68035000   0.78285000   8.75373000
H   3.24767000   0.74289000   8.84252000
H   5.77578000   0.72201000   8.91855000
H   2.06722000   1.56637000   6.10408000
H   4.59993000   1.54063000   6.17966000
H   7.12612000   1.53033000   6.25794000
C   7.04374000   5.92726000   7.19099000
C   5.76473000   5.19129000   7.65063000
C   4.50789000   5.93889000   7.14089000
H   7.06432000   5.94813000   6.07586000
C   5.77154000   3.73233000   7.12983000
H   5.74365000   5.17265000   8.76587000
C   4.49730000   3.00296000   7.58543000
C   3.24384000   3.74047000   7.08378000
C   3.22958000   5.20186000   7.60113000
H   5.79051000   3.73825000   6.01658000
H   4.52989000   5.95661000   6.02578000
H   3.20897000   5.18578000   8.71657000
H   3.26429000   3.74407000   5.97046000
H   4.47719000   2.93525000   8.69664000
C   7.02598000   2.99102000   7.62693000
H   7.00830000   2.92019000   8.73789000
C   1.96517000   5.94229000   7.09187000
C   1.97416000   3.00541000   7.53803000
C   0.70501000   5.18421000   7.55270000
C   0.72280000   3.73867000   7.04349000
H   1.97839000   5.95429000   5.97762000
H   0.63668000   5.18407000   8.66281000
H   0.69605000   3.73111000   5.93261000
H   1.94233000   2.93540000   8.64779000
C   12.09921000   -5.86175000   7.66142000
C   14.63772000   -5.87467000   7.71556000
C   13.38232000   -5.12658000   7.20526000
H   14.61471000   -5.89571000   8.83059000
H   14.69008000   -2.91317000   6.16050000
C   14.66292000   -2.93478000   7.27547000
C   13.37776000   -3.66982000   7.72712000
H   13.40707000   -5.10712000   6.09022000
C   12.12542000   -2.92136000   7.21081000
C   10.83829000   -3.65341000   7.66318000
C   10.84320000   -5.11654000   7.14716000
H   10.87055000   -5.10075000   6.03211000
H   12.07414000   -5.87937000   8.77639000
H   13.35027000   -3.68932000   8.84205000
H   12.15402000   -2.90338000   6.09590000
H   10.81114000   -3.66929000   8.77821000
C   12.12335000   -1.46425000   7.73207000
C   14.65959000   -1.47901000   7.80087000
C   13.41070000   -0.72957000   7.28352000
C   10.87659000   -0.71380000   7.21080000
H   12.09159000   -1.48244000   8.84691000
H   14.62990000   -1.50048000   8.91574000
H   10.91060000   -0.69713000   6.09570000
H   13.44203000   -0.71000000   6.16846000
C   9.58107000   -1.44108000   7.65684000
C   9.58226000   -2.90378000   7.14688000
C   9.55565000   -5.85281000   7.60123000
C   8.35311000   -0.66982000   7.13497000
C   8.31312000   -3.65011000   7.59943000
C   8.31819000   -5.09344000   7.08676000
H   8.33961000   -0.66872000   6.02281000
H   9.53940000   -1.45337000   8.77035000
H   9.60232000   -2.89136000   6.03276000
H   8.23730000   -3.65155000   8.70901000
H   8.29712000   -5.09157000   5.97481000
H   9.52088000   -5.86490000   8.71493000
C   8.36081000   0.77533000   7.64553000
C   9.64263000   1.49562000   7.21399000
C   10.88075000   0.74716000   7.72957000
C   12.16474000   1.47184000   7.29048000
C   13.40821000   0.72888000   7.80568000
C   14.69191000   1.45766000   7.36848000
H   8.27935000   0.78285000   8.75373000
H   10.84667000   0.74289000   8.84252000
H   13.37478000   0.72201000   8.91855000
H   9.66622000   1.56637000   6.10408000
H   12.19893000   1.54063000   6.17966000
H   14.72512000   1.53033000   6.25794000
C   14.64274000   5.92726000   7.19099000
C   13.36373000   5.19129000   7.65063000
C   12.10689000   5.93889000   7.14089000
H   14.66332000   5.94813000   6.07586000
C   13.37054000   3.73233000   7.12983000
H   13.34265000   5.17265000   8.76587000
C   12.09630000   3.00296000   7.58543000
C   10.84284000   3.74047000   7.08378000
C   10.82858000   5.20186000   7.60113000
H   13.38951000   3.73825000   6.01658000
H   12.12889000   5.95661000   6.02578000
H   10.80797000   5.18578000   8.71657000
H   10.86329000   3.74407000   5.97046000
H   12.07619000   2.93525000   8.69664000
C   14.62498000   2.99102000   7.62693000
H   14.60730000   2.92019000   8.73789000
C   9.56417000   5.94229000   7.09187000
C   9.57316000   3.00541000   7.53803000
C   8.30401000   5.18421000   7.55270000
C   8.32180000   3.73867000   7.04349000
H   9.57739000   5.95429000   5.97762000
H   8.23568000   5.18407000   8.66281000
H   8.29505000   3.73111000   5.93261000
H   9.54133000   2.93540000   8.64779000
N   -7.32650387   -3.03317819   -0.66075669
C   -7.06454718   -1.71820307   0.19066266
H   -6.57953397   -0.94735479   -0.42565831
H   -8.06075165   -1.37665461   0.37745041
C   -6.22493842   -1.87678460   1.47358316
H   -6.92702600   -2.06760018   2.32114969
H   -5.56260166   -2.72118598   1.56924264
C   -4.21455891   -0.63918492   5.48575219
H   -3.68273975   -1.51176329   5.31277389
H   -3.42154806   0.13119307   5.27408026
C   -5.29596941   -0.57645400   4.36156278
H   -5.92602918   -1.47970653   4.39689218
H   -6.01495445   0.23564670   4.38514435
C   -4.62428089   -0.48484688   2.98001850
H   -3.79825898   -1.24153253   2.87197362
H   -4.06756145   0.38824622   2.86337358
C   -5.44805900   -0.56030418   1.73120004
H   -6.07526360   0.26134860   1.62005895
H   -4.79159585   -0.30437758   0.88907568
C   -8.23741090   -2.67081514   -1.78118926
H   -7.64314501   -2.27657156   -2.57178600
H   -8.94901199   -1.94956037   -1.49579397
H   -8.70448041   -3.57945301   -2.06196970
C   -7.91005725   -4.14915223   0.12805125
H   -8.66382105   -3.71015590   0.78289026
H   -7.08925305   -4.50210938   0.71363504
H   -8.25593542   -4.98705653   -0.46714032
C   -6.04869905   -3.60877346   -1.34538012
H   -6.25741224   -4.52617085   -1.90984489
H   -5.30468917   -3.90495850   -0.55142140
H   -5.62703425   -2.93838063   -2.00182890
N   4.39735594   -0.82795548   -1.25892467
C   5.46047879   -0.67599466   -0.09798471
H   5.18128062   -1.42262079   0.72870598
H   6.48042295   -0.83688134   -0.48594638
C   5.30966793   0.74517914   0.65355593
H   5.55378650   1.57742538   -0.09360255
H   4.24217509   0.83962912   0.89060859
C   5.81046880   -0.77315954   5.56807457
H   4.89364365   -1.26512529   5.18280746
H   6.59992459   -1.51719706   5.29584928
C   6.20655471   0.33901622   4.55092535
H   5.60099606   1.25942621   4.68968323
H   7.27059002   0.60214100   4.66438294
C   5.78678352   -0.14058584   3.09731109
H   4.72373451   -0.30764033   3.18955140
H   6.30133823   -1.05098366   2.95073813
C   6.09258731   0.86176096   1.92388887
H   5.95292791   1.87698431   2.27006069
H   7.20947452   0.98999337   1.62142690
C   3.00652808   -0.81428413   -0.63972057
H   2.22583116   -0.79378075   -1.50878081
H   2.85456254   0.12230902   -0.20316456
H   2.82865084   -1.61492157   0.11472138
C   4.46063923   -2.14878454   -2.01894456
H   4.14124222   -2.84071603   -1.29944538
H   5.41860082   -2.39479407   -2.48457271
H   3.77939986   -2.04467995   -2.89005570
C   4.62700475   0.27058354   -2.21133814
H   3.92776405   0.27615576   -3.04770138
H   5.66063291   0.28694498   -2.57090593
H   4.47690192   1.25027820   -1.68963955
O   -13.03008725   2.11893988   3.65276537
H   -13.98000743   2.04457663   3.73383753
H   -12.79539419   2.93088871   4.16058548
O   13.65457428   -0.05621152   2.15677115
H   14.45933624   -0.39985342   1.76916518
H   13.20345112   -0.75551428   2.66419849
O   -4.86773796   5.91327445   -0.39156739
H   -4.56761561   5.61685446   0.54118772
H   -4.86600660   -6.55591571   -0.24230856
O   -3.21623280   2.89893319   -3.28980346
H   -2.67134713   2.31192237   -2.70570977
H   -3.87552929   2.22278895   -3.55228687
O   12.04293066   6.15044114   -3.72156134
H   11.49511544   5.90312813   -2.90842230
H   11.94331048   -6.28758326   -3.88135506
O   0.30781693   5.54262965   -2.41239493
H   1.08143998   5.29806289   -1.90224754
H   0.57829625   6.03112480   -3.20198158
O   0.99215583   1.02708510   0.13514838
H   1.01236771   1.31335947   -0.79017250
H   0.52030784   0.20548187   0.06956757
O   9.18431394   -1.76636172   1.22268713
H   9.39076272   -2.50735332   0.65189260
H   11.04619025   1.08604881   -0.96371322
O   0.82272514   -2.06400142   -3.10959018
H   0.05399773   -2.56681033   -2.62664160
H   1.09191724   -2.61860890   -3.85196522
O   9.78005631   0.46128673   3.13080414
H   9.28882301   -0.29015518   3.45810442
H   10.24949479   0.21790383   2.31869646
O   -9.16491349   -6.68582221   -1.44043526
H   -9.64700101   5.91901319   -1.10865945
H   -8.50229575   6.34858745   -2.14032876
O   10.84427826   -5.18759529   1.28144926
H   11.37029668   -5.98976302   0.99347831
H   -0.37529919   -3.90561751   -0.46031543
O   -11.70877612   -3.39455593   0.99163185
H   -12.15726422   -4.00651835   0.34165232
H   -10.92733826   -3.84598962   1.40511941
O   -7.21562890   5.29838326   -3.46501540
H   -6.87376478   4.52009030   -3.05302484
H   -6.55136539   5.86992478   -3.79605325
O   14.53738021   5.38073465   -0.18674076
H   13.58826711   5.56858962   0.20118293
H   15.14390819   5.54703282   0.51633636
O   10.04124010   4.56400771   3.33711812
H   9.89130900   4.01204618   4.08250118
H   12.36003253   -3.89507178   3.67864189
O   5.69275460   -4.99559455   -2.29928095
H   5.53325520   -4.86191345   -1.36338708
H   5.86626472   -5.92013995   -2.39099569
O   13.18879164   -4.15336064   3.23238920
H   11.39490175   -4.39511155   1.33636371
H   13.09186171   -5.13323097   3.20496490
O   -1.86950454   2.12495206   2.44852573
H   -1.05493609   2.53544044   2.14375290
H   -2.36887172   1.62594290   1.73084126
O   -4.29482683   -5.20645203   1.23587089
H   -4.06841602   -5.71338326   2.03166573
H   -3.55929034   -4.55675160   1.20262586
O   -10.09208516   -0.23794353   -1.18449898
H   -10.60746230   -0.22938868   -2.01710217
H   -10.63093076   0.08960016   -0.51998494
O   -0.42823878   -1.34975888   0.01947262
H   -0.48695545   -1.90895089   -0.80151171
H   7.93252962   0.79540104   -2.55312607
O   2.80729185   -4.73652752   -0.76579312
H   1.82025671   -4.54942100   -0.69559240
H   2.90598906   -5.57783033   -0.30947754
O   -2.70096118   1.06547761   -0.50558365
H   -1.79122508   1.18146387   -0.83181615
H   -2.93925792   1.96100566   -0.27327112
O   12.31454436   -2.58961091   1.02746674
H   12.73705060   -2.68804360   1.90911599
H   0.46021268   -6.67313505   2.23722279
O   13.72443954   -4.88808764   -0.26364324
H   13.44268979   -5.77446574   -0.01373939
H   13.81303100   -5.08458086   -1.19625390
O   6.98162375   5.59172034   -2.54726121
H   7.57533146   4.86189394   -2.34800874
H   5.35203727   -5.67134549   1.29137736
O   13.96373894   2.25895874   -0.84988193
H   14.23105021   3.09760385   -0.52877443
H   13.08447272   2.05212060   -0.44305253
O   -5.51409007   -5.31162876   -3.80263889
H   -4.65590723   -5.52279588   -3.36773867
H   -5.26916832   -5.16735352   -4.67802329
O   -11.56458543   -2.91541480   -3.39108182
H   -12.26983001   -3.54275983   -3.11387749
H   -10.91443314   -2.82488880   -2.70122512
O   2.21643663   -5.96908353   -3.33380021
H   3.14704660   -5.91012152   -3.54043433
H   2.15230818   -5.72204205   -2.42849231
O   -3.23649292   -3.02206271   -0.00324336
H   -3.16670851   -2.06269885   -0.30522407
H   -2.43792316   -3.44092134   -0.51726861
O   -11.71103882   -0.08392010   -3.71210635
H   -12.53170118   0.39650659   -3.50984787
H   -11.89998016   -0.89517777   -4.11771476
O   9.91178511   3.18154067   -2.87144140
H   10.05056447   2.25392699   -2.77685919
H   12.86283972   -2.98416008   0.38799244
O   -7.31445976   1.15159737   -1.74959582
H   -6.85046230   1.94233272   -1.57925702
H   -8.22626311   1.47530640   -1.85385370
O   13.22304396   6.28657053   3.22404319
H   12.33405811   6.20700359   3.59881853
H   13.06308432   6.34767619   2.22768684
O   6.46482905   -5.78035306   3.36073667
H   5.97776673   -6.26985277   4.05053976
H   7.40984129   -5.55309321   3.48212577
O   -1.33063697   -6.65343059   -0.03223992
H   -1.27704896   -5.76456824   0.23656202
H   -1.29203261   -1.47312174   0.46200403
O   -10.38556999   -5.59303055   2.17359488
H   -11.18124281   -6.10662040   1.86444827
H   -10.42184538   -5.50684250   3.11633634
O   -6.27126846   3.58389159   -1.01257382
H   -5.60745327   4.24464184   -1.12674313
H   -6.92288889   4.06816892   -0.52351684
O   8.02842110   -4.48058722   1.16533498
H   8.63013679   -4.62396462   1.89967478
H   7.95365150   -5.29823357   0.64761816
O   0.52882531   0.74727294   -2.82251696
H   0.50453545   -0.19690039   -2.97981048
H   0.65604420   1.18188769   -3.69339394
O   -1.18048754   -3.22099744   -1.80118467
H   -0.42239823   6.53572406   -0.14997678
H   -1.67606018   -3.95029510   -2.28621225
O   11.88374139   1.20699959   0.67503618
H   12.07172097   1.94246213   1.24365834
H   12.49346333   0.49057472   0.99624435
O   -14.66204005   -3.11354941   0.34987348
H   14.87662984   -3.51224572   0.34814962
H   -14.12273316   -3.63978954   0.97397668
O   12.23576754   5.89513746   0.83821831
H   10.58610484   3.40225182   -3.52517114
H   11.69845184   5.16258962   1.22239066
O   8.01113159   0.11776483   -3.30805413
H   10.75969779   4.21148104   2.80351913
H   8.95457998   -0.12347038   -3.24504599
O   10.70840363   5.77859282   -1.35093706
H   11.39886712   6.16751158   -0.76666671
H   10.76435682   4.79446318   -1.15402906
O   7.47737903   2.32948690   -1.19922970
H   7.14437424   2.79343573   -1.97961041
H   8.44066877   2.41115480   -1.17536600
O   -12.31730678   3.38922567   0.23966306
H   -13.18312326   3.82678133   0.37371062
H   -12.26846941   3.07741601   -0.68344789
O   -12.05984553   6.66387672   -2.15581147
H   -11.33404438   -6.22760486   -2.57870016
H   -12.41760525   6.09995349   -2.81245004
O   -5.09635110   0.39242793   -4.21463846
H   -4.69405919   -0.21461877   -3.58258988
H   -6.05192457   0.46890159   -3.94496270
O   -1.76814936   4.14499178   -1.12597441
H   -2.11414738   3.98413080   -2.00565680
H   -1.56202397   5.08019976   -1.13900611
O   8.18694886   5.87356765   0.19219816
H   7.88898805   5.03423582   0.68536462
H   9.10813148   5.73828095   -0.00151935
O   -14.32460247   -2.65673264   4.03760461
H   -15.17944073   -2.41596616   3.70377260
H   -13.75047648   -2.42680518   3.31106522
O   -2.76032480   -1.21206157   -2.61543695
H   -2.50428894   -0.34630860   -2.25508873
H   -2.12684381   -1.96195339   -2.26048705
O   -2.08400933   -6.37498569   -2.61005640
H   -1.25270806   6.64633721   -2.17145626
H   -2.39397445   6.18126297   -3.07084715
O   -13.70400134   -4.37839757   -2.42581915
H   -13.92938871   -5.32743710   -2.28413475
H   -14.51589502   -3.87093208   -2.27342398
O   2.36544250   3.47569743   1.51564885
H   1.47916423   3.61746241   1.35961280
H   2.62089281   2.77316347   0.95397347
O   14.65084892   -6.33274587   -2.62129303
H   14.70727074   6.61875268   -1.71814659
H   13.80024637   6.67270434   -2.89235116
O   -10.55920923   0.16179755   3.87986164
H   -10.94039179   -0.59585572   4.36461686
H   -11.32748573   0.70846219   3.64187699
O   -9.06040188   3.44503677   0.38471978
H   -9.18716890   3.02459287   1.22511986
H   -9.31540774   2.83209856   -0.31137146
O   10.27335743   -3.00344255   3.84235359
H   9.90567863   -2.64060530   3.04099280
H   9.84885643   -3.81714681   4.14224631
O   5.30200290   -5.91476169   0.39979245
H   -12.68363605   6.40650040   -0.03655090
H   6.10626678   -6.51030480   0.28359489
O   10.48965782   0.79207744   -1.73995406
H   10.79537797   -0.11992783   -1.91915884
H   6.57823920   6.03475553   -1.75516912
O   1.18331432   6.16684473   1.86035420
H   1.46810934   5.52935820   2.50736343
H   10.03782132   -1.32224954   1.46370630
O   9.51598528   -5.85575950   3.70194779
H   9.97911748   -5.67152305   2.88292053
H   9.30528671   6.57107749   3.60391052
O   3.94859074   3.05953438   -2.00342984
H   4.12685524   4.03589872   -1.86868853
H   2.98048258   2.97318604   -2.11399267
O   3.78309826   5.67138160   -0.86479950
H   4.36061053   6.32810579   -0.40427652
H   3.03047659   5.45875287   -0.24461392
O   -13.90496923   -0.69657028   1.77246447
H   -12.95838902   -0.53997069   1.87188184
H   -13.89305519   -1.22608759   0.95140832
O   -10.25365781   2.39336663   -2.42391791
H   -10.25067764   1.52243574   -2.86226080
H   -9.82979419   3.14782314   -2.83068776
O   -1.94976055   6.69370829   2.66278480
H   -2.20270355   5.84074368   3.17100001
H   -2.10606952   6.38098680   1.72416541
O   13.27664434   3.41358964   2.20750991
H   13.36122938   3.54130840   1.25199681
H   13.07473490   4.29474497   2.62177578
O   0.00843294   -4.19972590   0.43137044
H   0.18084199   -3.45272359   0.97114863
O   -12.49852698   6.43493570   0.93134013
H   -12.56702550   5.54110780   1.18171882
