859

C   -10.69779000   -5.86175000   -7.33858000
C   -8.15928000   -5.87467000   -7.28444000
C   -9.41468000   -5.12658000   -7.79474000
H   -8.18229000   -5.89571000   -6.16941000
H   -8.10692000   -2.91317000   -8.83950000
C   -8.13408000   -2.93478000   -7.72453000
C   -9.41924000   -3.66982000   -7.27288000
H   -9.38993000   -5.10712000   -8.90978000
C   -10.67158000   -2.92136000   -7.78919000
C   -11.95871000   -3.65341000   -7.33682000
C   -11.95380000   -5.11654000   -7.85284000
H   -11.92645000   -5.10075000   -8.96789000
H   -10.72286000   -5.87937000   -6.22361000
H   -9.44673000   -3.68932000   -6.15795000
H   -10.64298000   -2.90338000   -8.90410000
H   -11.98586000   -3.66929000   -6.22179000
C   -10.67365000   -1.46425000   -7.26793000
C   -8.13741000   -1.47901000   -7.19913000
C   -9.38630000   -0.72957000   -7.71648000
C   -11.92041000   -0.71380000   -7.78920000
H   -10.70541000   -1.48244000   -6.15309000
H   -8.16710000   -1.50048000   -6.08426000
H   -11.88640000   -0.69713000   -8.90430000
H   -9.35497000   -0.71000000   -8.83154000
C   -13.21593000   -1.44108000   -7.34316000
C   -13.21474000   -2.90378000   -7.85312000
C   -13.24135000   -5.85281000   -7.39877000
C   -14.44389000   -0.66982000   -7.86503000
C   -14.48388000   -3.65011000   -7.40057000
C   -14.47881000   -5.09344000   -7.91324000
H   -14.45739000   -0.66872000   -8.97719000
H   -13.25760000   -1.45337000   -6.22965000
H   -13.19468000   -2.89136000   -8.96724000
H   -14.55970000   -3.65155000   -6.29099000
H   -14.49988000   -5.09157000   -9.02519000
H   -13.27612000   -5.86490000   -6.28507000
C   -14.43619000   0.77533000   -7.35447000
C   -13.15437000   1.49562000   -7.78601000
C   -11.91625000   0.74716000   -7.27043000
C   -10.63226000   1.47184000   -7.70952000
C   -9.38879000   0.72888000   -7.19432000
C   -8.10509000   1.45766000   -7.63152000
H   -14.51765000   0.78285000   -6.24627000
H   -11.95033000   0.74289000   -6.15748000
H   -9.42222000   0.72201000   -6.08145000
H   -13.13078000   1.56637000   -8.89592000
H   -10.59807000   1.54063000   -8.82034000
H   -8.07188000   1.53033000   -8.74206000
C   -8.15426000   5.92726000   -7.80901000
C   -9.43327000   5.19129000   -7.34937000
C   -10.69011000   5.93889000   -7.85911000
H   -8.13368000   5.94813000   -8.92414000
C   -9.42646000   3.73233000   -7.87017000
H   -9.45435000   5.17265000   -6.23413000
C   -10.70070000   3.00296000   -7.41457000
C   -11.95416000   3.74047000   -7.91622000
C   -11.96842000   5.20186000   -7.39887000
H   -9.40749000   3.73825000   -8.98342000
H   -10.66811000   5.95661000   -8.97422000
H   -11.98903000   5.18578000   -6.28343000
H   -11.93371000   3.74407000   -9.02954000
H   -10.72081000   2.93525000   -6.30336000
C   -8.17202000   2.99102000   -7.37307000
H   -8.18970000   2.92019000   -6.26211000
C   -13.23283000   5.94229000   -7.90813000
C   -13.22384000   3.00541000   -7.46197000
C   -14.49299000   5.18421000   -7.44730000
C   -14.47520000   3.73867000   -7.95651000
H   -13.21961000   5.95429000   -9.02238000
H   -14.56132000   5.18407000   -6.33719000
H   -14.50195000   3.73111000   -9.06739000
H   -13.25567000   2.93540000   -6.35221000
C   -3.09879000   -5.86175000   -7.33858000
C   -0.56028000   -5.87467000   -7.28444000
C   -1.81568000   -5.12658000   -7.79474000
H   -0.58329000   -5.89571000   -6.16941000
H   -0.50792000   -2.91317000   -8.83950000
C   -0.53508000   -2.93478000   -7.72453000
C   -1.82024000   -3.66982000   -7.27288000
H   -1.79093000   -5.10712000   -8.90978000
C   -3.07258000   -2.92136000   -7.78919000
C   -4.35971000   -3.65341000   -7.33682000
C   -4.35480000   -5.11654000   -7.85284000
H   -4.32745000   -5.10075000   -8.96789000
H   -3.12386000   -5.87937000   -6.22361000
H   -1.84773000   -3.68932000   -6.15795000
H   -3.04398000   -2.90338000   -8.90410000
H   -4.38686000   -3.66929000   -6.22179000
C   -3.07465000   -1.46425000   -7.26793000
C   -0.53841000   -1.47901000   -7.19913000
C   -1.78730000   -0.72957000   -7.71648000
C   -4.32141000   -0.71380000   -7.78920000
H   -3.10641000   -1.48244000   -6.15309000
H   -0.56810000   -1.50048000   -6.08426000
H   -4.28740000   -0.69713000   -8.90430000
H   -1.75597000   -0.71000000   -8.83154000
C   -5.61693000   -1.44108000   -7.34316000
C   -5.61574000   -2.90378000   -7.85312000
C   -5.64235000   -5.85281000   -7.39877000
C   -6.84489000   -0.66982000   -7.86503000
C   -6.88488000   -3.65011000   -7.40057000
C   -6.87981000   -5.09344000   -7.91324000
H   -6.85839000   -0.66872000   -8.97719000
H   -5.65860000   -1.45337000   -6.22965000
H   -5.59568000   -2.89136000   -8.96724000
H   -6.96070000   -3.65155000   -6.29099000
H   -6.90088000   -5.09157000   -9.02519000
H   -5.67712000   -5.86490000   -6.28507000
C   -6.83719000   0.77533000   -7.35447000
C   -5.55537000   1.49562000   -7.78601000
C   -4.31725000   0.74716000   -7.27043000
C   -3.03326000   1.47184000   -7.70952000
C   -1.78979000   0.72888000   -7.19432000
C   -0.50609000   1.45766000   -7.63152000
H   -6.91865000   0.78285000   -6.24627000
H   -4.35133000   0.74289000   -6.15748000
H   -1.82322000   0.72201000   -6.08145000
H   -5.53178000   1.56637000   -8.89592000
H   -2.99907000   1.54063000   -8.82034000
H   -0.47288000   1.53033000   -8.74206000
C   -0.55526000   5.92726000   -7.80901000
C   -1.83427000   5.19129000   -7.34937000
C   -3.09111000   5.93889000   -7.85911000
H   -0.53468000   5.94813000   -8.92414000
C   -1.82746000   3.73233000   -7.87017000
H   -1.85535000   5.17265000   -6.23413000
C   -3.10170000   3.00296000   -7.41457000
C   -4.35516000   3.74047000   -7.91622000
C   -4.36942000   5.20186000   -7.39887000
H   -1.80849000   3.73825000   -8.98342000
H   -3.06911000   5.95661000   -8.97422000
H   -4.39003000   5.18578000   -6.28343000
H   -4.33471000   3.74407000   -9.02954000
H   -3.12181000   2.93525000   -6.30336000
C   -0.57302000   2.99102000   -7.37307000
H   -0.59070000   2.92019000   -6.26211000
C   -5.63383000   5.94229000   -7.90813000
C   -5.62484000   3.00541000   -7.46197000
C   -6.89399000   5.18421000   -7.44730000
C   -6.87620000   3.73867000   -7.95651000
H   -5.62061000   5.95429000   -9.02238000
H   -6.96232000   5.18407000   -6.33719000
H   -6.90295000   3.73111000   -9.06739000
H   -5.65667000   2.93540000   -6.35221000
C   4.50021000   -5.86175000   -7.33858000
C   7.03872000   -5.87467000   -7.28444000
C   5.78332000   -5.12658000   -7.79474000
H   7.01571000   -5.89571000   -6.16941000
H   7.09108000   -2.91317000   -8.83950000
C   7.06392000   -2.93478000   -7.72453000
C   5.77876000   -3.66982000   -7.27288000
H   5.80807000   -5.10712000   -8.90978000
C   4.52642000   -2.92136000   -7.78919000
C   3.23929000   -3.65341000   -7.33682000
C   3.24420000   -5.11654000   -7.85284000
H   3.27155000   -5.10075000   -8.96789000
H   4.47514000   -5.87937000   -6.22361000
H   5.75127000   -3.68932000   -6.15795000
H   4.55502000   -2.90338000   -8.90410000
H   3.21214000   -3.66929000   -6.22179000
C   4.52435000   -1.46425000   -7.26793000
C   7.06059000   -1.47901000   -7.19913000
C   5.81170000   -0.72957000   -7.71648000
C   3.27759000   -0.71380000   -7.78920000
H   4.49259000   -1.48244000   -6.15309000
H   7.03090000   -1.50048000   -6.08426000
H   3.31160000   -0.69713000   -8.90430000
H   5.84303000   -0.71000000   -8.83154000
C   1.98207000   -1.44108000   -7.34316000
C   1.98326000   -2.90378000   -7.85312000
C   1.95665000   -5.85281000   -7.39877000
C   0.75411000   -0.66982000   -7.86503000
C   0.71412000   -3.65011000   -7.40057000
C   0.71919000   -5.09344000   -7.91324000
H   0.74061000   -0.66872000   -8.97719000
H   1.94040000   -1.45337000   -6.22965000
H   2.00332000   -2.89136000   -8.96724000
H   0.63830000   -3.65155000   -6.29099000
H   0.69812000   -5.09157000   -9.02519000
H   1.92188000   -5.86490000   -6.28507000
C   0.76181000   0.77533000   -7.35447000
C   2.04363000   1.49562000   -7.78601000
C   3.28175000   0.74716000   -7.27043000
C   4.56574000   1.47184000   -7.70952000
C   5.80921000   0.72888000   -7.19432000
C   7.09291000   1.45766000   -7.63152000
H   0.68035000   0.78285000   -6.24627000
H   3.24767000   0.74289000   -6.15748000
H   5.77578000   0.72201000   -6.08145000
H   2.06722000   1.56637000   -8.89592000
H   4.59993000   1.54063000   -8.82034000
H   7.12612000   1.53033000   -8.74206000
C   7.04374000   5.92726000   -7.80901000
C   5.76473000   5.19129000   -7.34937000
C   4.50789000   5.93889000   -7.85911000
H   7.06432000   5.94813000   -8.92414000
C   5.77154000   3.73233000   -7.87017000
H   5.74365000   5.17265000   -6.23413000
C   4.49730000   3.00296000   -7.41457000
C   3.24384000   3.74047000   -7.91622000
C   3.22958000   5.20186000   -7.39887000
H   5.79051000   3.73825000   -8.98342000
H   4.52989000   5.95661000   -8.97422000
H   3.20897000   5.18578000   -6.28343000
H   3.26429000   3.74407000   -9.02954000
H   4.47719000   2.93525000   -6.30336000
C   7.02598000   2.99102000   -7.37307000
H   7.00830000   2.92019000   -6.26211000
C   1.96517000   5.94229000   -7.90813000
C   1.97416000   3.00541000   -7.46197000
C   0.70501000   5.18421000   -7.44730000
C   0.72280000   3.73867000   -7.95651000
H   1.97839000   5.95429000   -9.02238000
H   0.63668000   5.18407000   -6.33719000
H   0.69605000   3.73111000   -9.06739000
H   1.94233000   2.93540000   -6.35221000
C   12.09921000   -5.86175000   -7.33858000
C   14.63772000   -5.87467000   -7.28444000
C   13.38232000   -5.12658000   -7.79474000
H   14.61471000   -5.89571000   -6.16941000
H   14.69008000   -2.91317000   -8.83950000
C   14.66292000   -2.93478000   -7.72453000
C   13.37776000   -3.66982000   -7.27288000
H   13.40707000   -5.10712000   -8.90978000
C   12.12542000   -2.92136000   -7.78919000
C   10.83829000   -3.65341000   -7.33682000
C   10.84320000   -5.11654000   -7.85284000
H   10.87055000   -5.10075000   -8.96789000
H   12.07414000   -5.87937000   -6.22361000
H   13.35027000   -3.68932000   -6.15795000
H   12.15402000   -2.90338000   -8.90410000
H   10.81114000   -3.66929000   -6.22179000
C   12.12335000   -1.46425000   -7.26793000
C   14.65959000   -1.47901000   -7.19913000
C   13.41070000   -0.72957000   -7.71648000
C   10.87659000   -0.71380000   -7.78920000
H   12.09159000   -1.48244000   -6.15309000
H   14.62990000   -1.50048000   -6.08426000
H   10.91060000   -0.69713000   -8.90430000
H   13.44203000   -0.71000000   -8.83154000
C   9.58107000   -1.44108000   -7.34316000
C   9.58226000   -2.90378000   -7.85312000
C   9.55565000   -5.85281000   -7.39877000
C   8.35311000   -0.66982000   -7.86503000
C   8.31312000   -3.65011000   -7.40057000
C   8.31819000   -5.09344000   -7.91324000
H   8.33961000   -0.66872000   -8.97719000
H   9.53940000   -1.45337000   -6.22965000
H   9.60232000   -2.89136000   -8.96724000
H   8.23730000   -3.65155000   -6.29099000
H   8.29712000   -5.09157000   -9.02519000
H   9.52088000   -5.86490000   -6.28507000
C   8.36081000   0.77533000   -7.35447000
C   9.64263000   1.49562000   -7.78601000
C   10.88075000   0.74716000   -7.27043000
C   12.16474000   1.47184000   -7.70952000
C   13.40821000   0.72888000   -7.19432000
C   14.69191000   1.45766000   -7.63152000
H   8.27935000   0.78285000   -6.24627000
H   10.84667000   0.74289000   -6.15748000
H   13.37478000   0.72201000   -6.08145000
H   9.66622000   1.56637000   -8.89592000
H   12.19893000   1.54063000   -8.82034000
H   14.72512000   1.53033000   -8.74206000
C   14.64274000   5.92726000   -7.80901000
C   13.36373000   5.19129000   -7.34937000
C   12.10689000   5.93889000   -7.85911000
H   14.66332000   5.94813000   -8.92414000
C   13.37054000   3.73233000   -7.87017000
H   13.34265000   5.17265000   -6.23413000
C   12.09630000   3.00296000   -7.41457000
C   10.84284000   3.74047000   -7.91622000
C   10.82858000   5.20186000   -7.39887000
H   13.38951000   3.73825000   -8.98342000
H   12.12889000   5.95661000   -8.97422000
H   10.80797000   5.18578000   -6.28343000
H   10.86329000   3.74407000   -9.02954000
H   12.07619000   2.93525000   -6.30336000
C   14.62498000   2.99102000   -7.37307000
H   14.60730000   2.92019000   -6.26211000
C   9.56417000   5.94229000   -7.90813000
C   9.57316000   3.00541000   -7.46197000
C   8.30401000   5.18421000   -7.44730000
C   8.32180000   3.73867000   -7.95651000
H   9.57739000   5.95429000   -9.02238000
H   8.23568000   5.18407000   -6.33719000
H   8.29505000   3.73111000   -9.06739000
H   9.54133000   2.93540000   -6.35221000
C   -10.69779000   -5.86175000   7.66142000
C   -8.15928000   -5.87467000   7.71556000
C   -9.41468000   -5.12658000   7.20526000
H   -8.18229000   -5.89571000   8.83059000
H   -8.10692000   -2.91317000   6.16050000
C   -8.13408000   -2.93478000   7.27547000
C   -9.41924000   -3.66982000   7.72712000
H   -9.38993000   -5.10712000   6.09022000
C   -10.67158000   -2.92136000   7.21081000
C   -11.95871000   -3.65341000   7.66318000
C   -11.95380000   -5.11654000   7.14716000
H   -11.92645000   -5.10075000   6.03211000
H   -10.72286000   -5.87937000   8.77639000
H   -9.44673000   -3.68932000   8.84205000
H   -10.64298000   -2.90338000   6.09590000
H   -11.98586000   -3.66929000   8.77821000
C   -10.67365000   -1.46425000   7.73207000
C   -8.13741000   -1.47901000   7.80087000
C   -9.38630000   -0.72957000   7.28352000
C   -11.92041000   -0.71380000   7.21080000
H   -10.70541000   -1.48244000   8.84691000
H   -8.16710000   -1.50048000   8.91574000
H   -11.88640000   -0.69713000   6.09570000
H   -9.35497000   -0.71000000   6.16846000
C   -13.21593000   -1.44108000   7.65684000
C   -13.21474000   -2.90378000   7.14688000
C   -13.24135000   -5.85281000   7.60123000
C   -14.44389000   -0.66982000   7.13497000
C   -14.48388000   -3.65011000   7.59943000
C   -14.47881000   -5.09344000   7.08676000
H   -14.45739000   -0.66872000   6.02281000
H   -13.25760000   -1.45337000   8.77035000
H   -13.19468000   -2.89136000   6.03276000
H   -14.55970000   -3.65155000   8.70901000
H   -14.49988000   -5.09157000   5.97481000
H   -13.27612000   -5.86490000   8.71493000
C   -14.43619000   0.77533000   7.64553000
C   -13.15437000   1.49562000   7.21399000
C   -11.91625000   0.74716000   7.72957000
C   -10.63226000   1.47184000   7.29048000
C   -9.38879000   0.72888000   7.80568000
C   -8.10509000   1.45766000   7.36848000
H   -14.51765000   0.78285000   8.75373000
H   -11.95033000   0.74289000   8.84252000
H   -9.42222000   0.72201000   8.91855000
H   -13.13078000   1.56637000   6.10408000
H   -10.59807000   1.54063000   6.17966000
H   -8.07188000   1.53033000   6.25794000
C   -8.15426000   5.92726000   7.19099000
C   -9.43327000   5.19129000   7.65063000
C   -10.69011000   5.93889000   7.14089000
H   -8.13368000   5.94813000   6.07586000
C   -9.42646000   3.73233000   7.12983000
H   -9.45435000   5.17265000   8.76587000
C   -10.70070000   3.00296000   7.58543000
C   -11.95416000   3.74047000   7.08378000
C   -11.96842000   5.20186000   7.60113000
H   -9.40749000   3.73825000   6.01658000
H   -10.66811000   5.95661000   6.02578000
H   -11.98903000   5.18578000   8.71657000
H   -11.93371000   3.74407000   5.97046000
H   -10.72081000   2.93525000   8.69664000
C   -8.17202000   2.99102000   7.62693000
H   -8.18970000   2.92019000   8.73789000
C   -13.23283000   5.94229000   7.09187000
C   -13.22384000   3.00541000   7.53803000
C   -14.49299000   5.18421000   7.55270000
C   -14.47520000   3.73867000   7.04349000
H   -13.21961000   5.95429000   5.97762000
H   -14.56132000   5.18407000   8.66281000
H   -14.50195000   3.73111000   5.93261000
H   -13.25567000   2.93540000   8.64779000
C   -3.09879000   -5.86175000   7.66142000
C   -0.56028000   -5.87467000   7.71556000
C   -1.81568000   -5.12658000   7.20526000
H   -0.58329000   -5.89571000   8.83059000
H   -0.50792000   -2.91317000   6.16050000
C   -0.53508000   -2.93478000   7.27547000
C   -1.82024000   -3.66982000   7.72712000
H   -1.79093000   -5.10712000   6.09022000
C   -3.07258000   -2.92136000   7.21081000
C   -4.35971000   -3.65341000   7.66318000
C   -4.35480000   -5.11654000   7.14716000
H   -4.32745000   -5.10075000   6.03211000
H   -3.12386000   -5.87937000   8.77639000
H   -1.84773000   -3.68932000   8.84205000
H   -3.04398000   -2.90338000   6.09590000
H   -4.38686000   -3.66929000   8.77821000
C   -3.07465000   -1.46425000   7.73207000
C   -0.53841000   -1.47901000   7.80087000
C   -1.78730000   -0.72957000   7.28352000
C   -4.32141000   -0.71380000   7.21080000
H   -3.10641000   -1.48244000   8.84691000
H   -0.56810000   -1.50048000   8.91574000
H   -1.75597000   -0.71000000   6.16846000
C   -5.61693000   -1.44108000   7.65684000
C   -5.61574000   -2.90378000   7.14688000
C   -5.64235000   -5.85281000   7.60123000
C   -6.84489000   -0.66982000   7.13497000
C   -6.88488000   -3.65011000   7.59943000
C   -6.87981000   -5.09344000   7.08676000
H   -6.85839000   -0.66872000   6.02281000
H   -5.65860000   -1.45337000   8.77035000
H   -5.59568000   -2.89136000   6.03276000
H   -6.96070000   -3.65155000   8.70901000
H   -6.90088000   -5.09157000   5.97481000
H   -5.67712000   -5.86490000   8.71493000
C   -6.83719000   0.77533000   7.64553000
C   -5.55537000   1.49562000   7.21399000
C   -4.31725000   0.74716000   7.72957000
C   -3.03326000   1.47184000   7.29048000
C   -1.78979000   0.72888000   7.80568000
C   -0.50609000   1.45766000   7.36848000
H   -6.91865000   0.78285000   8.75373000
H   -4.35133000   0.74289000   8.84252000
H   -1.82322000   0.72201000   8.91855000
H   -5.53178000   1.56637000   6.10408000
H   -2.99907000   1.54063000   6.17966000
H   -0.47288000   1.53033000   6.25794000
C   -0.55526000   5.92726000   7.19099000
C   -1.83427000   5.19129000   7.65063000
C   -3.09111000   5.93889000   7.14089000
H   -0.53468000   5.94813000   6.07586000
C   -1.82746000   3.73233000   7.12983000
H   -1.85535000   5.17265000   8.76587000
C   -3.10170000   3.00296000   7.58543000
C   -4.35516000   3.74047000   7.08378000
C   -4.36942000   5.20186000   7.60113000
H   -1.80849000   3.73825000   6.01658000
H   -3.06911000   5.95661000   6.02578000
H   -4.39003000   5.18578000   8.71657000
H   -4.33471000   3.74407000   5.97046000
H   -3.12181000   2.93525000   8.69664000
C   -0.57302000   2.99102000   7.62693000
H   -0.59070000   2.92019000   8.73789000
C   -5.63383000   5.94229000   7.09187000
C   -5.62484000   3.00541000   7.53803000
C   -6.89399000   5.18421000   7.55270000
C   -6.87620000   3.73867000   7.04349000
H   -5.62061000   5.95429000   5.97762000
H   -6.96232000   5.18407000   8.66281000
H   -6.90295000   3.73111000   5.93261000
H   -5.65667000   2.93540000   8.64779000
C   4.50021000   -5.86175000   7.66142000
C   7.03872000   -5.87467000   7.71556000
C   5.78332000   -5.12658000   7.20526000
H   7.01571000   -5.89571000   8.83059000
H   7.09108000   -2.91317000   6.16050000
C   7.06392000   -2.93478000   7.27547000
C   5.77876000   -3.66982000   7.72712000
H   5.80807000   -5.10712000   6.09022000
C   4.52642000   -2.92136000   7.21081000
C   3.23929000   -3.65341000   7.66318000
C   3.24420000   -5.11654000   7.14716000
H   3.27155000   -5.10075000   6.03211000
H   4.47514000   -5.87937000   8.77639000
H   5.75127000   -3.68932000   8.84205000
H   4.55502000   -2.90338000   6.09590000
H   3.21214000   -3.66929000   8.77821000
C   4.52435000   -1.46425000   7.73207000
C   7.06059000   -1.47901000   7.80087000
C   5.81170000   -0.72957000   7.28352000
C   3.27759000   -0.71380000   7.21080000
H   4.49259000   -1.48244000   8.84691000
H   7.03090000   -1.50048000   8.91574000
H   3.31160000   -0.69713000   6.09570000
C   1.98207000   -1.44108000   7.65684000
C   1.98326000   -2.90378000   7.14688000
C   1.95665000   -5.85281000   7.60123000
C   0.75411000   -0.66982000   7.13497000
C   0.71412000   -3.65011000   7.59943000
C   0.71919000   -5.09344000   7.08676000
H   0.74061000   -0.66872000   6.02281000
H   1.94040000   -1.45337000   8.77035000
H   2.00332000   -2.89136000   6.03276000
H   0.63830000   -3.65155000   8.70901000
H   0.69812000   -5.09157000   5.97481000
H   1.92188000   -5.86490000   8.71493000
C   0.76181000   0.77533000   7.64553000
C   2.04363000   1.49562000   7.21399000
C   3.28175000   0.74716000   7.72957000
C   4.56574000   1.47184000   7.29048000
C   5.80921000   0.72888000   7.80568000
C   7.09291000   1.45766000   7.36848000
H   0.68035000   0.78285000   8.75373000
H   3.24767000   0.74289000   8.84252000
H   5.77578000   0.72201000   8.91855000
H   2.06722000   1.56637000   6.10408000
H   4.59993000   1.54063000   6.17966000
H   7.12612000   1.53033000   6.25794000
C   7.04374000   5.92726000   7.19099000
C   5.76473000   5.19129000   7.65063000
C   4.50789000   5.93889000   7.14089000
H   7.06432000   5.94813000   6.07586000
C   5.77154000   3.73233000   7.12983000
H   5.74365000   5.17265000   8.76587000
C   4.49730000   3.00296000   7.58543000
C   3.24384000   3.74047000   7.08378000
C   3.22958000   5.20186000   7.60113000
H   5.79051000   3.73825000   6.01658000
H   4.52989000   5.95661000   6.02578000
H   3.20897000   5.18578000   8.71657000
H   3.26429000   3.74407000   5.97046000
H   4.47719000   2.93525000   8.69664000
C   7.02598000   2.99102000   7.62693000
H   7.00830000   2.92019000   8.73789000
C   1.96517000   5.94229000   7.09187000
C   1.97416000   3.00541000   7.53803000
C   0.70501000   5.18421000   7.55270000
C   0.72280000   3.73867000   7.04349000
H   1.97839000   5.95429000   5.97762000
H   0.63668000   5.18407000   8.66281000
H   0.69605000   3.73111000   5.93261000
H   1.94233000   2.93540000   8.64779000
C   12.09921000   -5.86175000   7.66142000
C   14.63772000   -5.87467000   7.71556000
C   13.38232000   -5.12658000   7.20526000
H   14.61471000   -5.89571000   8.83059000
H   14.69008000   -2.91317000   6.16050000
C   14.66292000   -2.93478000   7.27547000
C   13.37776000   -3.66982000   7.72712000
H   13.40707000   -5.10712000   6.09022000
C   12.12542000   -2.92136000   7.21081000
C   10.83829000   -3.65341000   7.66318000
C   10.84320000   -5.11654000   7.14716000
H   10.87055000   -5.10075000   6.03211000
H   12.07414000   -5.87937000   8.77639000
H   13.35027000   -3.68932000   8.84205000
H   12.15402000   -2.90338000   6.09590000
H   10.81114000   -3.66929000   8.77821000
C   12.12335000   -1.46425000   7.73207000
C   14.65959000   -1.47901000   7.80087000
C   13.41070000   -0.72957000   7.28352000
C   10.87659000   -0.71380000   7.21080000
H   12.09159000   -1.48244000   8.84691000
H   14.62990000   -1.50048000   8.91574000
H   10.91060000   -0.69713000   6.09570000
H   13.44203000   -0.71000000   6.16846000
C   9.58107000   -1.44108000   7.65684000
C   9.58226000   -2.90378000   7.14688000
C   9.55565000   -5.85281000   7.60123000
C   8.35311000   -0.66982000   7.13497000
C   8.31312000   -3.65011000   7.59943000
C   8.31819000   -5.09344000   7.08676000
H   8.33961000   -0.66872000   6.02281000
H   9.53940000   -1.45337000   8.77035000
H   9.60232000   -2.89136000   6.03276000
H   8.23730000   -3.65155000   8.70901000
H   8.29712000   -5.09157000   5.97481000
H   9.52088000   -5.86490000   8.71493000
C   8.36081000   0.77533000   7.64553000
C   9.64263000   1.49562000   7.21399000
C   10.88075000   0.74716000   7.72957000
C   12.16474000   1.47184000   7.29048000
C   13.40821000   0.72888000   7.80568000
C   14.69191000   1.45766000   7.36848000
H   8.27935000   0.78285000   8.75373000
H   10.84667000   0.74289000   8.84252000
H   13.37478000   0.72201000   8.91855000
H   9.66622000   1.56637000   6.10408000
H   12.19893000   1.54063000   6.17966000
H   14.72512000   1.53033000   6.25794000
C   14.64274000   5.92726000   7.19099000
C   13.36373000   5.19129000   7.65063000
C   12.10689000   5.93889000   7.14089000
H   14.66332000   5.94813000   6.07586000
C   13.37054000   3.73233000   7.12983000
H   13.34265000   5.17265000   8.76587000
C   12.09630000   3.00296000   7.58543000
C   10.84284000   3.74047000   7.08378000
C   10.82858000   5.20186000   7.60113000
H   13.38951000   3.73825000   6.01658000
H   12.12889000   5.95661000   6.02578000
H   10.80797000   5.18578000   8.71657000
H   10.86329000   3.74407000   5.97046000
H   12.07619000   2.93525000   8.69664000
C   14.62498000   2.99102000   7.62693000
H   14.60730000   2.92019000   8.73789000
C   9.56417000   5.94229000   7.09187000
C   9.57316000   3.00541000   7.53803000
C   8.30401000   5.18421000   7.55270000
C   8.32180000   3.73867000   7.04349000
H   9.57739000   5.95429000   5.97762000
H   8.23568000   5.18407000   8.66281000
H   8.29505000   3.73111000   5.93261000
H   9.54133000   2.93540000   8.64779000
N   -2.87966713   0.94972147   -0.98333685
C   -2.66554148   0.47431336   0.51957878
H   -2.97691841   -0.57469366   0.45736402
H   -1.55791350   0.48019148   0.69553270
C   -3.37573758   1.17420040   1.62167449
H   -3.11194553   2.20135598   1.69842785
H   -4.42963962   1.25384091   1.35462166
C   -4.38042934   -0.57569955   5.52067508
H   -3.93227589   0.36611093   5.24334415
H   -5.42956944   -0.37242296   5.22319908
C   -3.81606348   -1.54632286   4.46103270
H   -2.74808495   -1.67965765   4.62322010
H   -4.28543894   -2.53627652   4.60661404
C   -3.92207493   -0.88859271   3.07272588
H   -5.01162045   -0.80705479   2.75078456
H   -3.42609770   -1.53400029   2.40291705
C   -3.20203349   0.44587405   2.98894338
H   -3.49222414   1.13670743   3.87483127
H   -2.11249882   0.25791875   3.12499325
C   -4.35770719   1.06665867   -1.30792632
H   -4.84388907   0.06556103   -1.08799157
H   -4.38053903   1.25014813   -2.39427288
H   -4.78540699   1.91126240   -0.70568229
C   -1.98824052   0.09033885   -1.86713630
H   -2.42342263   -0.87745023   -1.82665435
H   -1.03099771   0.01955317   -1.40680588
H   -1.85244729   0.52811632   -2.85853611
C   -2.32953998   2.33763605   -1.04483528
H   -2.67166429   2.91125512   -1.97625005
H   -1.23268154   2.19009499   -1.05100812
H   -2.70999333   2.94736182   -0.26580563
N   8.99407169   -3.59849886   -0.06080445
C   7.49565990   -3.20824615   0.30124050
H   7.19952668   -2.44664852   -0.47806993
H   6.88109321   -4.13342500   0.27721914
C   7.46002063   -2.49704448   1.70142757
H   7.90861988   -3.11287365   2.47826700
H   8.13187198   -1.63285534   1.70966789
C   5.86987904   -0.60911248   5.61460099
H   6.77091095   -0.07626485   5.39118594
H   5.06522246   0.03372084   5.40557661
C   5.64264051   -1.69528350   4.64891613
H   6.23014525   -2.59747408   4.71821174
H   4.57891698   -1.81214351   4.68979410
C   6.05098673   -1.15359110   3.25314337
H   7.00657511   -0.70008677   3.30217097
H   5.43643994   -0.19670251   3.15771868
C   5.97892382   -2.03603383   1.99468479
H   5.19391755   -2.85947211   2.05602279
H   5.63047325   -1.45634080   1.15910315
C   8.96995956   -3.85726906   -1.51996332
H   9.94799627   -4.24785043   -1.76299057
H   8.88634787   -2.89214279   -1.98026043
H   8.14057547   -4.53230762   -1.78598437
C   9.41575425   -4.97762402   0.54285327
H   9.20183547   -5.84923607   -0.08783974
H   8.86405695   -4.95700264   1.49841478
H   10.36698536   -4.98058675   1.03961953
C   9.99214630   -2.54375889   0.26767254
H   9.60075511   -1.60487442   -0.21271419
H   11.03973049   -2.86075287   0.05063515
H   10.13651972   -2.38120807   1.37138131
O   0.54044399   -3.24259647   -3.56932870
H   -0.01962511   -2.64398700   -4.16941450
H   -0.00277200   -3.91498830   -3.12919748
O   -3.45314450   6.14025170   -1.11649396
H   -2.63481609   5.68223239   -0.73616226
H   -3.37612809   -6.13987581   -0.95985411
O   -14.74470568   -4.50675211   -2.69150879
H   -14.03105953   -4.01902202   -2.28173066
H   15.06850363   -3.92523715   -3.20183059
O   0.44360351   -6.42020981   -1.09329052
H   -0.34649483   -6.30249679   -1.61834919
H   1.20538479   -6.04617865   -1.58674266
O   -6.94388250   5.20459651   -4.01739266
H   -6.00193151   5.50234230   -3.79847417
H   -7.48101608   5.14225745   -3.28268311
O   4.21374881   5.21181675   -0.19588657
H   3.92197441   6.14684705   -0.22228821
H   4.68613455   5.07587651   0.66495585
O   9.26483129   0.46912697   1.66022188
H   8.50112645   0.95661041   1.36999127
H   9.99264078   0.79427668   1.06099882
O   -12.09039384   -5.48852472   -3.59116357
H   -12.42117578   -6.05004935   -4.28307071
H   -12.90468219   -5.18198067   -3.14249157
O   15.04686460   0.97038669   0.28295435
H   -14.82747297   0.37749846   -0.19254508
H   14.21036543   1.15254375   -0.23104541
O   -0.57333881   -1.86977120   0.07349449
H   -0.40808420   -2.58562473   0.69720272
H   0.38480907   -1.78252990   -0.18908448
O   14.46881945   -2.10452832   1.48171847
H   14.09231874   -1.60335777   2.17745618
H   -15.02273746   -2.43245716   1.70755261
O   -1.95871134   -3.67678856   2.02266272
H   -1.98638060   -3.65721198   3.02248643
H   -8.94633942   1.21825254   -3.19930044
O   -2.48984818   -2.20446267   -3.98201980
H   -3.29932746   -2.14818184   -3.52371166
H   -2.05475079   -3.04818854   -3.78417519
O   11.14607859   0.00632971   -0.57177095
H   10.99124489   1.01380478   -0.66548657
H   11.88448032   -0.08933506   0.08985833
O   -5.33308616   -4.75648598   -2.87922189
H   -4.45331297   -4.77776495   -2.51035722
H   -5.67802354   -3.88192590   -2.72957701
O   14.74122601   5.13055212   -1.92446871
H   14.28410096   5.85134582   -2.38113657
H   14.24480299   4.57052132   -1.31278868
O   -9.40073356   5.11748377   3.04687318
H   -10.08281293   5.74919561   3.05854687
H   -8.53676678   5.55013034   3.12275406
O   6.89319054   5.08652001   3.53755486
H   7.21765879   4.43087183   2.90906749
H   7.51852757   5.14578219   4.23893642
O   1.62369428   4.18851828   0.32342213
H   -8.43830630   -5.29721816   -3.68249988
H   2.34375037   4.71577655   0.06173717
O   0.24795362   1.72926685   0.64622671
H   -2.83921198   -3.60616276   1.59411195
H   1.09563159   2.28132699   0.62459589
O   4.50439188   -5.15107716   0.85482693
H   4.10070969   -4.25816464   0.90396351
H   3.97628482   -5.64961026   1.48152466
O   -8.09308240   3.37782651   1.08513787
H   -7.32187405   3.79294931   0.79236727
H   -8.51516689   4.03490281   1.72415760
O   8.14307902   2.94195702   2.10728780
H   8.64672743   2.77457574   2.94352107
H   8.80562065   2.70415836   1.41346832
O   0.62245378   -4.86748372   1.26416433
H   -0.23902791   -4.64172958   1.67787925
H   0.32534259   -5.34967261   0.42016667
O   -9.07565613   0.05109026   3.51762714
H   -9.62310310   -0.63810441   3.76602640
H   -9.38451031   0.74484881   4.12100160
O   2.61693947   -5.09720457   -2.63985625
H   3.14534899   -4.48138917   -2.18455051
H   2.00761018   -4.75656832   -3.26839228
O   -10.29246937   -1.84383600   1.70847805
H   -9.85423348   -2.10917624   0.89077748
H   -6.53866700   -5.95469908   -1.36326098
O   3.28708100   -3.94436037   3.42092729
H   -11.19976878   -1.77983780   1.44657744
H   3.60958525   -3.92006506   4.34736382
O   9.94272938   2.59023194   0.13760351
H   12.14434545   2.63602025   0.22536164
H   10.01829117   3.51473370   -0.16775810
O   7.67425081   1.52904522   -1.15743779
H   8.36585387   1.87158284   -0.50548136
H   6.84140401   1.94658056   -0.77067930
O   7.64191897   4.63037147   -0.48808063
H   7.11618938   5.10842005   0.13061781
H   7.99724826   3.76956892   -0.07826991
O   -5.26282753   -4.97056452   3.54690671
H   -6.85761711   -0.13956477   1.68495198
H   -4.34411115   -5.26635195   3.58558516
O   -14.63852330   3.46498879   1.64815078
H   -14.59396221   3.19014749   0.68623367
H   -14.27306915   2.66759074   2.05865710
O   -13.60336343   -2.20868055   -2.10722895
H   -12.69503267   -1.82540237   -2.34718861
H   -14.16510545   -1.46178405   -1.96939104
O   12.29686997   -1.48641195   -2.87421520
H   11.75121288   -0.77320967   -2.47749176
H   11.72441924   -1.70593534   -3.64038950
O   -11.08377968   -0.68594190   -1.17998125
H   -10.56825069   -0.35604680   -1.91401027
H   -11.18941335   0.12371822   -0.62902795
O   -7.10800389   6.27976814   2.07755215
H   -6.60269800   -6.53408850   2.67815906
H   -7.31754467   -6.64035810   1.24847666
O   -7.45538884   -1.59522979   -1.39568905
H   -8.27876204   -2.09364846   -1.31147725
H   -7.19385958   -1.51301596   -0.47671539
O   11.38520456   3.64917151   2.27020550
H   10.90761931   3.13886341   1.59344602
H   12.25818726   3.26288169   2.41022582
O   -11.42056763   -6.09945496   2.10411142
H   -11.66604253   -6.53346241   1.27775381
H   -12.15989912   -6.20952550   2.77208218
O   3.01150105   -2.77506476   0.75086851
H   3.71609728   -2.27853122   0.34217628
H   3.01721379   -2.95271749   1.66779429
O   10.27865745   -6.50929805   -2.37898026
H   11.19607257   -6.48788023   -2.16400473
H   9.98543827   5.96171776   -2.54814668
O   -13.73970504   3.23365491   -1.15370924
H   -13.32509793   2.51895013   -0.66176370
H   -13.53382035   3.09306095   -2.09664468
O   -9.00014747   -5.34405470   -2.93474924
H   -9.88131110   -5.42639219   -3.27694368
H   0.54458071   1.04817603   0.00569206
O   -6.39609245   6.66741206   -0.82765148
H   2.43865879   -4.34115820   3.34257727
H   -5.44292072   6.39901949   -0.79421921
O   10.04024813   2.66928660   -2.76183224
H   9.18896670   2.27914293   -3.06995884
H   10.01753862   2.46283848   -1.80810855
O   12.57992639   2.56237895   -0.63500586
H   0.92487399   4.81258965   0.14126760
H   11.81881000   2.82676259   -1.13742200
O   -0.82277072   5.48496680   0.81044797
H   -0.51233915   6.27235953   0.36390915
H   -0.68887133   5.45613100   1.74323241
O   1.93214399   0.56649666   -1.28459535
H   2.63887146   0.23147191   -0.65529995
H   2.25195662   0.45869808   -2.18935141
O   4.50164102   1.35700587   -0.22234321
H   4.59305786   2.18306835   -0.75855128
H   4.33781638   1.68501758   0.62380036
O   -11.88130162   2.02658785   0.83735507
H   -12.02296268   2.92768018   0.99937078
H   -10.99200088   1.89536100   1.05498287
O   -4.10809498   6.22760727   -3.68706888
H   -3.81544399   6.29218595   -2.74279492
H   -4.19600412   -6.27728227   -3.99532350
O   8.75684545   -4.91292610   3.60397692
H   7.90383693   -5.27273943   3.77468907
H   9.42442507   -5.58426268   3.40402730
O   -9.16425797   0.95885905   0.67161419
H   -9.50431651   0.25859626   1.18717746
H   -8.63475656   1.58117916   1.27057959
O   5.29246634   2.80438096   2.60467916
H   6.23496827   2.69623284   2.46199301
H   5.05271066   3.50764129   3.15029551
O   9.33432696   -1.32874248   -3.22852361
H   9.44075483   -0.48116926   -2.87661384
H   8.42451243   -1.32274372   -3.51815371
O   -11.52912145   5.36046437   -0.55218913
H   -11.63208866   6.27743356   -0.76644642
H   -12.25291359   4.84542307   -0.91017431
O   2.50638050   -6.57900181   2.61530378
H   2.13662318   -6.10782388   1.83033706
H   2.14936277   5.88745220   2.61344546
O   -4.78010329   3.48955462   -3.21643807
H   -5.51481681   3.57596048   -3.83963834
H   -4.43260382   4.37439310   -3.24867444
O   13.03177571   -5.70554817   -2.05037684
H   13.45279670   -5.26342606   -2.78679017
H   13.68341179   -5.87507060   -1.34044319
O   1.04393841   3.91181563   3.13013186
H   0.83655818   3.85113270   2.23669068
H   0.56146714   3.18987078   3.53495516
O   -13.68600291   5.97731914   3.19531071
H   -13.98375553   5.32483279   2.54278930
H   -14.07107025   5.83040295   4.06940745
O   13.35856453   3.85831911   -4.17308473
H   12.55114479   3.90249018   -3.68911092
H   14.09054041   3.78596154   -3.56127359
O   -6.28369366   -0.05907526   0.90160226
H   14.15465095   2.11516842   2.92433240
H   -6.88591843   0.27821806   0.27267418
O   5.92916251   -0.79446245   -0.92620939
H   6.75605967   -0.27691988   -0.95958805
H   5.22798224   -0.18592843   -1.18159002
O   -14.80784629   0.85213115   -2.49481173
H   -14.52400368   1.25030102   -3.34436608
H   14.97067055   0.17491150   -2.90819465
O   -3.26885475   -4.73602995   -0.84979415
H   -1.24162808   -6.30592212   -3.12661148
H   -2.48711461   -4.54129230   -0.27579932
O   -5.26606938   3.97411295   -0.07480526
H   -5.44679904   3.88264085   -1.01340409
H   -4.65623492   4.74213303   -0.06602494
O   -4.16020142   -2.18829024   -1.43989254
H   -4.06040470   -3.09791586   -1.06944263
H   -5.08653190   -1.96873681   -1.68468360
O   -5.24526968   -4.47957928   0.89043812
H   -5.62780530   -5.37811739   0.72997428
H   -4.56765165   -4.48359152   0.10576925
O   -8.85349136   2.88282684   -1.64632260
H   -8.43695735   2.58558125   -0.82152203
H   -9.74941065   3.25527515   -1.46306154
O   10.54653885   6.32087307   2.53660003
H   11.50448975   6.34965590   2.66958256
H   10.46943110   5.45842616   2.16554843
O   -1.40213998   -5.41186532   -2.80575757
H   -5.20271980   -4.47257818   2.71266273
H   -2.23768541   -5.48616298   -2.34781701
O   -8.89247611   0.24072813   -3.43698401
H   -8.08210852   -0.20325874   -3.11999063
O   13.38326527   1.51783981   2.94576168
H   13.70777201   0.95065394   2.23262827
